$*$$$$$$$$$$$$$$$$$$$$$$$$$$$$$$$$$$$$$$$$$$$$$$$$$$$$$$$$$$$$$$$$$
$*
$*                    Simcenter v12.0.0.27 Translator
$*                    for NX Nastran version 12.0
$*
$*             FEM FILE: C:\Users\jabbo\OneDrive\Documents\GitHub\Capstone2018\Structures\CAD\Leg assembly_fem1.fem
$*             SIM FILE: C:\Users\jabbo\OneDrive\Documents\GitHub\Capstone2018\Structures\CAD\Leg assembly_sim1.sim
$*        ANALYSIS TYPE: Structural
$*        SOLUTION NAME: Solution 1
$*        SOLUTION TYPE: SOL 105 Linear Buckling
$*
$*    SOLVER INPUT FILE: leg_assembly_sim1-solution_1.dat
$*        CREATION DATE: 26-Feb-2019
$*        CREATION TIME: 12:19:20
$*             HOSTNAME: Lenovo
$*      NASTRAN LICENSE: Desktop Bundle
$*
$*                UNITS: mm (milli-newton)
$*                      ... LENGTH : mm
$*                      ... TIME   : sec
$*                      ... MASS   : kilogram (kg)
$*                      ... TEMPERATURE : deg Celsius
$*                      ... FORCE  : milli-newton
$*                      ... THERMAL ENERGY : mN-mm (micro-joule)
$*
$* IMPORTANT NOTE:
$*     This banner was generated by Simcenter and altering this 
$*     information may compromise the pre and post processing of results
$*
$*$$$$$$$$$$$$$$$$$$$$$$$$$$$$$$$$$$$$$$$$$$$$$$$$$$$$$$$$$$$$$$$$$
$*
$*$$$$$$$$$$$$$$$$$$$$$$$$$$$$$$$$$$$
$*
$* FILE MANAGEMENT
$*
$*$$$$$$$$$$$$$$$$$$$$$$$$$$$$$$$$$$$
$*
$*
$*$$$$$$$$$$$$$$$$$$$$$$$$$$$$$$$$$$$
$*
$* EXECUTIVE CONTROL
$*
$*$$$$$$$$$$$$$$$$$$$$$$$$$$$$$$$$$$$
$*
ID,NASTRAN,leg_assembly_sim1-solution_1
SOL 105
CEND
$*
$*$$$$$$$$$$$$$$$$$$$$$$$$$$$$$$$$$$$
$*
$* CASE CONTROL
$*
$*$$$$$$$$$$$$$$$$$$$$$$$$$$$$$$$$$$$
$*
ECHO = NONE
SPC = 100
OUTPUT
DISPLACEMENT(PLOT,REAL) = ALL
SPCFORCES(PLOT,REAL) = ALL
STRESS(PLOT,REAL,VONMISES,CENTER) = ALL
$*  Step: Subcase - Buckling Loads
SUBCASE 1
  LABEL = Subcase - Buckling Loads
  LOAD = 3
$*  Step: Subcase - Buckling Method
SUBCASE 2
  LABEL = Subcase - Buckling Method
  METHOD = 102
$*
$*$$$$$$$$$$$$$$$$$$$$$$$$$$$$$$$$$$$
$*
$* BULK DATA
$*
$*$$$$$$$$$$$$$$$$$$$$$$$$$$$$$$$$$$$
$*
BEGIN BULK
$*
$* SOLUTION CARDS
$*
$*  Modeling Object: Real Eigenvalue - Lanczos1
EIGRL        102                      10       0       7            MASS
$*
$* PARAM CARDS
$*
PARAM      K6ROT100.0000
PARAM     OIBULK     YES
PARAM    OMACHPR     YES
PARAM       POST      -2
PARAM    POSTEXT     YES
PARAM    UNITSYS   MN-MM
$*
$* GRID CARDS
$*
GRID*                  1               04.1725481292E+01-2.413650686E+01+
*       3.9856572528E+01               0
GRID*                  2               07.3926771030E+023.8992615364E+01+
*       2.2631494735E+01               0
GRID*                  3               05.1056809270E+023.3997795355E+01+
*       -2.989576349E+01               0
GRID*                  4               07.6903614025E+022.7105912315E+01+
*       -3.673282382E+01               0
GRID*                  5               05.2591667038E+02-4.055395173E+01+
*       2.0017135985E+01               0
GRID*                  6               07.6134520032E+024.0340694208E+01+
*       2.0047696405E+01               0
GRID*                  7               01.6135159660E+02-4.241345911E+01+
*       1.7463239665E+01               0
GRID*                  8               01.8852363143E+02-6.084498502E+00+
*       -4.504376242E+01               0
GRID*                  9               02.6150395506E+02-1.179713729E+01+
*       -4.329323562E+01               0
GRID*                 10               03.4017738099E+023.1285355015E+01+
*       -3.284429949E+01               0
GRID*                 11               05.5332958841E+024.4810555168E+01+
*       -9.381161769E-01               0
GRID*                 12               04.8450915578E+024.2856632739E+01+
*       -1.585592573E+01               0
GRID*                 13               05.6422335114E+021.2606153157E+01+
*       -4.325045713E+01               0
GRID*                 14               08.7330786574E+02-3.762684055E+01+
*       2.4151032970E+01               0
GRID*                 15               08.1536498444E+023.9149399901E+01+
*       2.3217456101E+01               0
GRID*                 16               06.9500370575E+02-3.819858251E+01+
*       2.5445970598E+01               0
GRID*                 17               07.4120464541E+02-3.958832911E+01+
*       2.2877944215E+01               0
GRID*                 18               06.2184530882E+02-3.904207187E+01+
*       2.2397058659E+01               0
GRID*                 19               08.8881299220E+02-4.487532268E+01+
*       -7.570806476E+00               0
GRID*                 20               04.6461669978E+02-4.567639877E+01+
*       6.4962319692E+00               0
GRID*                 21               04.8796052173E+02-4.554447253E+01+
*       -2.793090181E+00               0
GRID*                 22               02.3390251400E+024.5446963733E+01+
*       6.1811815436E+00               0
GRID*                 23               08.0987280347E+02-1.590579624E+01+
*       -4.256047324E+01               0
GRID*                 24               04.1324140457E+023.6267999396E+01+
*       -2.755053952E+01               0
GRID*                 25               01.1310849921E+02-4.569579712E+01+
*       7.0123297374E+00               0
GRID*                 26               01.0711202630E+01-4.077374984E+01+
*       1.9312270065E+01               0
GRID*                 27               05.1712401812E+02-4.549511718E+01+
*       8.0915143424E+00               0
GRID*                 28               08.7471488937E+01-4.114155766E+01+
*       1.8575901354E+01               0
GRID*                 29               04.3652591490E+024.3149828811E+01+
*       -1.364106251E+01               0
GRID*                 30               05.8783903999E+023.3256011944E+01+
*       -3.089950604E+01               0
GRID*                 31               05.9086060461E+02-4.031486354E+01+
*       1.9224871230E+01               0
GRID*                 32               03.1170883859E+024.0077510988E+01+
*       1.9494200367E+01               0
GRID*                 33               01.8919436330E+02-3.829156600E+01+
*       2.6045160336E+01               0
GRID*                 34               01.6239986657E+02-4.517560179E+01+
*       7.2209709895E+00               0
GRID*                 35               02.3709756318E+02-3.997595525E+01+
*       2.1192127450E+01               0
GRID*                 36               08.2391470137E+02-4.102351080E+01+
*       2.1517322474E+01               0
GRID*                 37               08.1713109084E+02-4.527191070E+01+
*       8.8928446477E+00               0
GRID*                 38               08.3815689709E+02-4.397635772E+01+
*       -9.918763082E+00               0
GRID*                 39               08.6443314991E+02-4.394834226E+01+
*       1.0828799443E+01               0
GRID*                 40               08.8656365635E+021.3407690331E+01+
*       -4.271941422E+01               0
GRID*                 41               02.1343170573E+024.4831621900E+01+
*       -8.039532878E+00               0
GRID*                 42               01.6494419312E+024.1416092593E+01+
*       1.8167356018E+01               0
GRID*                 43               07.8913941250E+024.0966202370E+01+
*       1.8585178520E+01               0
GRID*                 44               06.8914630593E+024.0903989637E+01+
*       1.8707396987E+01               0
GRID*                 45               05.9071001577E+02-4.499094239E+01+
*       7.3425878206E+00               0
GRID*                 46               03.3597457625E+02-4.531156383E+01+
*       -5.794248004E+00               0
GRID*                 47               06.1366331452E+02-4.404631971E+01+
*       1.1166915776E+01               0
GRID*                 48               01.6222108695E+02-1.680942865E+00+
*       4.5038032879E+01               0
GRID*                 49               02.8455975960E+02-4.698051411E+01+
*       -5.259455696E+00               0
GRID*                 50               06.6538610160E+023.9210491097E+01+
*       -2.467172477E+01               0
GRID*                 51               07.1193669085E+024.4892847002E+01+
*       -6.015793898E+00               0
GRID*                 52               02.1643318501E+02-4.458439146E+01+
*       7.6746133917E+00               0
GRID*                 53               02.8671099221E+024.0053864219E+01+
*       1.9523730033E+01               0
GRID*                 54               02.6171315225E+024.0030179836E+01+
*       1.9553241501E+01               0
GRID*                 55               04.6187132082E+023.0530596464E+01+
*       -3.361237679E+01               0
GRID*                 56               06.8607229394E+022.9547903205E+01+
*       -3.423360082E+01               0
GRID*                 57               01.6172855496E+024.3813521810E+01+
*       -3.000891937E+00               0
GRID*                 58               01.5069449770E+024.6251228076E+01+
*       2.3983567963E+00               0
GRID*                 59               02.3701423004E+024.2887493606E+01+
*       1.6672750547E+01               0
GRID*                 60               05.3827465035E+023.2725994593E+01+
*       -3.015681695E+01               0
GRID*                 61               04.3959287977E+023.9357324094E+01+
*       -2.585542740E+01               0
GRID*                 62               06.0376290397E+01-2.771960943E+01+
*       -3.657032854E+01               0
GRID*                 63               06.2454313238E+01-3.515663230E+01+
*       -3.047339551E+01               0
GRID*                 64               07.8483398983E+023.3487575613E+01+
*       -3.086695150E+01               0
GRID*                 65               07.6169293668E+02-1.309406164E+01+
*       -4.309711595E+01               0
GRID*                 66               08.6477015944E+01-3.644634501E+01+
*       2.7421920660E+01               0
GRID*                 67               06.3666152666E+02-1.163641657E+01+
*       -4.351976306E+01               0
GRID*                 68               06.3750595758E+02-3.288108613E+01+
*       -3.144380367E+01               0
GRID*                 69               08.6013376495E+011.4082707888E+01+
*       -4.281118323E+01               0
GRID*                 70               03.2329120279E+014.0239606990E+01+
*       2.2537332417E+01               0
GRID*                 71               03.0966180034E+02-4.631821087E+01+
*       -5.505010256E+00               0
GRID*                 72               08.6089235338E+02-2.182236802E+00+
*       4.5085433065E+01               0
GRID*                 73               08.9019751892E+022.1589328601E+01+
*       4.0056340571E+01               0
GRID*                 74               08.6413413067E+024.1012376702E+01+
*       1.8494680607E+01               0
GRID*                 75               01.3120028844E+011.2611632614E+01+
*       -4.367697643E+01               0
GRID*                 76               01.4199837279E+024.5515598553E+01+
*       3.4373363189E+00               0
GRID*                 77               01.3909817892E+024.4791231740E+01+
*       -5.900107995E+00               0
GRID*                 78               07.8673363215E+02-4.413873461E+01+
*       -7.299092332E+00               0
GRID*                 79               06.8865606069E+02-4.405614921E+01+
*       1.1309417307E+01               0
GRID*                 80               05.8869935886E+02-4.440244619E+01+
*       -3.730985894E+00               0
GRID*                 81               01.2463976957E+014.0458161743E+01+
*       2.0776531252E+01               0
GRID*                 82               04.3620310727E+02-3.799580710E+01+
*       2.4716186269E+01               0
GRID*                 83               02.9173139945E+02-2.466550372E+01+
*       3.9666363645E+01               0
GRID*                 84               01.8455756855E+022.4337745145E+01+
*       3.9452105239E+01               0
GRID*                 85               01.1506752424E+024.0775702832E+01+
*       1.9848651480E+01               0
GRID*                 86               05.6141805242E+02-2.908486554E+01+
*       -3.438640161E+01               0
GRID*                 87               05.6429918737E+02-3.310289977E+01+
*       -2.955865420E+01               0
GRID*                 88               04.8762672565E+02-4.579490800E+01+
*       6.3755519799E+00               0
GRID*                 89               03.6286926600E+02-4.601781498E+01+
*       4.6683036724E+00               0
GRID*                 90               06.9045659200E+023.8687562850E+01+
*       -2.454851818E+01               0
GRID*                 91               08.3618910339E+022.9764938387E+01+
*       -3.405723043E+01               0
GRID*                 92               08.6196185593E+024.0638372364E+01+
*       -2.136510426E+01               0
GRID*                 93               07.1216228821E+02-4.467255716E+01+
*       -8.050264137E+00               0
GRID*                 94               07.6419468178E+02-4.434187763E+01+
*       -7.374801305E+00               0
GRID*                 95               05.6497946451E+02-4.444222138E+01+
*       -9.827833663E+00               0
GRID*                 96               06.3526105477E+02-4.525549429E+01+
*       -6.985728476E+00               0
GRID*                 97               03.8537966693E+02-4.404598983E+01+
*       -1.005129672E+01               0
GRID*                 98               03.7657970712E+02-4.622896791E+01+
*       4.2312002906E-01               0
GRID*                 99               06.6258278714E+023.0365987467E+01+
*       -3.220395624E+01               0
GRID*                100               02.1214228370E+02-4.237119686E+01+
*       1.5274267659E+01               0
GRID*                101               06.1312530522E+024.1983975453E+01+
*       -1.924669158E+01               0
GRID*                102               01.3275748724E+023.9483991346E+01+
*       2.2378064204E+01               0
GRID*                103               06.1934090791E+01-2.339521267E+01+
*       3.8811836965E+01               0
GRID*                104               04.1445630821E+02-4.332047966E+01+
*       1.5346842791E+01               0
GRID*                105               04.4052068846E+02-4.284470290E+01+
*       1.8206852294E+01               0
GRID*                106               08.3994502035E+023.7319378053E+01+
*       -2.693026498E+01               0
GRID*                107               05.6134925627E+024.3252798401E+01+
*       -1.418876671E+01               0
GRID*                108               03.1394712577E+02-4.328076410E+01+
*       -1.296389129E+01               0
GRID*                109               07.8411438705E+02-4.532356813E+01+
*       7.0348931579E+00               0
GRID*                110               02.8815479834E+02-4.222559457E+01+
*       -1.529013023E+01               0
GRID*                111               04.1165524498E+02-3.761533475E+01+
*       2.5700011733E+01               0
GRID*                112               05.8169173477E+014.0357997629E+01+
*       2.2770948978E+01               0
GRID*                113               05.5860812524E+02-4.560560169E+01+
*       5.1149123355E-01               0
GRID*                114               06.6187905349E+02-4.575130217E+01+
*       6.4010562395E+00               0
GRID*                115               07.3811194527E+024.1895852998E+01+
*       -1.952401065E+01               0
GRID*                116               01.5964290643E+024.4831522671E+01+
*       6.8853949459E+00               0
GRID*                117               04.6348324143E+02-4.257664646E+01+
*       1.7466911791E+01               0
GRID*                118               05.3689254662E+02-4.582584222E+01+
*       6.1177111633E+00               0
GRID*                119               08.3750000000E+02-1.397191558E+00+
*       -4.656605699E+01               0
GRID*                120               08.2500000000E+02-1.356097688E+00+
*       -4.657146708E+01               0
GRID*                121               08.3750000129E+021.0348625895E+01+
*       -4.450724715E+01               0
GRID*                122               08.5000000000E+02-1.397191558E+00+
*       -4.656605699E+01               0
GRID*                123               08.5000000129E+021.0348625895E+01+
*       -4.450724715E+01               0
GRID*                124               03.7499999252E+01-4.488932049E+01+
*       1.1996993371E+01               0
GRID*                125               04.9999998422E+01-4.635621941E+01+
*       1.6224301478E-01               0
GRID*                126               04.9999997520E+01-4.487452375E+01+
*       1.2035717458E+01               0
GRID*                127               04.9999998241E+01-1.203628599E+01+
*       4.5160366315E+01               0
GRID*                128               03.7499998241E+01-1.203628599E+01+
*       4.5160366315E+01               0
GRID*                129               04.5862740646E+01-1.820227379E+01+
*       4.0795397224E+01               0
GRID*                130               04.5862738887E+01-1.797051906E+01+
*       4.4221541619E+01               0
GRID*                131               03.3362740646E+01-1.820227379E+01+
*       4.0795397224E+01               0
GRID*                132               06.2499997520E+01-4.487452375E+01+
*       1.2035717458E+01               0
GRID*                133               06.2499998422E+01-4.635621941E+01+
*       1.6224301472E-01               0
GRID*                134               07.4999996784E+01-4.636104556E+01+
*       2.0341856571E-01               0
GRID*                135               01.3749998925E+02-3.286571748E+01+
*       3.3085909936E+01               0
GRID*                136               01.4999998579E+02-3.972921323E+01+
*       2.3333441551E+01               0
GRID*                137               01.4999998761E+02-3.283444093E+01+
*       3.3113113862E+01               0
GRID*                138               01.2499998925E+02-2.255642295E+01+
*       3.9716451446E+01               0
GRID*                139               01.1249998925E+02-2.255642295E+01+
*       3.9716451447E+01               0
GRID*                140               01.1249998925E+02-3.286571747E+01+
*       3.3085909939E+01               0
GRID*                141               08.2500000253E+021.0386377858E+01+
*       -4.449004305E+01               0
GRID*                142               08.2500000253E+022.2153090611E+01+
*       -4.103230814E+01               0
GRID*                143               08.3750000129E+022.2115338648E+01+
*       -4.104951224E+01               0
GRID*                144               01.6249998995E+02-4.463322055E+01+
*       -1.179598900E+01               0
GRID*                145               01.6249998995E+02-4.637509538E+01+
*       3.2685730112E-01               0
GRID*                146               01.4999998995E+02-4.463322055E+01+
*       -1.179598899E+01               0
GRID*                147               01.7499998738E+02-4.463776407E+01+
*       -1.175484836E+01               0
GRID*                148               01.7499998738E+02-4.637963890E+01+
*       3.6799793875E-01               0
GRID*                149               01.3749999604E+02-3.245836010E+01+
*       -3.232241375E+01               0
GRID*                150               01.3749999604E+02-4.047870126E+01+
*       -2.305982354E+01               0
GRID*                151               01.2499999604E+02-3.245836010E+01+
*       -3.232241374E+01               0
GRID*                152               01.2499999604E+02-4.047870126E+01+
*       -2.305982353E+01               0
GRID*                153               01.3749999244E+02-4.462860773E+01+
*       -1.183712805E+01               0
GRID*                154               01.2499999244E+02-4.462860773E+01+
*       -1.183712805E+01               0
GRID*                155               07.5000000517E+024.5317301979E+01+
*       1.0781385877E+01               0
GRID*                156               07.3750000517E+024.5317301979E+01+
*       1.0781385877E+01               0
GRID*                157               07.4463385515E+024.1025236418E+01+
*       1.4408918765E+01               0
GRID*                158               07.4463386032E+024.3284680925E+01+
*       1.9003961847E+01               0
GRID*                159               07.3213385515E+024.1025236418E+01+
*       1.4408918765E+01               0
GRID*                160               01.3749999244E+02-4.637048256E+01+
*       2.8571824350E-01               0
GRID*                161               01.4999998995E+02-4.637509538E+01+
*       3.2685730126E-01               0
GRID*                162               05.1778404635E+022.8765610363E+01+
*       -3.324014689E+01               0
GRID*                163               05.0528404635E+022.8765610357E+01+
*       -3.324014690E+01               0
GRID*                164               05.0528404635E+023.6785951572E+01+
*       -2.397755667E+01               0
GRID*                165               05.0528407288E+023.7088607967E+01+
*       -2.982695949E+01               0
GRID*                166               05.0528406895E+022.7873081905E+01+
*       -3.745871347E+01               0
GRID*                167               05.1778407413E+023.7063790835E+01+
*       -2.986040894E+01               0
GRID*                168               07.6250000959E+023.1581682942E+01+
*       -3.353534335E+01               0
GRID*                169               07.6250000959E+023.9602024107E+01+
*       -2.427275314E+01               0
GRID*                170               07.5951807013E+023.3340010061E+01+
*       -2.739608681E+01               0
GRID*                171               07.5951807012E+022.5319668896E+01+
*       -3.665867702E+01               0
GRID*                172               07.7201807971E+023.3367926361E+01+
*       -3.360949016E+01               0
GRID*                173               01.4999999482E+02-4.050195406E+01+
*       -2.302546949E+01               0
GRID*                174               01.6249999482E+02-4.050195406E+01+
*       -2.302546949E+01               0
GRID*                175               05.3750002221E+02-3.947800923E+01+
*       2.3951910698E+01               0
GRID*                176               05.2500001897E+02-3.949421286E+01+
*       2.3913391715E+01               0
GRID*                177               05.2545833519E+02-3.672029080E+01+
*       2.4245137381E+01               0
GRID*                178               05.3795835740E+02-4.331167016E+01+
*       1.9723909303E+01               0
GRID*                179               05.2545835417E+02-4.332787379E+01+
*       1.9685390319E+01               0
GRID*                180               07.6817260016E+023.6613661992E+01+
*       2.4260417652E+01               0
GRID*                181               07.6817260016E+024.1699275840E+01+
*       1.3117019600E+01               0
GRID*                182               07.5567260016E+023.6613661994E+01+
*       2.4260417650E+01               0
GRID*                183               07.7500000666E+024.5330096861E+01+
*       1.0741732149E+01               0
GRID*                184               07.6250000666E+024.5330096861E+01+
*       1.0741732149E+01               0
GRID*                185               07.6817260682E+024.3971515229E+01+
*       1.7672408954E+01               0
GRID*                186               07.5567260016E+024.1699275840E+01+
*       1.3117019600E+01               0
GRID*                187               07.4463385515E+023.5939622572E+01+
*       2.5552316815E+01               0
GRID*                188               07.3213385515E+023.5939622574E+01+
*       2.5552316813E+01               0
GRID*                189               01.7499998707E+02-3.280305969E+01+
*       3.3140311249E+01               0
GRID*                190               01.6249998707E+02-3.280305969E+01+
*       3.3140311251E+01               0
GRID*                191               01.6817579830E+02-3.765004445E+01+
*       2.2968189278E+01               0
GRID*                192               01.6817578537E+02-3.756647436E+01+
*       2.7635361635E+01               0
GRID*                193               01.5567579830E+02-3.765004444E+01+
*       2.2968189280E+01               0
GRID*                194               02.3749999106E+02-4.057136287E+01+
*       -2.292218369E+01               0
GRID*                195               02.3749999106E+02-3.255102168E+01+
*       -3.218477391E+01               0
GRID*                196               02.4999998989E+02-3.257404591E+01+
*       -3.215026493E+01               0
GRID*                197               02.4999998989E+02-4.059438709E+01+
*       -2.288767471E+01               0
GRID*                198               02.2499999106E+02-3.255102169E+01+
*       -3.218477391E+01               0
GRID*                199               01.7500000000E+02-1.205436982E+01+
*       -4.325439449E+01               0
GRID*                200               01.7500000000E+02-2.876570854E-01+
*       -4.671212938E+01               0
GRID*                201               01.8176181571E+02-3.042249251E+00+
*       -4.427188121E+01               0
GRID*                202               01.8176181572E+02-1.480896198E+01+
*       -4.081414632E+01               0
GRID*                203               01.8176181571E+02-3.329906336E+00+
*       -4.748401059E+01               0
GRID*                204               02.1249999229E+02-4.054828342E+01+
*       -2.295665145E+01               0
GRID*                205               01.9999999229E+02-4.054828342E+01+
*       -2.295665144E+01               0
GRID*                206               01.9999999230E+02-3.252794224E+01+
*       -3.221924166E+01               0
GRID*                207               02.1249999230E+02-3.252794224E+01+
*       -3.221924166E+01               0
GRID*                208               02.2499999106E+02-4.057136287E+01+
*       -2.292218369E+01               0
GRID*                209               01.7499999356E+02-3.250480642E+01+
*       -3.225366968E+01               0
GRID*                210               01.8749999850E+02-2.367810731E+01+
*       -4.027216615E+01               0
GRID*                211               01.8749999230E+02-3.252794225E+01+
*       -3.221924166E+01               0
GRID*                212               01.7499999866E+02-2.364155469E+01+
*       -4.029193173E+01               0
GRID*                213               01.9426181421E+02-1.495364382E+01+
*       -4.450178225E+01               0
GRID*                214               01.8176181437E+02-1.491709121E+01+
*       -4.452154783E+01               0
GRID*                215               02.1249999850E+02-2.367810729E+01+
*       -4.027216616E+01               0
GRID*                216               02.2499999838E+02-2.371462921E+01+
*       -4.025233871E+01               0
GRID*                217               04.9999998242E+012.3175482911E-01+
*       4.5160366272E+01               0
GRID*                218               05.2500002744E+02-3.235638630E+01+
*       3.3517583073E+01               0
GRID*                219               03.7499999968E+011.2157268280E+01+
*       4.5130651794E+01               0
GRID*                220               02.4999999968E+011.2157268281E+01+
*       4.5130651794E+01               0
GRID*                221               02.4999999966E+01-1.107725353E-01+
*       4.5130651838E+01               0
GRID*                222               01.9999999850E+02-1.191139457E+01+
*       -4.372990104E+01               0
GRID*                223               01.9999999850E+02-2.367810730E+01+
*       -4.027216616E+01               0
GRID*                224               02.1249999850E+02-1.191139457E+01+
*       -4.372990104E+01               0
GRID*                225               02.2499999837E+02-1.194791649E+01+
*       -4.371007359E+01               0
GRID*                226               02.4999999829E+02-2.375112064E+01+
*       -4.023244929E+01               0
GRID*                227               02.4999999829E+02-1.198440793E+01+
*       -4.369018416E+01               0
GRID*                228               02.5575197753E+02-5.898568643E+00+
*       -4.339661781E+01               0
GRID*                229               02.5575197753E+02-1.766528136E+01+
*       -3.993888293E+01               0
GRID*                230               02.5575197582E+02-1.788297657E+01+
*       -4.358680197E+01               0
GRID*                231               02.7500000000E+02-4.520325628E-01+
*       -4.669048903E+01               0
GRID*                232               02.7499999826E+02-1.202086898E+01+
*       -4.367023273E+01               0
GRID*                233               02.6825197753E+02-5.898568643E+00+
*       -4.339661781E+01               0
GRID*                234               02.6825197753E+02-6.350601206E+00+
*       -4.658710684E+01               0
GRID*                235               02.6825197579E+02-1.791943762E+01+
*       -4.356685054E+01               0
GRID*                236               03.4999999710E+023.2005085455E+01+
*       -3.296858204E+01               0
GRID*                237               03.5000002060E+022.2865051407E+01+
*       -4.069346410E+01               0
GRID*                238               03.4508869049E+022.7409390154E+01+
*       -3.471441493E+01               0
GRID*                239               03.4508868759E+023.5881050316E+01+
*       -3.109846661E+01               0
GRID*                240               03.4508871109E+022.6741016268E+01+
*       -3.882334866E+01               0
GRID*                241               05.5000000367E+024.6219528163E+01+
*       -8.260546687E-01               0
GRID*                242               05.4999997932E+024.5212207262E+01+
*       1.1098737228E+01               0
GRID*                243               05.5166479421E+024.3934206320E+01+
*       2.6241133077E+00               0
GRID*                244               05.5166479787E+024.7095877011E+01+
*       -4.388284153E+00               0
GRID*                245               05.5166477353E+024.6088556110E+01+
*       7.5365077434E+00               0
GRID*                246               03.3750002060E+022.2865051403E+01+
*       -4.069346410E+01               0
GRID*                247               03.3258869049E+022.7409390149E+01+
*       -3.471441493E+01               0
GRID*                248               03.6249999710E+023.2005085460E+01+
*       -3.296858204E+01               0
GRID*                249               03.6249999710E+024.0025426699E+01+
*       -2.370599179E+01               0
GRID*                250               03.7500000507E+024.0000659767E+01+
*       -2.374005505E+01               0
GRID*                251               03.7500000507E+023.1980318528E+01+
*       -3.300264530E+01               0
GRID*                252               01.4999999885E+02-1.183825827E+01+
*       -4.376937048E+01               0
GRID*                253               01.6249999885E+02-2.360497100E+01+
*       -4.031163559E+01               0
GRID*                254               01.4999999885E+02-2.360497101E+01+
*       -4.031163559E+01               0
GRID*                255               03.8750000000E+02-6.164080401E-01+
*       -4.666884867E+01               0
GRID*                256               03.7500000000E+02-6.164080401E-01+
*       -4.666884867E+01               0
GRID*                257               03.7500002174E+021.1061003949E+01+
*       -4.416964748E+01               0
GRID*                258               03.8750002174E+021.1061003949E+01+
*       -4.416964748E+01               0
GRID*                259               01.6250000000E+02-2.876570854E-01+
*       -4.671212938E+01               0
GRID*                260               03.8750002174E+022.2827716606E+01+
*       -4.071191265E+01               0
GRID*                261               04.0000002254E+021.1023660757E+01+
*       -4.418802491E+01               0
GRID*                262               04.0000002254E+022.2790373414E+01+
*       -4.073029009E+01               0
GRID*                263               03.8750000507E+024.0000659768E+01+
*       -2.374005505E+01               0
GRID*                264               03.8750000507E+023.1980318533E+01+
*       -3.300264529E+01               0
GRID*                265               03.6250002060E+022.2865051413E+01+
*       -4.069346409E+01               0
GRID*                266               04.4999997666E+024.5158359257E+01+
*       1.1256231034E+01               0
GRID*                267               04.6249997666E+024.5158359257E+01+
*       1.1256231034E+01               0
GRID*                268               04.6249997905E+024.6245256564E+01+
*       -6.600760620E-01               0
GRID*                269               04.4999997905E+024.6245256564E+01+
*       -6.600760623E-01               0
GRID*                270               04.6249997905E+024.4503381722E+01+
*       -1.278292238E+01               0
GRID*                271               04.4999997905E+024.4503381721E+01+
*       -1.278292238E+01               0
GRID*                272               04.7499997683E+024.5171906141E+01+
*       1.1216922776E+01               0
GRID*                273               04.8749997683E+024.5171906141E+01+
*       1.1216922777E+01               0
GRID*                274               04.8749998333E+024.6238943553E+01+
*       -7.014580948E-01               0
GRID*                275               04.7499998333E+024.6238943553E+01+
*       -7.014580951E-01               0
GRID*                276               07.0000001533E+02-3.213157464E+01+
*       3.3700966297E+01               0
GRID*                277               07.0000002001E+02-3.938002655E+01+
*       2.4181079939E+01               0
GRID*                278               07.1250001724E+02-3.936353744E+01+
*       2.4219027579E+01               0
GRID*                279               04.9225457789E+024.2957245106E+01+
*       -4.834791471E+00               0
GRID*                280               04.7975457789E+024.2957245106E+01+
*       -4.834791472E+00               0
GRID*                281               04.7975456122E+024.6138331186E+01+
*       -1.172259236E+01               0
GRID*                282               04.9999998882E+024.6232551469E+01+
*       -7.429127734E-01               0
GRID*                283               04.9225456671E+024.6131939103E+01+
*       -1.176404704E+01               0
GRID*                284               05.1249998882E+024.6232551469E+01+
*       -7.429127731E-01               0
GRID*                285               05.1249997732E+024.5185396154E+01+
*       1.1177571739E+01               0
GRID*                286               05.2499997814E+024.5198829700E+01+
*       1.1138176944E+01               0
GRID*                287               05.6249997932E+024.5212207262E+01+
*       1.1098737228E+01               0
GRID*                288               05.6249997932E+024.0126593432E+01+
*       2.2242135257E+01               0
GRID*                289               05.7499998088E+024.0139915625E+01+
*       2.2202649133E+01               0
GRID*                290               05.7499998088E+024.5225529455E+01+
*       1.1059251104E+01               0
GRID*                291               05.8750001018E+024.4471047770E+01+
*       -1.299039323E+01               0
GRID*                292               05.8750001018E+024.6212922608E+01+
*       -8.675469196E-01               0
GRID*                293               06.0000001485E+024.6206265606E+01+
*       -9.089019786E-01               0
GRID*                294               06.0000001484E+024.4464390768E+01+
*       -1.303174829E+01               0
GRID*                295               07.0000001146E+021.0574513014E+01+
*       -4.440316240E+01               0
GRID*                296               06.8750001146E+022.2341225735E+01+
*       -4.094542752E+01               0
GRID*                297               07.0000001146E+022.2341225741E+01+
*       -4.094542752E+01               0
GRID*                298               05.5000002098E+021.0799371182E+01+
*       -4.429681855E+01               0
GRID*                299               05.3750002098E+022.2566083868E+01+
*       -4.083908370E+01               0
GRID*                300               05.5000002098E+022.2566083874E+01+
*       -4.083908370E+01               0
GRID*                301               05.3750002098E+021.0799371182E+01+
*       -4.429681855E+01               0
GRID*                302               05.5711167557E+025.3990114530E+00+
*       -4.650620662E+01               0
GRID*                303               05.6961169538E+021.7065018951E+01+
*       -4.418993787E+01               0
GRID*                304               05.5711169655E+021.7102447761E+01+
*       -4.417204712E+01               0
GRID*                305               05.8749998088E+024.5225529455E+01+
*       1.1059251104E+01               0
GRID*                306               05.8749998088E+024.0139915622E+01+
*       2.2202649137E+01               0
GRID*                307               05.9999998286E+024.0153183283E+01+
*       2.2163114584E+01               0
GRID*                308               05.9999998286E+024.5238797116E+01+
*       1.1019716552E+01               0
GRID*                309               05.6249999441E+023.3694317514E+01+
*       3.2330744372E+01               0
GRID*                310               05.4999999441E+023.3694317517E+01+
*       3.2330744368E+01               0
GRID*                311               05.4999999441E+022.3385022992E+01+
*       3.8961285895E+01               0
GRID*                312               05.6249999441E+022.3385022988E+01+
*       3.8961285896E+01               0
GRID*                313               05.3749997814E+024.5198829700E+01+
*       1.1138176944E+01               0
GRID*                314               05.2499997814E+024.0113215876E+01+
*       2.2281574965E+01               0
GRID*                315               05.4999997932E+024.0126593435E+01+
*       2.2242135253E+01               0
GRID*                316               04.8750002302E+021.0911570679E+01+
*       -4.424273474E+01               0
GRID*                317               04.7500002302E+022.2678283352E+01+
*       -4.078499990E+01               0
GRID*                318               04.8750002302E+022.2678283358E+01+
*       -4.078499989E+01               0
GRID*                319               04.7500002302E+021.0911570679E+01+
*       -4.424273474E+01               0
GRID*                320               05.7499999484E+023.3724403668E+01+
*       3.2302021677E+01               0
GRID*                321               05.8749999484E+023.3724403665E+01+
*       3.2302021681E+01               0
GRID*                322               06.6249998825E+024.5265174135E+01+
*       1.0940489388E+01               0
GRID*                323               06.6249998825E+024.0179560295E+01+
*       2.2083887430E+01               0
GRID*                324               06.7499999185E+024.0192674008E+01+
*       2.2044184304E+01               0
GRID*                325               06.7499999185E+024.5278287849E+01+
*       1.0900786262E+01               0
GRID*                326               06.3749998529E+024.0166397593E+01+
*       2.2123528750E+01               0
GRID*                327               06.4999999633E+023.3814384850E+01+
*       3.2215545181E+01               0
GRID*                328               06.4999998825E+024.0179560297E+01+
*       2.2083887427E+01               0
GRID*                329               06.6249999633E+023.3814384847E+01+
*       3.2215545184E+01               0
GRID*                330               06.6249999633E+022.3505090321E+01+
*       3.8846086699E+01               0
GRID*                331               06.7499999686E+022.3534989354E+01+
*       3.8817160132E+01               0
GRID*                332               06.7499999686E+023.3844283881E+01+
*       3.2186618617E+01               0
GRID*                333               04.5000002316E+021.0948945012E+01+
*       -4.422456818E+01               0
GRID*                334               04.3750002316E+022.2715657675E+01+
*       -4.076683334E+01               0
GRID*                335               04.5000002316E+022.2715657680E+01+
*       -4.076683334E+01               0
GRID*                336               04.3750002316E+021.0948945012E+01+
*       -4.422456818E+01               0
GRID*                337               06.7500000863E+021.2470752191E+00+
*       4.5384598395E+01               0
GRID*                338               06.6250000863E+021.2470752217E+00+
*       4.5384598394E+01               0
GRID*                339               06.6250000863E+02-1.102096558E+01+
*       4.5384598369E+01               0
GRID*                340               06.6250000163E+021.3160410847E+01+
*       4.4859352620E+01               0
GRID*                341               06.7500000156E+021.3200285248E+01+
*       4.4847635338E+01               0
GRID*                342               06.5000000163E+021.3160410849E+01+
*       4.4859352619E+01               0
GRID*                343               06.4999999633E+022.3505090323E+01+
*       3.8846086698E+01               0
GRID*                344               06.8750000741E+021.2877640296E+00+
*       4.5392674073E+01               0
GRID*                345               03.7500002174E+022.2827716601E+01+
*       -4.071191265E+01               0
GRID*                346               07.5000000493E+021.3691791565E+00+
*       4.5408621844E+01               0
GRID*                347               07.5000000493E+02-1.089886165E+01+
*       4.5408621808E+01               0
GRID*                348               07.6250000373E+02-1.085813070E+01+
*       4.5416494509E+01               0
GRID*                349               07.6250000373E+021.4099101103E+00+
*       4.5416494544E+01               0
GRID*                350               07.6250000776E+02-2.172540571E+01+
*       4.0409201777E+01               0
GRID*                351               07.7500000776E+02-2.172540571E+01+
*       4.0409201775E+01               0
GRID*                352               07.7500000373E+02-1.085813070E+01+
*       4.5416494507E+01               0
GRID*                353               08.0000000261E+02-1.081738049E+01+
*       4.5424300234E+01               0
GRID*                354               08.0000000261E+021.4506603256E+00+
*       4.5424300274E+01               0
GRID*                355               07.8750000261E+02-1.081738048E+01+
*       4.5424300235E+01               0
GRID*                356               07.8750000545E+02-2.169301480E+01+
*       4.0435002320E+01               0
GRID*                357               08.0000000545E+02-2.169301480E+01+
*       4.0435002318E+01               0
GRID*                358               05.8750000000E+02-1.249193544E+01+
*       -4.340528881E+01               0
GRID*                359               06.0000000000E+02-2.425864808E+01+
*       -3.994755399E+01               0
GRID*                360               05.8750000000E+02-2.425864808E+01+
*       -3.994755399E+01               0
GRID*                361               03.3749998692E+02-4.066313719E+01+
*       -2.278388893E+01               0
GRID*                362               03.3749998692E+02-3.264279599E+01+
*       -3.204647916E+01               0
GRID*                363               03.4999998617E+02-3.266560733E+01+
*       -3.201179480E+01               0
GRID*                364               03.4999998617E+02-4.068594853E+01+
*       -2.274920457E+01               0
GRID*                365               06.0000000000E+02-1.249193544E+01+
*       -4.340528881E+01               0
GRID*                366               07.7500000373E+021.4099101086E+00+
*       4.5416494545E+01               0
GRID*                367               08.0000000069E+021.3399330794E+01+
*       4.4788065273E+01               0
GRID*                368               08.1250000163E+021.4914330416E+00+
*       4.5432039455E+01               0
GRID*                369               04.9999998423E+01-4.461434458E+01+
*       -1.196060327E+01               0
GRID*                370               04.9999999056E+01-4.040856844E+01+
*       -2.316269444E+01               0
GRID*                371               06.2499998208E+01-4.043201059E+01+
*       -2.312843322E+01               0
GRID*                372               08.6250000173E+02-3.193734538E+01+
*       3.3855940972E+01               0
GRID*                373               08.5000000173E+02-3.193734538E+01+
*       3.3855940970E+01               0
GRID*                374               08.7415393287E+02-3.525673525E+01+
*       2.6312085815E+01               0
GRID*                375               08.6165393460E+02-3.430745068E+01+
*       3.1694888126E+01               0
GRID*                376               08.6165393287E+02-3.525673525E+01+
*       2.6312085814E+01               0
GRID*                377               03.7499999855E+02-2.393311927E+01+
*       -4.013207325E+01               0
GRID*                378               03.8749999855E+02-2.393311926E+01+
*       -4.013207326E+01               0
GRID*                379               03.8749998556E+02-3.268836671E+01+
*       -3.197706494E+01               0
GRID*                380               03.7499998556E+02-3.268836672E+01+
*       -3.197706493E+01               0
GRID*                381               02.4999999541E+01-4.635132001E+01+
*       1.2103905777E-01               0
GRID*                382               01.2500000000E+01-4.490408106E+01+
*       1.1958189596E+01               0
GRID*                383               02.4999999252E+01-4.488932049E+01+
*       1.1996993371E+01               0
GRID*                384               08.3750000173E+02-2.162805086E+01+
*       4.0486482559E+01               0
GRID*                385               08.5000000173E+02-2.162805086E+01+
*       4.0486482558E+01               0
GRID*                386               08.5000000082E+02-1.073580891E+01+
*       4.5439712528E+01               0
GRID*                387               08.3750000082E+02-1.073580891E+01+
*       4.5439712529E+01               0
GRID*                388               06.1250000000E+02-2.425864808E+01+
*       -3.994755400E+01               0
GRID*                389               06.1250000000E+02-1.027346734E+00+
*       -4.661474779E+01               0
GRID*                390               06.2500000000E+02-1.027346734E+00+
*       -4.661474779E+01               0
GRID*                391               06.2500000000E+02-1.279405937E+01+
*       -4.315701298E+01               0
GRID*                392               03.9999999871E+02-2.396942537E+01+
*       -4.011181305E+01               0
GRID*                393               03.9999998510E+02-3.271107442E+01+
*       -3.194228923E+01               0
GRID*                394               02.1250000000E+02-3.287509547E-01+
*       -4.670671929E+01               0
GRID*                395               02.2500000000E+02-3.698448241E-01+
*       -4.670130920E+01               0
GRID*                396               01.8750000000E+02-2.876570854E-01+
*       -4.671212938E+01               0
GRID*                397               01.9426181571E+02-3.042249251E+00+
*       -4.427188121E+01               0
GRID*                398               05.6416479421E+024.3934206320E+01+
*       2.6241133079E+00               0
GRID*                399               01.2499999354E+021.1434028436E+01+
*       -4.398193929E+01               0
GRID*                400               01.1249999354E+022.3200741046E+01+
*       -4.052420450E+01               0
GRID*                401               01.2499999354E+022.3200741048E+01+
*       -4.052420450E+01               0
GRID*                402               02.4999999078E+011.1581289930E+01+
*       -4.390557447E+01               0
GRID*                403               02.4999999078E+012.3348002537E+01+
*       -4.044783969E+01               0
GRID*                404               03.7499999078E+011.1581289930E+01+
*       -4.390557447E+01               0
GRID*                405               02.5000000000E+01-4.109386934E-02+
*       -4.674458991E+01               0
GRID*                406               03.7500000000E+01-4.109386934E-02+
*       -4.674458991E+01               0
GRID*                407               02.4999999881E+01-1.165484772E+01+
*       -4.386697474E+01               0
GRID*                408               03.7499999881E+01-1.165484772E+01+
*       -4.386697474E+01               0
GRID*                409               07.8750000261E+021.4506603270E+00+
*       4.5424300273E+01               0
GRID*                410               08.2500000340E+02-2.166056526E+01+
*       4.0460760990E+01               0
GRID*                411               08.2500000340E+02-3.196985977E+01+
*       3.3830219404E+01               0
GRID*                412               08.3750000173E+02-3.193734537E+01+
*       3.3855940973E+01               0
GRID*                413               08.2018249222E+024.1103628686E+01+
*       1.4701899449E+01               0
GRID*                414               08.0768249222E+024.1103628686E+01+
*       1.4701899448E+01               0
GRID*                415               08.0768249222E+023.6018014838E+01+
*       2.5845297502E+01               0
GRID*                416               07.7500001153E+024.6158085412E+01+
*       -1.195614466E+00               0
GRID*                417               07.8750000640E+024.5342779872E+01+
*       1.0702168416E+01               0
GRID*                418               08.5000000000E+02-1.316390417E+01+
*       -4.310832221E+01               0
GRID*                419               08.3750000000E+02-1.316390417E+01+
*       -4.310832220E+01               0
GRID*                420               08.8750000000E+02-4.433189934E+01+
*       1.3340647360E+01               0
GRID*                421               08.8750000000E+02-4.648231537E+01+
*       1.5697873134E+00               0
GRID*                422               08.7500000075E+02-4.434887947E+01+
*       1.3302761782E+01               0
GRID*                423               03.6249999841E+02-2.389678141E+01+
*       -4.015227202E+01               0
GRID*                424               03.6249999841E+02-1.213006873E+01+
*       -4.361000687E+01               0
GRID*                425               03.7499999854E+02-1.216640658E+01+
*       -4.358980810E+01               0
GRID*                426               06.7500000863E+02-1.102096558E+01+
*       4.5384598367E+01               0
GRID*                427               06.7500001779E+02-2.185448745E+01+
*       4.0305500742E+01               0
GRID*                428               06.8750001533E+02-2.182228012E+01+
*       4.0331507870E+01               0
GRID*                429               07.0000001533E+02-2.182228013E+01+
*       4.0331507869E+01               0
GRID*                430               06.8750001533E+02-3.213157464E+01+
*       3.3700966301E+01               0
GRID*                431               06.9750185288E+02-3.554260621E+01+
*       2.6959554652E+01               0
GRID*                432               06.9750187288E+02-4.203600285E+01+
*       2.2667495885E+01               0
GRID*                433               06.9750186821E+02-3.478755094E+01+
*       3.2187382242E+01               0
GRID*                434               07.5000001417E+02-4.443260665E+01+
*       1.3113531066E+01               0
GRID*                435               07.5000001417E+02-3.934699288E+01+
*       2.4256929018E+01               0
GRID*                436               07.4560232271E+02-4.132309329E+01+
*       1.4532143499E+01               0
GRID*                437               07.4560233688E+02-4.269784247E+01+
*       2.1459331782E+01               0
GRID*                438               07.4560232271E+02-3.623747952E+01+
*       2.5675541452E+01               0
GRID*                439               07.1250001279E+02-3.209932807E+01+
*       3.3726916681E+01               0
GRID*                440               07.1250001279E+02-2.179003355E+01+
*       4.0357458253E+01               0
GRID*                441               07.1249999738E+022.3564839855E+01+
*       3.8788183940E+01               0
GRID*                442               07.1250000145E+021.3240137444E+01+
*       4.4835852662E+01               0
GRID*                443               07.2500000130E+021.3279967652E+01+
*       4.4824004501E+01               0
GRID*                444               01.2499999080E+01-3.299020057E+01+
*       3.2976703697E+01               0
GRID*                445               02.4999999080E+01-3.299020053E+01+
*       3.2976703743E+01               0
GRID*                446               02.4999999080E+01-2.268090600E+01+
*       3.9607245248E+01               0
GRID*                447               06.5000001518E+021.0649549556E+01+
*       -4.436797810E+01               0
GRID*                448               06.5000001518E+022.2416262271E+01+
*       -4.091024323E+01               0
GRID*                449               06.6250001336E+021.0612043618E+01+
*       -4.438560244E+01               0
GRID*                450               06.6250001336E+022.2378756333E+01+
*       -4.092786756E+01               0
GRID*                451               06.3750002551E+023.1732088829E+01+
*       -3.333778195E+01               0
GRID*                452               06.3750002551E+023.9752430014E+01+
*       -2.407519173E+01               0
GRID*                453               06.5000002353E+023.9727472198E+01+
*       -2.410825851E+01               0
GRID*                454               06.5000002353E+023.1707131013E+01+
*       -3.337084872E+01               0
GRID*                455               06.2499997158E+011.1544554667E+01+
*       -4.392474438E+01               0
GRID*                456               04.9999997158E+012.3311267275E+01+
*       -4.046700959E+01               0
GRID*                457               06.2499997158E+012.3311267276E+01+
*       -4.046700959E+01               0
GRID*                458               03.3362739726E+01-2.861513907E+01+
*       3.8668420552E+01               0
GRID*                459               03.3362739860E+01-1.801083631E+01+
*       4.4211707637E+01               0
GRID*                460               04.5862737660E+01-2.858406278E+01+
*       3.8695818276E+01               0
GRID*                461               04.9999997158E+011.1544554667E+01+
*       -4.392474438E+01               0
GRID*                462               05.5000002670E+02-3.232434777E+01+
*       3.3543981860E+01               0
GRID*                463               05.6250002421E+02-3.946177487E+01+
*       2.3990323785E+01               0
GRID*                464               05.6250002554E+02-3.229228769E+01+
*       3.3570310320E+01               0
GRID*                465               05.7500002554E+02-2.198299318E+01+
*       4.0200851870E+01               0
GRID*                466               05.6250002554E+02-2.198299317E+01+
*       4.0200851872E+01               0
GRID*                467               06.0000002403E+02-3.226020372E+01+
*       3.3596570245E+01               0
GRID*                468               06.0000002403E+02-2.195090920E+01+
*       4.0227111804E+01               0
GRID*                469               05.8750002403E+02-3.226020372E+01+
*       3.3596570250E+01               0
GRID*                470               06.2500002499E+02-3.942920079E+01+
*       2.4066864100E+01               0
GRID*                471               06.2500002220E+02-3.222809332E+01+
*       3.3622763590E+01               0
GRID*                472               06.2342265441E+02-3.596435088E+01+
*       2.5435098697E+01               0
GRID*                473               06.2342267940E+02-4.250692178E+01+
*       2.1028824061E+01               0
GRID*                474               06.2342267661E+02-3.530581431E+01+
*       3.0584723551E+01               0
GRID*                475               05.1249999369E+023.3634010356E+01+
*       3.2388032638E+01               0
GRID*                476               05.1249999369E+022.3324715831E+01+
*       3.9018574168E+01               0
GRID*                477               05.2499999402E+022.3354891694E+01+
*       3.8989956366E+01               0
GRID*                478               05.2499999402E+023.3664186219E+01+
*       3.2359414836E+01               0
GRID*                479               05.3749997814E+024.0113215873E+01+
*       2.2281574969E+01               0
GRID*                480               04.7500002441E+023.1881221906E+01+
*       -3.313780395E+01               0
GRID*                481               04.8750002653E+023.1856422963E+01+
*       -3.317134290E+01               0
GRID*                482               04.7500002441E+023.9901563126E+01+
*       -2.387521372E+01               0
GRID*                483               04.7499998333E+024.4497068711E+01+
*       -1.282430441E+01               0
GRID*                484               04.7975457789E+024.1215370264E+01+
*       -1.695763779E+01               0
GRID*                485               04.7975460230E+024.1542825601E+01+
*       -2.277350166E+01               0
GRID*                486               08.6250000082E+02-1.073580892E+01+
*       4.5439712528E+01               0
GRID*                487               08.6250000173E+02-2.162805086E+01+
*       4.0486482557E+01               0
GRID*                488               08.7500000055E+02-2.159546476E+01+
*       4.0512172284E+01               0
GRID*                489               08.9440649610E+02-4.396659008E+01+
*       -6.922318446E-01               0
GRID*                490               08.8190649610E+02-4.396659008E+01+
*       -6.922318474E-01               0
GRID*                491               08.8190649610E+02-4.222471522E+01+
*       -1.281507819E+01               0
GRID*                492               04.6249997324E+02-4.642521724E+01+
*       8.2196682265E-01               0
GRID*                493               04.7499997459E+02-4.642897255E+01+
*       8.6345601841E-01               0
GRID*                494               04.6980834989E+02-4.436712812E+01+
*       6.3412873795E+00               0
GRID*                495               04.5730832313E+02-4.773448789E+01+
*       9.7691141239E-01               0
GRID*                496               04.6980832448E+02-4.773824320E+01+
*       1.0184006082E+00               0
GRID*                497               04.7500002754E+02-3.242040770E+01+
*       3.3464567620E+01               0
GRID*                498               04.8750001436E+02-3.951038923E+01+
*       2.3874758461E+01               0
GRID*                499               04.8750002774E+02-3.238840554E+01+
*       3.3491112231E+01               0
GRID*                500               04.7499997459E+02-4.468709771E+01+
*       -1.125939030E+01               0
GRID*                501               04.8148026086E+02-4.255929016E+01+
*       -1.042622002E+01               0
GRID*                502               04.8148026086E+02-4.430116500E+01+
*       1.6966263042E+00               0
GRID*                503               04.8148023545E+02-4.767228008E+01+
*       -3.626260467E+00               0
GRID*                504               08.9440649610E+02-4.739104797E+01+
*       -5.308787315E+00               0
GRID*                505               03.7499999774E+012.2743090127E+01+
*       3.9552165054E+01               0
GRID*                506               03.7499999774E+013.3052384643E+01+
*       3.2921623467E+01               0
GRID*                507               02.4999999774E+012.2743090128E+01+
*       3.9552165054E+01               0
GRID*                508               03.4999999710E+024.0025426698E+01+
*       -2.370599180E+01               0
GRID*                509               03.4508869049E+023.5429731397E+01+
*       -2.545182468E+01               0
GRID*                510               03.2500001909E+022.2902379241E+01+
*       -4.067494384E+01               0
GRID*                511               03.2499999041E+023.2029742385E+01+
*       -3.293454894E+01               0
GRID*                512               03.3258870958E+022.6778344106E+01+
*       -3.880482840E+01               0
GRID*                513               03.3258868091E+023.5905707250E+01+
*       -3.106443350E+01               0
GRID*                514               02.6249999501E+02-2.239882609E+01+
*       3.9852534042E+01               0
GRID*                515               02.6249999501E+02-3.270812062E+01+
*       3.3221992522E+01               0
GRID*                516               02.7500000166E+02-3.267616508E+01+
*       3.3249283121E+01               0
GRID*                517               02.7500000166E+02-2.236687056E+01+
*       3.9879824641E+01               0
GRID*                518               02.4999999501E+02-2.239882609E+01+
*       3.9852534043E+01               0
GRID*                519               02.4999999501E+02-3.270812062E+01+
*       3.3221992526E+01               0
GRID*                520               03.4999997193E+024.4527862407E+01+
*       -1.261797360E+01               0
GRID*                521               03.6249997193E+024.4527862407E+01+
*       -1.261797359E+01               0
GRID*                522               03.6249997332E+02-4.466768360E+01+
*       -1.146639946E+01               0
GRID*                523               03.6249998617E+02-4.068594853E+01+
*       -2.274920457E+01               0
GRID*                524               03.7499998556E+02-4.070870793E+01+
*       -2.271447470E+01               0
GRID*                525               02.6249999468E+022.3020589146E+01+
*       3.9301791759E+01               0
GRID*                526               02.6249999996E+021.2519657871E+01+
*       4.5037828241E+01               0
GRID*                527               02.7499999999E+021.2559838132E+01+
*       4.5027178193E+01               0
GRID*                528               02.8750001291E+026.3747464331E-01+
*       4.5255218496E+01               0
GRID*                529               02.8750000000E+021.2599999631E+01+
*       4.5016461106E+01               0
GRID*                530               08.1249999918E+022.3683742149E+01+
*       3.8671793972E+01               0
GRID*                531               08.1249999918E+023.3993036677E+01+
*       3.2041252466E+01               0
GRID*                532               07.9999999918E+022.3683742150E+01+
*       3.8671793972E+01               0
GRID*                533               03.0000000000E+021.2599999627E+01+
*       4.5016461108E+01               0
GRID*                534               03.1250001363E+026.7808122189E-01+
*       4.5264325977E+01               0
GRID*                535               03.1250000003E+021.2640144111E+01+
*       4.5005676243E+01               0
GRID*                536               07.9999999918E+023.3993036678E+01+
*       3.2041252464E+01               0
GRID*                537               02.7499999422E+022.3051193434E+01+
*       3.9273713854E+01               0
GRID*                538               03.1249999382E+023.3391049406E+01+
*       3.2615040397E+01               0
GRID*                539               03.1249999382E+022.3081754884E+01+
*       3.9245581953E+01               0
GRID*                540               03.2499999351E+022.3112273819E+01+
*       3.9217395814E+01               0
GRID*                541               03.2499999351E+023.3421568341E+01+
*       3.2586854258E+01               0
GRID*                542               02.4999997662E+024.4551145701E+01+
*       -1.245367240E+01               0
GRID*                543               02.3749997662E+024.4551145700E+01+
*       -1.245367240E+01               0
GRID*                544               02.3749997662E+024.6293020550E+01+
*       -3.308260683E-01               0
GRID*                545               02.7499997462E+024.4545434614E+01+
*       -1.249470612E+01               0
GRID*                546               02.7499997462E+024.6287309462E+01+
*       -3.718597875E-01               0
GRID*                547               02.8749997313E+024.6281525706E+01+
*       -4.129175107E-01               0
GRID*                548               02.8749997312E+024.4539650858E+01+
*       -1.253576384E+01               0
GRID*                549               02.2499997901E+024.6298659754E+01+
*       -2.898103872E-01               0
GRID*                550               02.2945125700E+024.4252410603E+01+
*       6.1837621644E+00               0
GRID*                551               02.4195123362E+024.7487573680E+01+
*       -3.334066890E-01               0
GRID*                552               02.2945123601E+024.7493212884E+01+
*       -2.923910080E-01               0
GRID*                553               01.2499999080E+01-2.268090611E+01+
*       3.9607245217E+01               0
GRID*                554               01.2499999213E+01-1.207660335E+01+
*       4.5150532302E+01               0
GRID*                555               02.4999999213E+01-1.207660324E+01+
*       4.5150532333E+01               0
GRID*                556               08.0493640173E+02-7.952898118E+00+
*       -4.303023662E+01               0
GRID*                557               08.1743640173E+02-7.952898118E+00+
*       -4.303023662E+01               0
GRID*                558               08.1743640173E+02-1.971961073E+01+
*       -3.957250183E+01               0
GRID*                559               08.0000000000E+02-1.315003819E+00+
*       -4.657687717E+01               0
GRID*                560               08.1250000000E+02-1.315003819E+00+
*       -4.657687717E+01               0
GRID*                561               08.0493640173E+02-9.267901937E+00+
*       -4.610711379E+01               0
GRID*                562               01.6250000556E+02-1.187408953E+01+
*       4.5199129255E+01               0
GRID*                563               01.7499998707E+02-2.249376517E+01+
*       3.9770852760E+01               0
GRID*                564               01.7500000721E+02-1.183351235E+01+
*       4.5208649914E+01               0
GRID*                565               01.8750000721E+02-1.183351236E+01+
*       4.5208649913E+01               0
GRID*                566               01.9999998793E+02-2.246226180E+01+
*       3.9798056996E+01               0
GRID*                567               01.8749998793E+02-2.246226180E+01+
*       3.9798056997E+01               0
GRID*                568               08.0000000404E+021.0424081956E+01+
*       -4.447278418E+01               0
GRID*                569               08.0000000404E+022.2190794704E+01+
*       -4.101504928E+01               0
GRID*                570               08.1250000404E+021.0424081956E+01+
*       -4.447278418E+01               0
GRID*                571               01.1249999419E+024.4976846205E+01+
*       1.1763896448E+01               0
GRID*                572               01.2499999419E+024.4976846205E+01+
*       1.1763896448E+01               0
GRID*                573               01.2499999063E+024.6320515741E+01+
*       -1.257912986E-01               0
GRID*                574               01.1249999063E+024.6320515741E+01+
*       -1.257912989E-01               0
GRID*                575               08.7499994513E+014.0290590075E+01+
*       -2.333330286E+01               0
GRID*                576               09.9999993453E+014.4583934930E+01+
*       -1.220760389E+01               0
GRID*                577               09.9999991459E+014.0266901870E+01+
*       -2.336720551E+01               0
GRID*                578               04.1250001177E+023.9975890485E+01+
*       -2.377400817E+01               0
GRID*                579               04.2500001714E+023.9951121737E+01+
*       -2.380784739E+01               0
GRID*                580               04.1912070229E+023.7921053590E+01+
*       -2.280494469E+01               0
GRID*                581               04.0662071406E+023.8322836291E+01+
*       -2.851960300E+01               0
GRID*                582               04.1912071942E+023.8298067543E+01+
*       -2.855344221E+01               0
GRID*                583               04.2500001714E+023.1930780508E+01+
*       -3.307043763E+01               0
GRID*                584               04.1912070229E+022.9900712361E+01+
*       -3.206753493E+01               0
GRID*                585               09.9999993453E+014.6325809782E+01+
*       -8.475754445E-02               0
GRID*                586               01.2500000000E+02-2.054693467E-01+
*       -4.672294956E+01               0
GRID*                587               01.3750000000E+02-2.054693467E-01+
*       -4.672294956E+01               0
GRID*                588               01.2499999906E+02-1.180164294E+01+
*       -4.378901285E+01               0
GRID*                589               01.3749999906E+02-1.180164294E+01+
*       -4.378901285E+01               0
GRID*                590               04.0662070229E+023.7921053590E+01+
*       -2.280494469E+01               0
GRID*                591               04.0000001177E+023.9975890485E+01+
*       -2.377400817E+01               0
GRID*                592               05.1778404635E+023.6785951573E+01+
*       -2.397755666E+01               0
GRID*                593               04.9999998882E+024.4490676628E+01+
*       -1.286575909E+01               0
GRID*                594               05.1249998882E+024.4490676629E+01+
*       -1.286575909E+01               0
GRID*                595               05.1250002653E+023.9876764185E+01+
*       -2.390875266E+01               0
GRID*                596               05.0000002653E+023.9876764184E+01+
*       -2.390875267E+01               0
GRID*                597               05.0000002260E+022.2640896907E+01+
*       -4.080309688E+01               0
GRID*                598               05.0000002653E+023.1856422969E+01+
*       -3.317134290E+01               0
GRID*                599               01.1249999475E+02-4.462392477E+01+
*       -1.187827193E+01               0
GRID*                600               03.2500001909E+021.1135666599E+01+
*       -4.413267865E+01               0
GRID*                601               03.1250001909E+022.2902379236E+01+
*       -4.067494384E+01               0
GRID*                602               03.2500000000E+02-5.342203014E-01+
*       -4.667966885E+01               0
GRID*                603               03.1250000000E+02-4.931264321E-01+
*       -4.668507894E+01               0
GRID*                604               05.3749999567E+024.6226079013E+01+
*       -7.844499764E-01               0
GRID*                605               05.2500002778E+023.1831605844E+01+
*       -3.320479234E+01               0
GRID*                606               05.2500002191E+022.2603497425E+01+
*       -4.082112467E+01               0
GRID*                607               05.1778406826E+022.7835682417E+01+
*       -3.747674127E+01               0
GRID*                608               05.2500002778E+023.9851947054E+01+
*       -2.394220211E+01               0
GRID*                609               03.3750002060E+021.1098338761E+01+
*       -4.415119892E+01               0
GRID*                610               03.5000002060E+021.1098338761E+01+
*       -4.415119892E+01               0
GRID*                611               03.1249999827E+02-1.205729959E+01+
*       -4.365021932E+01               0
GRID*                612               02.9999999827E+02-1.205729959E+01+
*       -4.365021932E+01               0
GRID*                613               03.1249999827E+02-2.382401229E+01+
*       -4.019248446E+01               0
GRID*                614               03.1249999041E+023.2029742380E+01+
*       -3.293454894E+01               0
GRID*                615               03.6250000000E+02-5.753141708E-01+
*       -4.667425876E+01               0
GRID*                616               03.5000000000E+02-5.753141708E-01+
*       -4.667425876E+01               0
GRID*                617               03.6250002060E+021.1098338761E+01+
*       -4.415119892E+01               0
GRID*                618               03.8749997240E+024.4521856297E+01+
*       -1.265913636E+01               0
GRID*                619               03.7499997240E+024.4521856296E+01+
*       -1.265913637E+01               0
GRID*                620               03.7499997240E+024.6263731142E+01+
*       -5.362900399E-01               0
GRID*                621               09.9999994752E+01-4.636579960E+01+
*       2.4457436215E-01               0
GRID*                622               01.1249999475E+02-4.636579960E+01+
*       2.4457436205E-01               0
GRID*                623               01.1905424961E+02-4.437682730E+01+
*       6.5993362665E+00               0
GRID*                624               01.0655424961E+02-4.437682730E+01+
*       6.5993362666E+00               0
GRID*                625               01.0655424436E+02-4.768476943E+01+
*       6.5756783292E-01               0
GRID*                626               08.7499996785E+01-4.461917073E+01+
*       -1.191942772E+01               0
GRID*                627               08.7499998208E+01-4.043201059E+01+
*       -2.312843323E+01               0
GRID*                628               09.9999997186E+01-4.045538744E+01+
*       -2.309414391E+01               0
GRID*                629               05.7500002793E+023.9802244729E+01+
*       -2.400885010E+01               0
GRID*                630               05.7500002793E+023.1781903529E+01+
*       -3.327144032E+01               0
GRID*                631               05.6250002793E+023.9802244728E+01+
*       -2.400885010E+01               0
GRID*                632               06.2499998423E+01-4.461434458E+01+
*       -1.196060327E+01               0
GRID*                633               08.7499998210E+01-3.241166943E+01+
*       -3.239102343E+01               0
GRID*                634               07.4999998210E+01-3.241166944E+01+
*       -3.239102343E+01               0
GRID*                635               09.9999999287E+01-2.353170801E+01+
*       -4.035085913E+01               0
GRID*                636               09.9999997188E+01-3.243504629E+01+
*       -3.235673411E+01               0
GRID*                637               08.7499996784E+01-4.636104556E+01+
*       2.0341856563E-01               0
GRID*                638               07.4999996785E+01-4.461917073E+01+
*       -1.191942772E+01               0
GRID*                639               06.2500002551E+023.1732088823E+01+
*       -3.333778196E+01               0
GRID*                640               06.2500002551E+023.9752430013E+01+
*       -2.407519174E+01               0
GRID*                641               06.7500001779E+02-3.216378197E+01+
*       3.3674959173E+01               0
GRID*                642               06.8750002001E+02-3.938002654E+01+
*       2.4181079944E+01               0
GRID*                643               06.8500185288E+02-3.554260621E+01+
*       2.6959554657E+01               0
GRID*                644               06.8500187067E+02-3.481975827E+01+
*       3.2161375114E+01               0
GRID*                645               07.4999998208E+01-4.043201059E+01+
*       -2.312843322E+01               0
GRID*                646               01.8749999229E+02-4.054828342E+01+
*       -2.295665144E+01               0
GRID*                647               07.8750000000E+02-1.315003819E+00+
*       -4.657687717E+01               0
GRID*                648               07.7500000000E+02-1.273909950E+00+
*       -4.658228726E+01               0
GRID*                649               07.8750000404E+021.0424081956E+01+
*       -4.447278418E+01               0
GRID*                650               08.8750000000E+02-3.187209451E+01+
*       3.3907300517E+01               0
GRID*                651               08.8750000000E+02-3.924628558E+01+
*       2.4484045300E+01               0
GRID*                652               08.7500000055E+02-3.190475927E+01+
*       3.3881630698E+01               0
GRID*                653               06.7500002231E+02-3.939646431E+01+
*       2.4143076184E+01               0
GRID*                654               01.6249999482E+02-3.248161289E+01+
*       -3.228805970E+01               0
GRID*                655               01.7499999356E+02-4.052514759E+01+
*       -2.299107946E+01               0
GRID*                656               05.3556013148E+00-4.191580366E+01+
*       1.2749306426E+01               0
GRID*                657               05.3556013148E+00-4.376202725E+01+
*       1.8521153230E+01               0
GRID*                658               01.7855601315E+01-4.191580366E+01+
*       1.2749306431E+01               0
GRID*                659               01.5000000000E+02-2.465632161E-01+
*       -4.671753947E+01               0
GRID*                660               01.4999999482E+02-3.248161289E+01+
*       -3.228805970E+01               0
GRID*                661               02.4999999252E+01-3.980370664E+01+
*       2.3140391427E+01               0
GRID*                662               01.7855600567E+01-4.374726668E+01+
*       1.8559957005E+01               0
GRID*                663               01.7855601315E+01-3.683018981E+01+
*       2.3892704487E+01               0
GRID*                664               05.3556013148E+00-3.696484654E+01+
*       2.8368782035E+01               0
GRID*                665               01.7855600395E+01-3.693376057E+01+
*       2.8396269321E+01               0
GRID*                666               05.3556013148E+00-3.683018985E+01+
*       2.3892704441E+01               0
GRID*                667               07.7500000959E+023.1581682947E+01+
*       -3.353534335E+01               0
GRID*                668               07.7201807012E+022.5319668901E+01+
*       -3.665867701E+01               0
GRID*                669               01.8749998738E+02-4.637963890E+01+
*       3.6799793859E-01               0
GRID*                670               01.8749998738E+02-4.463776407E+01+
*       -1.175484836E+01               0
GRID*                671               01.9999998482E+02-4.464223905E+01+
*       -1.171370037E+01               0
GRID*                672               01.9999998482E+02-4.638411388E+01+
*       4.0914593105E-01               0
GRID*                673               02.0000000000E+02-3.287509547E-01+
*       -4.670671929E+01               0
GRID*                674               01.9426181571E+02-3.371000206E+00+
*       -4.747860050E+01               0
GRID*                675               03.1249997220E+024.4533793693E+01+
*       -1.257685120E+01               0
GRID*                676               03.2499997220E+024.4533793694E+01+
*       -1.257685120E+01               0
GRID*                677               03.2499999041E+024.0050083632E+01+
*       -2.367195869E+01               0
GRID*                678               03.1249999041E+024.0050083631E+01+
*       -2.367195869E+01               0
GRID*                679               03.0000001717E+022.2939702013E+01+
*       -4.065635108E+01               0
GRID*                680               08.8750000080E+02-4.115281691E+01+
*       -2.201054293E+01               0
GRID*                681               08.8750000080E+02-3.313247570E+01+
*       -3.127313316E+01               0
GRID*                682               03.3749997220E+024.4533793694E+01+
*       -1.257685120E+01               0
GRID*                683               03.3749999041E+024.0050083633E+01+
*       -2.367195869E+01               0
GRID*                684               05.2106200906E+02-4.427648733E+01+
*       7.1389285655E+00               0
GRID*                685               05.2106202803E+02-4.579845652E+01+
*       1.3722579498E+01               0
GRID*                686               05.2500001897E+02-4.457982666E+01+
*       1.2769993721E+01               0
GRID*                687               05.2545833519E+02-4.180590460E+01+
*       1.3101739387E+01               0
GRID*                688               05.2152034425E+02-4.302453446E+01+
*       1.4054325164E+01               0
GRID*                689               09.3735744468E+01-3.701409372E+01+
*       2.3524520129E+01               0
GRID*                690               08.1235744468E+01-3.701409372E+01+
*       2.3524520130E+01               0
GRID*                691               08.1235744468E+01-4.209970757E+01+
*       1.2381122075E+01               0
GRID*                692               04.1249997369E+024.4515774653E+01+
*       -1.270034490E+01               0
GRID*                693               04.2499997587E+024.4509616730E+01+
*       -1.274160486E+01               0
GRID*                694               04.1250002301E+021.0986308087E+01+
*       -4.420633169E+01               0
GRID*                695               04.1250002301E+022.2753020744E+01+
*       -4.074859686E+01               0
GRID*                696               04.2500002301E+021.0986308087E+01+
*       -4.420633169E+01               0
GRID*                697               04.3749997587E+024.6251491574E+01+
*       -6.187585371E-01               0
GRID*                698               04.4326295745E+024.3103843142E+01+
*       -3.727359860E+00               0
GRID*                699               04.3076293332E+024.6297477244E+01+
*       -1.053246119E+01               0
GRID*                700               04.4326293650E+024.6291242234E+01+
*       -1.057377871E+01               0
GRID*                701               04.1249997369E+024.6257649497E+01+
*       -5.774985784E-01               0
GRID*                702               03.9999997369E+024.6257649497E+01+
*       -5.774985787E-01               0
GRID*                703               01.3749998900E+02-3.974422582E+01+
*       2.3294916691E+01               0
GRID*                704               01.3749998900E+02-4.482983967E+01+
*       1.2151518641E+01               0
GRID*                705               01.2499998900E+02-4.482983967E+01+
*       1.2151518641E+01               0
GRID*                706               03.8749997240E+024.6263731142E+01+
*       -5.362900397E-01               0
GRID*                707               03.9999997369E+024.4515774652E+01+
*       -1.270034490E+01               0
GRID*                708               04.1249997720E+024.5131093387E+01+
*       1.1334722802E+01               0
GRID*                709               03.9999997720E+024.5131093387E+01+
*       1.1334722802E+01               0
GRID*                710               03.9999997720E+024.0045479579E+01+
*       2.2478120800E+01               0
GRID*                711               01.2499998900E+02-3.974422582E+01+
*       2.3294916693E+01               0
GRID*                712               04.2499997679E+024.5144755129E+01+
*       1.1295497410E+01               0
GRID*                713               04.3749997679E+024.5144755129E+01+
*       1.1295497410E+01               0
GRID*                714               04.2499997587E+024.6251491574E+01+
*       -6.187585374E-01               0
GRID*                715               01.4999998579E+02-4.481482708E+01+
*       1.2190043501E+01               0
GRID*                716               07.4999995074E+01-3.977406846E+01+
*       2.3217767416E+01               0
GRID*                717               07.4999995074E+01-4.485968231E+01+
*       1.2074369361E+01               0
GRID*                718               08.1235739542E+01-4.390153240E+01+
*       1.8269148640E+01               0
GRID*                719               05.1249997732E+024.0099782330E+01+
*       2.2320969760E+01               0
GRID*                720               05.3749999402E+023.3664186216E+01+
*       3.2359414840E+01               0
GRID*                721               07.7500000666E+024.0244483014E+01+
*       2.1885130201E+01               0
GRID*                722               07.4999999835E+023.3933686911E+01+
*       3.2099543382E+01               0
GRID*                723               07.6249999835E+023.3933686910E+01+
*       3.2099543384E+01               0
GRID*                724               07.5567259852E+023.7660719125E+01+
*       2.7886822136E+01               0
GRID*                725               07.5000001446E+024.6165150271E+01+
*       -1.154857218E+00               0
GRID*                726               05.3749999402E+022.3354891691E+01+
*       3.8989956367E+01               0
GRID*                727               05.5000000149E+021.3000691819E+01+
*       4.4905567549E+01               0
GRID*                728               05.3750000149E+021.3000691822E+01+
*       4.4905567547E+01               0
GRID*                729               07.5000000517E+024.0231688133E+01+
*       2.1924783927E+01               0
GRID*                730               04.9999999369E+023.3634010359E+01+
*       3.2388032634E+01               0
GRID*                731               04.9999999369E+022.3324715834E+01+
*       3.9018574167E+01               0
GRID*                732               06.0000002700E+023.1757011857E+01+
*       -3.330464731E+01               0
GRID*                733               06.0000001844E+022.2491209642E+01+
*       -4.087479750E+01               0
GRID*                734               05.9391952000E+022.8394718676E+01+
*       -3.374201816E+01               0
GRID*                735               05.9391954700E+023.6618305126E+01+
*       -3.046213519E+01               0
GRID*                736               05.9391953844E+022.7352502910E+01+
*       -3.803228538E+01               0
GRID*                737               07.7499999879E+023.3963387495E+01+
*       3.2070421635E+01               0
GRID*                738               07.6817259895E+023.7690419710E+01+
*       2.7857700387E+01               0
GRID*                739               06.1249999532E+022.3445149521E+01+
*       3.8903788767E+01               0
GRID*                740               06.1249999532E+023.3754444047E+01+
*       3.2273247247E+01               0
GRID*                741               05.9999999532E+022.3445149524E+01+
*       3.8903788765E+01               0
GRID*                742               07.5951807773E+022.4052322369E+01+
*       -4.105450591E+01               0
GRID*                743               07.7201807589E+022.4014699389E+01+
*       -4.107188036E+01               0
GRID*                744               06.0000000164E+021.3080595315E+01+
*       4.4882591050E+01               0
GRID*                745               06.1250001089E+021.1657259248E+00+
*       4.5368242239E+01               0
GRID*                746               06.1250000166E+021.3120514187E+01+
*       4.4871004531E+01               0
GRID*                747               07.2500001694E+024.6172151201E+01+
*       -1.114057587E+00               0
GRID*                748               07.2500000148E+024.5304382991E+01+
*       1.0821159137E+01               0
GRID*                749               06.2499999582E+023.3784438005E+01+
*       3.2244421570E+01               0
GRID*                750               06.3749999582E+023.3784438003E+01+
*       3.2244421573E+01               0
GRID*                751               06.2499998529E+024.0166397595E+01+
*       2.2123528746E+01               0
GRID*                752               06.3749999582E+022.3475143476E+01+
*       3.8874963090E+01               0
GRID*                753               05.2106200906E+02-3.919087352E+01+
*       1.8282326559E+01               0
GRID*                754               07.2500000148E+024.0218769147E+01+
*       2.1964557185E+01               0
GRID*                755               07.2499999788E+023.3903935635E+01+
*       3.2128617162E+01               0
GRID*                756               07.3213385663E+024.3271761937E+01+
*       1.9043735106E+01               0
GRID*                757               07.3213385303E+023.6956928425E+01+
*       2.9207795084E+01               0
GRID*                758               06.2500000166E+021.3120514184E+01+
*       4.4871004532E+01               0
GRID*                759               06.3750000980E+021.2063963681E+00+
*       4.5376454517E+01               0
GRID*                760               06.3750000163E+021.3160410852E+01+
*       4.4859352618E+01               0
GRID*                761               06.5000000980E+021.2063963653E+00+
*       4.5376454519E+01               0
GRID*                762               06.3750000980E+02-1.106164443E+01+
*       4.5376454495E+01               0
GRID*                763               07.5567260533E+024.3958720347E+01+
*       1.7712062682E+01               0
GRID*                764               06.2499999582E+022.3475143479E+01+
*       3.8874963089E+01               0
GRID*                765               05.8293032651E+02-4.317589171E+01+
*       1.9366190017E+01               0
GRID*                766               05.8293032785E+02-3.600640453E+01+
*       2.8946176552E+01               0
GRID*                767               05.9543032740E+02-4.315962331E+01+
*       1.9404505207E+01               0
GRID*                768               07.4463385351E+023.6986679703E+01+
*       2.9178721301E+01               0
GRID*                769               06.8750000145E+021.3240137448E+01+
*       4.4835852660E+01               0
GRID*                770               06.9999999738E+023.3874134384E+01+
*       3.2157642426E+01               0
GRID*                771               07.1249999738E+023.3874134382E+01+
*       3.2157642428E+01               0
GRID*                772               07.1249999622E+024.0205742808E+01+
*       2.2004409528E+01               0
GRID*                773               06.9999999622E+024.0205742810E+01+
*       2.2004409525E+01               0
GRID*                774               03.0585441312E+023.6986489961E+01+
*       2.8125571203E+01               0
GRID*                775               03.0585440069E+024.3585688340E+01+
*       1.8145164270E+01               0
GRID*                776               03.1835441281E+023.7017008895E+01+
*       2.8097385064E+01               0
GRID*                777               01.8209716438E+02-4.241660116E+01+
*       2.2157960224E+01               0
GRID*                778               01.8209716872E+02-3.550552780E+01+
*       3.1926321971E+01               0
GRID*                779               01.9459716163E+02-4.240144888E+01+
*       2.2196462167E+01               0
GRID*                780               01.9459718165E+02-4.067471174E+01+
*       1.6115751566E+01               0
GRID*                781               01.9459718165E+02-3.558909789E+01+
*       2.7259149611E+01               0
GRID*                782               01.8209718165E+02-4.067471174E+01+
*       1.6115751566E+01               0
GRID*                783               01.8749998273E+02-4.479974690E+01+
*       1.2228551454E+01               0
GRID*                784               01.7499998273E+02-4.479974690E+01+
*       1.2228551454E+01               0
GRID*                785               01.8749998793E+02-3.277155633E+01+
*       3.3167515486E+01               0
GRID*                786               01.8209718165E+02-3.558909789E+01+
*       2.7259149614E+01               0
GRID*                787               01.9459716958E+02-3.547402443E+01+
*       3.1953526208E+01               0
GRID*                788               07.2500000617E+02-1.093957618E+01+
*       4.5400681763E+01               0
GRID*                789               07.2500000617E+021.3284646240E+00+
*       4.5400681796E+01               0
GRID*                790               07.1250000617E+02-1.093957618E+01+
*       4.5400681764E+01               0
GRID*                791               07.2499999788E+022.3594641108E+01+
*       3.8759158674E+01               0
GRID*                792               07.2500001279E+02-2.179003355E+01+
*       4.0357458251E+01               0
GRID*                793               07.1250000617E+021.3284646262E+00+
*       4.5400681795E+01               0
GRID*                794               07.0000000741E+02-1.098027678E+01+
*       4.5392674043E+01               0
GRID*                795               01.6869993329E+02-4.411672963E+01+
*       6.7036568923E+00               0
GRID*                796               01.6869991602E+02-4.585861905E+01+
*       1.2745865551E+01               0
GRID*                797               01.6817579830E+02-4.273565829E+01+
*       1.1824791230E+01               0
GRID*                798               01.6187573159E+02-4.379453045E+01+
*       1.2342105327E+01               0
GRID*                799               01.6817578103E+02-4.447754772E+01+
*       1.7866999888E+01               0
GRID*                800               01.9999997998E+02-4.478459462E+01+
*       1.2267053396E+01               0
GRID*                801               01.9999997998E+02-3.969898077E+01+
*       2.3410451441E+01               0
GRID*                802               07.3750000493E+02-1.089886165E+01+
*       4.5408621810E+01               0
GRID*                803               07.3750000493E+021.3691791584E+00+
*       4.5408621843E+01               0
GRID*                804               07.8749999879E+022.3654092966E+01+
*       3.8700963144E+01               0
GRID*                805               08.1250000340E+02-2.166056525E+01+
*       4.0460760991E+01               0
GRID*                806               08.2500000163E+02-1.077660777E+01+
*       4.5432039414E+01               0
GRID*                807               08.1250000163E+02-1.077660777E+01+
*       4.5432039415E+01               0
GRID*                808               02.4354878159E+02-4.151690636E+01+
*       1.3689235122E+01               0
GRID*                809               02.4354878159E+02-3.643129252E+01+
*       2.4832633161E+01               0
GRID*                810               02.3104878159E+02-4.151690636E+01+
*       1.3689235122E+01               0
GRID*                811               02.2499997770E+02-3.968375224E+01+
*       2.3448957392E+01               0
GRID*                812               02.2499997770E+02-4.476936608E+01+
*       1.2305559350E+01               0
GRID*                813               02.3104878159E+02-3.643129252E+01+
*       2.4832633165E+01               0
GRID*                814               02.3104875928E+02-4.322841497E+01+
*       1.9808451678E+01               0
GRID*                815               08.1250000340E+02-3.196985977E+01+
*       3.3830219408E+01               0
GRID*                816               08.2445735068E+02-3.695507037E+01+
*       2.4995230569E+01               0
GRID*                817               08.2445735409E+02-3.603830020E+01+
*       3.0352311309E+01               0
GRID*                818               08.1195735068E+02-3.695507037E+01+
*       2.4995230572E+01               0
GRID*                819               08.0856554542E+02-3.907927032E+01+
*       1.8682991659E+01               0
GRID*                820               08.2106554542E+02-3.907927032E+01+
*       1.8682991656E+01               0
GRID*                821               08.2052289610E+02-4.314771075E+01+
*       1.5205083561E+01               0
GRID*                822               07.6250000776E+02-3.203470023E+01+
*       3.3778660199E+01               0
GRID*                823               03.2499997602E+02-4.470761569E+01+
*       1.2459801218E+01               0
GRID*                824               03.2499997601E+02-3.962200186E+01+
*       2.3603199247E+01               0
GRID*                825               03.1249997602E+02-4.470761569E+01+
*       1.2459801218E+01               0
GRID*                826               03.1249997601E+02-3.962200186E+01+
*       2.3603199250E+01               0
GRID*                827               05.1250001897E+02-3.949421286E+01+
*       2.3913391720E+01               0
GRID*                828               05.0856200906E+02-3.919087352E+01+
*       1.8282326564E+01               0
GRID*                829               08.3157845009E+02-4.331068332E+01+
*       -1.801117861E+01               0
GRID*                830               08.3157845405E+02-4.693368569E+01+
*       -6.606826772E+00               0
GRID*                831               08.4407845037E+02-4.333236930E+01+
*       -1.797569678E+01               0
GRID*                832               08.7499995074E+01-4.485968231E+01+
*       1.2074369361E+01               0
GRID*                833               08.5721657495E+02-3.841748610E+01+
*       1.9650969051E+01               0
GRID*                834               08.6971657495E+02-3.841748610E+01+
*       1.9650969052E+01               0
GRID*                835               08.6887050782E+02-4.078759141E+01+
*       1.7489916206E+01               0
GRID*                836               04.8749999930E+02-2.407814717E+01+
*       -4.005066629E+01               0
GRID*                837               04.8749999930E+02-1.231143451E+01+
*       -4.350840112E+01               0
GRID*                838               04.9999999950E+02-1.234760724E+01+
*       -4.348789779E+01               0
GRID*                839               04.9999999950E+02-2.411431990E+01+
*       -4.003016296E+01               0
GRID*                840               08.8750000000E+02-1.479379296E+00+
*       -4.655523682E+01               0
GRID*                841               08.7500000000E+02-1.438285427E+00+
*       -4.656064690E+01               0
GRID*                842               08.8078182818E+026.7038451657E+00+
*       -4.310970711E+01               0
GRID*                843               08.9328182818E+025.2244658694E+00+
*       -4.616494393E+01               0
GRID*                844               08.8078182818E+025.2655597387E+00+
*       -4.617035402E+01               0
GRID*                845               08.7500000066E+023.1480232596E+01+
*       -3.366632438E+01               0
GRID*                846               08.8750000066E+023.1480232533E+01+
*       -3.366632444E+01               0
GRID*                847               08.8750000042E+022.2077533158E+01+
*       -4.106666396E+01               0
GRID*                848               08.7500000042E+022.2077533221E+01+
*       -4.106666390E+01               0
GRID*                849               08.6250000287E+02-4.473524833E+01+
*       -1.063582136E+01               0
GRID*                850               08.6250000287E+02-4.647712318E+01+
*       1.4870249810E+00               0
GRID*                851               08.5000000287E+02-4.473524833E+01+
*       -1.063582136E+01               0
GRID*                852               02.1921585286E+024.3944739686E+01+
*       -9.265950465E-01               0
GRID*                853               02.1921585286E+024.2202864836E+01+
*       -1.304944138E+01               0
GRID*                854               02.0671585286E+024.3944739686E+01+
*       -9.265950468E-01               0
GRID*                855               02.2499997901E+024.4556784904E+01+
*       -1.241265672E+01               0
GRID*                856               02.1921583188E+024.7185541967E+01+
*       -7.402748219E+00               0
GRID*                857               08.8750000066E+023.9500573735E+01+
*       -2.440373421E+01               0
GRID*                858               08.3750000247E+02-3.928016394E+01+
*       2.4408304862E+01               0
GRID*                859               08.5000000247E+02-3.928016394E+01+
*       2.4408304859E+01               0
GRID*                860               02.1249998172E+024.6304227918E+01+
*       -2.488063398E-01               0
GRID*                861               02.0671583459E+024.7191110131E+01+
*       -7.361744171E+00               0
GRID*                862               02.0671583415E+024.2800263006E+01+
*       -1.849261370E+01               0
GRID*                863               01.7499999642E+023.3237808519E+01+
*       3.2755163975E+01               0
GRID*                864               01.7499999038E+023.9919843783E+01+
*       2.2829516117E+01               0
GRID*                865               01.6997209656E+023.7151361257E+01+
*       2.3320247357E+01               0
GRID*                866               01.6997209298E+023.7502539855E+01+
*       2.7602272636E+01               0
GRID*                867               01.6997208694E+024.4184575119E+01+
*       1.7676624777E+01               0
GRID*                868               07.8749999879E+023.3963387493E+01+
*       3.2070421636E+01               0
GRID*                869               07.9456970625E+023.6926416072E+01+
*       2.3529158712E+01               0
GRID*                870               07.8206970504E+023.8003173791E+01+
*       2.7126441445E+01               0
GRID*                871               07.9456970543E+023.8032822976E+01+
*       2.7097272273E+01               0
GRID*                872               02.0671585286E+024.2202864836E+01+
*       -1.304944138E+01               0
GRID*                873               02.2499998049E+024.0147443881E+01+
*       -2.353634607E+01               0
GRID*                874               02.1921583335E+024.2776200944E+01+
*       -1.852643757E+01               0
GRID*                875               08.2500000492E+024.0269751320E+01+
*       2.1806058557E+01               0
GRID*                876               08.3749999975E+023.4052178100E+01+
*       3.1982773958E+01               0
GRID*                877               08.3750000285E+024.0282255461E+01+
*       2.1766566487E+01               0
GRID*                878               07.1250001306E+02-4.646296972E+01+
*       1.2803766543E+00               0
GRID*                879               07.2500001306E+02-4.646296972E+01+
*       1.2803766541E+00               0
GRID*                880               07.2500001724E+02-4.444915122E+01+
*       1.3075629618E+01               0
GRID*                881               07.1250001724E+02-4.444915122E+01+
*       1.3075629618E+01               0
GRID*                882               01.9999998172E+024.6304227918E+01+
*       -2.488063401E-01               0
GRID*                883               08.8750000079E+024.4387261889E+01+
*       -1.348144543E+01               0
GRID*                884               08.7500000079E+024.6129136730E+01+
*       -1.358599104E+00               0
GRID*                885               08.8750000079E+024.6129136731E+01+
*       -1.358599108E+00               0
GRID*                886               06.8750000741E+02-1.098027677E+01+
*       4.5392674045E+01               0
GRID*                887               06.8207315296E+023.6895309714E+01+
*       2.3590267933E+01               0
GRID*                888               06.8207315296E+024.1980923554E+01+
*       1.2446869891E+01               0
GRID*                889               06.8207314481E+024.4201353931E+01+
*       1.7161313358E+01               0
GRID*                890               01.5747208888E+024.4170302909E+01+
*       1.7715523164E+01               0
GRID*                891               06.1250002551E+023.1732088817E+01+
*       -3.333778196E+01               0
GRID*                892               06.2500001688E+022.2453745993E+01+
*       -4.089255350E+01               0
GRID*                893               06.1250001688E+022.2453745987E+01+
*       -4.089255351E+01               0
GRID*                894               05.7499999995E+02-1.245590981E+01+
*       -4.342602957E+01               0
GRID*                895               05.8750000000E+02-9.862528642E-01+
*       -4.662015788E+01               0
GRID*                896               01.4999999707E+022.2897732233E+01+
*       3.9413572186E+01               0
GRID*                897               01.4999999986E+021.2358761862E+01+
*       4.5079756379E+01               0
GRID*                898               01.6249999988E+021.2399011162E+01+
*       4.5069375275E+01               0
GRID*                899               01.7500000721E+024.3452845314E-01+
*       4.5208649881E+01               0
GRID*                900               01.8750000721E+024.3452844929E-01+
*       4.5208649882E+01               0
GRID*                901               01.8749999988E+021.2399011154E+01+
*       4.5069375278E+01               0
GRID*                902               01.7499999988E+021.2399011158E+01+
*       4.5069375277E+01               0
GRID*                903               04.6249997324E+02-4.468334240E+01+
*       -1.130087950E+01               0
GRID*                904               04.4999997324E+02-4.468334240E+01+
*       -1.130087950E+01               0
GRID*                905               05.7500002421E+02-4.454738867E+01+
*       1.2846925795E+01               0
GRID*                906               05.8749999249E+02-4.644681882E+01+
*       1.0717555305E+00               0
GRID*                907               05.8285500789E+02-4.402439993E+01+
*       6.7644653040E+00               0
GRID*                908               05.8285503210E+02-4.551393113E+01+
*       1.3425048312E+01               0
GRID*                909               05.9535500037E+02-4.741336128E+01+
*       1.6498780471E+00               0
GRID*                910               03.2499997449E+02-4.640548243E+01+
*       6.1516149391E-01               0
GRID*                911               03.2499997449E+02-4.466360759E+01+
*       -1.150768482E+01               0
GRID*                912               03.3048728813E+02-4.244283581E+01+
*       -1.192679892E+01               0
GRID*                913               03.3048728813E+02-4.418471065E+01+
*       1.9604739447E-01               0
GRID*                914               03.3048726261E+02-4.753233561E+01+
*       -5.375133904E+00               0
GRID*                915               05.7500002421E+02-3.946177487E+01+
*       2.3990323780E+01               0
GRID*                916               05.7500002554E+02-3.229228770E+01+
*       3.3570310315E+01               0
GRID*                917               03.4298728813E+02-4.244283581E+01+
*       -1.192679892E+01               0
GRID*                918               03.4298728813E+02-4.418471065E+01+
*       1.9604739424E-01               0
GRID*                919               03.3749997332E+02-4.640955844E+01+
*       6.5644685571E-01               0
GRID*                920               03.4298726145E+02-4.753641162E+01+
*       -5.333848543E+00               0
GRID*                921               06.0000002509E+02-4.453112027E+01+
*       1.2885240985E+01               0
GRID*                922               05.9999999249E+02-4.644681882E+01+
*       1.0717555302E+00               0
GRID*                923               06.0683165726E+02-4.355208859E+01+
*       8.6766292816E+00               0
GRID*                924               06.0683168235E+02-4.502535139E+01+
*       1.5375527480E+01               0
GRID*                925               06.0683164975E+02-4.694104994E+01+
*       3.5620420250E+00               0
GRID*                926               03.4298727430E+02-4.355467655E+01+
*       -1.661665365E+01               0
GRID*                927               03.4999997332E+02-4.466768360E+01+
*       -1.146639946E+01               0
GRID*                928               03.4999997332E+02-4.640955844E+01+
*       6.5644685547E-01               0
GRID*                929               05.6250001275E+021.0844054145E+00+
*       4.5351611840E+01               0
GRID*                930               05.7500001275E+021.0844054112E+00+
*       4.5351611841E+01               0
GRID*                931               05.7500000159E+021.3040654429E+01+
*       4.4894112096E+01               0
GRID*                932               05.6250000159E+021.3040654432E+01+
*       4.4894112095E+01               0
GRID*                933               01.5000000556E+023.9395128321E-01+
*       4.5199129221E+01               0
GRID*                934               01.5611054348E+025.2935490132E+00+
*       4.3386127362E+01               0
GRID*                935               01.5611054334E+025.3842699837E+00+
*       4.6731661896E+01               0
GRID*                936               01.5611054903E+02-6.580540595E+00+
*       4.6851034738E+01               0
GRID*                937               01.3749999771E+023.3176198173E+01+
*       3.2810846296E+01               0
GRID*                938               01.3749999771E+022.2866903655E+01+
*       3.9441387874E+01               0
GRID*                939               01.4999999707E+023.3207026751E+01+
*       3.2783030608E+01               0
GRID*                940               04.7499998462E+02-4.079922970E+01+
*       -2.257509541E+01               0
GRID*                941               05.7500001981E+021.0761942373E+01+
*       -4.431470931E+01               0
GRID*                942               05.7500001981E+022.2528655070E+01+
*       -4.085697445E+01               0
GRID*                943               05.8750001844E+021.0724496939E+01+
*       -4.433253236E+01               0
GRID*                944               05.8750001844E+022.2491209636E+01+
*       -4.087479750E+01               0
GRID*                945               05.1249997658E+02-4.643266496E+01+
*       9.0499542124E-01               0
GRID*                946               05.1249997658E+02-4.469079011E+01+
*       -1.121785091E+01               0
GRID*                947               05.2499997928E+02-4.469442016E+01+
*       -1.117625716E+01               0
GRID*                948               05.2499997928E+02-4.643629501E+01+
*       9.4658917207E-01               0
GRID*                949               04.8749997459E+02-4.468709770E+01+
*       -1.125939031E+01               0
GRID*                950               04.8749998462E+02-4.079922970E+01+
*       -2.257509541E+01               0
GRID*                951               04.9999998477E+02-4.082173131E+01+
*       -2.254013548E+01               0
GRID*                952               05.1249998477E+02-4.082173131E+01+
*       -2.254013548E+01               0
GRID*                953               04.9999998477E+02-3.280139007E+01+
*       -3.180272572E+01               0
GRID*                954               01.6249999642E+022.2928514005E+01+
*       3.9385705549E+01               0
GRID*                955               01.6249999642E+023.3237808523E+01+
*       3.2755163971E+01               0
GRID*                956               04.0000000043E+021.2760488306E+01+
*       4.4972911057E+01               0
GRID*                957               04.1250001508E+028.4055915249E-01+
*       4.5300067612E+01               0
GRID*                958               04.1250000062E+021.2800569911E+01+
*       4.4961853866E+01               0
GRID*                959               02.9227987980E+02-4.501918579E+01+
*       4.6344354841E-01               0
GRID*                960               02.7977987980E+02-4.501918579E+01+
*       4.6344354862E-01               0
GRID*                961               02.7977987980E+02-4.327731095E+01+
*       -1.165940276E+01               0
GRID*                962               06.5000001937E+024.4450915873E+01+
*       -1.311409659E+01               0
GRID*                963               06.6250001937E+024.4450915874E+01+
*       -1.311409658E+01               0
GRID*                964               06.7019305080E+023.9392299450E+01+
*       -2.136553729E+01               0
GRID*                965               06.5769305080E+023.9392299449E+01+
*       -2.136553729E+01               0
GRID*                966               06.5769307017E+024.4269107521E+01+
*       -1.642028407E+01               0
GRID*                967               03.8749999314E+023.3482479188E+01+
*       3.2530318863E+01               0
GRID*                968               03.8749999314E+022.3173184665E+01+
*       3.9160860409E+01               0
GRID*                969               03.9999999309E+022.3203576572E+01+
*       3.9132511150E+01               0
GRID*                970               03.9999999309E+023.3512871094E+01+
*       3.2501969605E+01               0
GRID*                971               04.1249997720E+024.0045479576E+01+
*       2.2478120805E+01               0
GRID*                972               03.7499999314E+022.3173184669E+01+
*       3.9160860407E+01               0
GRID*                973               03.7500000026E+021.2720389497E+01+
*       4.4983900782E+01               0
GRID*                974               03.8750000043E+021.2760488310E+01+
*       4.4972911055E+01               0
GRID*                975               03.8749997789E+024.5117373633E+01+
*       1.1373908163E+01               0
GRID*                976               06.6250001937E+024.6192790709E+01+
*       -9.912502826E-01               0
GRID*                977               06.7500001960E+024.6185969545E+01+
*       -1.032268363E+00               0
GRID*                978               06.7500001960E+024.4444094710E+01+
*       -1.315511466E+01               0
GRID*                979               03.3749997810E+02-4.469195202E+01+
*       1.2498457277E+01               0
GRID*                980               03.3749997810E+02-3.960633819E+01+
*       2.3641855305E+01               0
GRID*                981               02.6249998879E+02-3.259701586E+01+
*       -3.211571347E+01               0
GRID*                982               02.6249998879E+02-4.061735705E+01+
*       -2.285312325E+01               0
GRID*                983               03.3048727505E+02-4.353186521E+01+
*       -1.665133802E+01               0
GRID*                984               02.3749998233E+02-4.464664617E+01+
*       -1.167253982E+01               0
GRID*                985               06.5000001937E+024.6192790709E+01+
*       -9.912502827E-01               0
GRID*                986               07.1846834542E+024.3975352237E+01+
*       8.5274448582E-02               0
GRID*                987               07.1846834542E+024.2233477404E+01+
*       -1.203757185E+01               0
GRID*                988               07.0596834542E+024.3975352237E+01+
*       8.5274448428E-02               0
GRID*                989               07.2500001694E+024.4430276368E+01+
*       -1.323690388E+01               0
GRID*                990               07.1846836236E+024.7089645966E+01+
*       -7.215125933E+00               0
GRID*                991               02.2499998233E+02-4.638852100E+01+
*       4.5030648161E-01               0
GRID*                992               02.2071659251E+02-4.382112447E+01+
*       6.9304780931E+00               0
GRID*                993               02.2071657484E+02-4.715178800E+01+
*       1.1944417802E+00               0
GRID*                994               02.2071657020E+02-4.553263307E+01+
*       1.3049694649E+01               0
GRID*                995               07.1846834691E+024.6221877756E+01+
*       4.7200907902E+00               0
GRID*                996               07.0596834542E+024.2233477403E+01+
*       -1.203757185E+01               0
GRID*                997               02.8085547906E+024.3559908058E+01+
*       1.8198966663E+01               0
GRID*                998               02.9335547749E+024.3573864956E+01+
*       1.8159929103E+01               0
GRID*                999               02.9335548993E+023.6974666576E+01+
*       2.8140336036E+01               0
GRID*               1000               02.6249998295E+024.5061904684E+01+
*       1.1530273039E+01               0
GRID*               1001               02.4999998467E+024.5047886799E+01+
*       1.1569277755E+01               0
GRID*               1002               02.5585657612E+024.1544018654E+01+
*       1.2869792143E+01               0
GRID*               1003               02.6835655908E+024.3548065866E+01+
*       1.8213722397E+01               0
GRID*               1004               02.5585656080E+024.3534047981E+01+
*       1.8252727113E+01               0
GRID*               1005               02.2500000845E+022.3051674275E+01+
*       -4.060012363E+01               0
GRID*               1006               02.2499998049E+023.2127102619E+01+
*       -3.279893633E+01               0
GRID*               1007               02.3749998081E+023.2102937273E+01+
*       -3.283278159E+01               0
GRID*               1008               06.9999999622E+024.5291356652E+01+
*       1.0861011480E+01               0
GRID*               1009               07.1249999622E+024.5291356652E+01+
*       1.0861011480E+01               0
GRID*               1010               07.0596834165E+024.6208851417E+01+
*       4.7599431333E+00               0
GRID*               1011               07.8750001153E+024.6158085412E+01+
*       -1.195614466E+00               0
GRID*               1012               07.8750001153E+024.4416210581E+01+
*       -1.331846076E+01               0
GRID*               1013               07.7500001153E+024.4416210580E+01+
*       -1.331846076E+01               0
GRID*               1014               02.2499998651E+024.5033807028E+01+
*       1.1608251796E+01               0
GRID*               1015               02.2945124351E+024.6228360158E+01+
*       1.1605671175E+01               0
GRID*               1016               02.3749999837E+02-1.194791649E+01+
*       -4.371007359E+01               0
GRID*               1017               02.3749999838E+02-2.371462920E+01+
*       -4.025233871E+01               0
GRID*               1018               01.3749999986E+021.2318496165E+01+
*       4.5090070132E+01               0
GRID*               1019               06.0000001844E+021.0724496939E+01+
*       -4.433253236E+01               0
GRID*               1020               04.5000002131E+023.1906006358E+01+
*       -3.310417068E+01               0
GRID*               1021               04.5593566041E+022.7032010900E+01+
*       -3.509845356E+01               0
GRID*               1022               04.5593568357E+022.6214243244E+01+
*       -3.928075657E+01               0
GRID*               1023               04.5593568172E+023.5404591922E+01+
*       -3.161809391E+01               0
GRID*               1024               05.8141952000E+022.8394718670E+01+
*       -3.374201816E+01               0
GRID*               1025               05.8141953981E+022.7389948345E+01+
*       -3.801446233E+01               0
GRID*               1026               05.5000002822E+023.1806767117E+01+
*       -3.323815674E+01               0
GRID*               1027               05.5000002822E+023.9827108322E+01+
*       -2.397556651E+01               0
GRID*               1028               05.6250002793E+023.1781903523E+01+
*       -3.327144033E+01               0
GRID*               1029               06.1250002551E+023.9752430012E+01+
*       -2.407519174E+01               0
GRID*               1030               01.2500000362E+023.5337024743E-01+
*       4.5189538543E+01               0
GRID*               1031               01.3750000362E+023.5337024383E-01+
*       4.5189538545E+01               0
GRID*               1032               01.2499999986E+021.2318496169E+01+
*       4.5090070131E+01               0
GRID*               1033               08.9440649610E+02-4.222471523E+01+
*       -1.281507817E+01               0
GRID*               1034               01.6861054335E+025.4245192834E+00+
*       4.6721280793E+01               0
GRID*               1035               02.9999997506E+02-3.963757179E+01+
*       2.3564589426E+01               0
GRID*               1036               02.9999997506E+02-4.472318562E+01+
*       1.2421191393E+01               0
GRID*               1037               02.7499997787E+02-4.639713409E+01+
*       5.3268355169E-01               0
GRID*               1038               02.7499997787E+02-4.465525926E+01+
*       -1.159016275E+01               0
GRID*               1039               02.7977985768E+02-4.835846241E+01+
*       -5.190215693E+00               0
GRID*               1040               06.9303614697E+022.6540664330E+01+
*       -3.540906552E+01               0
GRID*               1041               06.9303615843E+022.5348464616E+01+
*       -3.976996281E+01               0
GRID*               1042               06.8053614697E+022.6540664324E+01+
*       -3.540906553E+01               0
GRID*               1043               01.5586427748E+024.3435689641E+01+
*       1.5927254233E+00               0
GRID*               1044               01.5586427748E+024.1693814790E+01+
*       -1.053012092E+01               0
GRID*               1045               01.5034724885E+024.4654542774E+01+
*       4.2923497899E+00               0
GRID*               1046               01.5621152633E+024.5032374943E+01+
*       -3.012675702E-01               0
GRID*               1047               01.5034724885E+024.2912667923E+01+
*       -7.830496550E+00               0
GRID*               1048               02.3749998081E+024.0123278535E+01+
*       -2.357019133E+01               0
GRID*               1049               09.9999994752E+01-4.462392477E+01+
*       -1.187827193E+01               0
GRID*               1050               02.4999998081E+024.0123278535E+01+
*       -2.357019133E+01               0
GRID*               1051               02.6249997462E+024.4545434613E+01+
*       -1.249470612E+01               0
GRID*               1052               02.6249998245E+024.0099001860E+01+
*       -2.360406848E+01               0
GRID*               1053               01.1249999719E+02-3.243504628E+01+
*       -3.235673412E+01               0
GRID*               1054               01.1249999929E+02-2.353170800E+01+
*       -4.035085914E+01               0
GRID*               1055               01.2499999906E+02-2.356835569E+01+
*       -4.033127795E+01               0
GRID*               1056               01.1249999719E+02-4.045538744E+01+
*       -2.309414391E+01               0
GRID*               1057               02.3100711502E+024.2972675539E+01+
*       1.1429546666E+01               0
GRID*               1058               02.3545837202E+024.4167228669E+01+
*       1.1426966045E+01               0
GRID*               1059               02.3100710153E+024.4948625095E+01+
*       1.6851455677E+01               0
GRID*               1060               01.1249998900E+02-3.974422582E+01+
*       2.3294916695E+01               0
GRID*               1061               01.1249998900E+02-4.482983967E+01+
*       1.2151518641E+01               0
GRID*               1062               08.7499999287E+01-2.353170801E+01+
*       -4.035085913E+01               0
GRID*               1063               03.2500001363E+02-1.158995958E+01+
*       4.5264325995E+01               0
GRID*               1064               03.3750001755E+02-2.227095605E+01+
*       3.9961212019E+01               0
GRID*               1065               03.3750001421E+02-1.154934748E+01+
*       4.5273364692E+01               0
GRID*               1066               05.4413732518E+022.8129709988E+01+
*       -3.337067362E+01               0
GRID*               1067               05.4413734615E+022.7162368479E+01+
*       -3.762522703E+01               0
GRID*               1068               05.3163732518E+022.8129709982E+01+
*       -3.337067362E+01               0
GRID*               1069               04.4479643988E+023.1445374715E+01+
*       -3.121997886E+01               0
GRID*               1070               04.3229643988E+023.1445374710E+01+
*       -3.121997887E+01               0
GRID*               1071               04.3229643989E+023.9465715940E+01+
*       -2.195738863E+01               0
GRID*               1072               09.9999999285E+01-1.176499526E+01+
*       -4.380859403E+01               0
GRID*               1073               06.1250001689E+021.0687033283E+01+
*       -4.435028837E+01               0
GRID*               1074               06.2500001689E+021.0687033283E+01+
*       -4.435028837E+01               0
GRID*               1075               05.0856198564E+02-4.765129481E+01+
*       1.8575811981E+00               0
GRID*               1076               05.2106198834E+02-4.765492486E+01+
*       1.8991749490E+00               0
GRID*               1077               06.3750001785E+024.6199555513E+01+
*       -9.501323237E-01               0
GRID*               1078               06.3749998529E+024.5252011431E+01+
*       1.0980130710E+01               0
GRID*               1079               06.4999998825E+024.5265174135E+01+
*       1.0940489388E+01               0
GRID*               1080               05.4413735339E+023.6403051722E+01+
*       -3.002430007E+01               0
GRID*               1081               07.0000001846E+023.1657096317E+01+
*       -3.343679783E+01               0
GRID*               1082               07.0000001846E+023.9677437492E+01+
*       -2.417420762E+01               0
GRID*               1083               07.1250001556E+023.9652352490E+01+
*       -2.420710053E+01               0
GRID*               1084               07.1250001556E+023.1632011316E+01+
*       -3.346969074E+01               0
GRID*               1085               07.2500001556E+023.1632011321E+01+
*       -3.346969074E+01               0
GRID*               1086               07.5000001256E+023.1606875214E+01+
*       -3.350253705E+01               0
GRID*               1087               07.5000001256E+023.9627216380E+01+
*       -2.423994684E+01               0
GRID*               1088               04.9999999712E+01-1.169159889E+01+
*       -4.384757446E+01               0
GRID*               1089               06.2499999713E+01-2.345831164E+01+
*       -4.038983956E+01               0
GRID*               1090               04.9999999713E+01-2.345831165E+01+
*       -4.038983955E+01               0
GRID*               1091               04.9999999058E+01-3.238822729E+01+
*       -3.242528465E+01               0
GRID*               1092               05.5188145201E+01-2.562651747E+01+
*       -3.657742937E+01               0
GRID*               1093               05.5188144254E+01-3.448131925E+01+
*       -3.241818382E+01               0
GRID*               1094               05.5188144910E+01-2.555140361E+01+
*       -4.038273873E+01               0
GRID*               1095               05.4413732518E+023.6150051193E+01+
*       -2.410808339E+01               0
GRID*               1096               06.0000000000E+02-9.862528642E-01+
*       -4.662015788E+01               0
GRID*               1097               06.8727156620E+01-3.736537005E+01+
*       -2.426637264E+01               0
GRID*               1098               06.8727154827E+01-3.822327283E+01+
*       -2.933545609E+01               0
GRID*               1099               05.6227156620E+01-3.736537006E+01+
*       -2.426637264E+01               0
GRID*               1100               07.7500000576E+022.2228455975E+01+
*       -4.099773356E+01               0
GRID*               1101               07.7991699491E+022.8510500550E+01+
*       -3.372574085E+01               0
GRID*               1102               07.7991700067E+022.7205531038E+01+
*       -3.813894420E+01               0
GRID*               1103               07.7991700450E+023.6558758010E+01+
*       -3.067655400E+01               0
GRID*               1104               07.4999998642E+01-1.199585893E+01+
*       4.5170145244E+01               0
GRID*               1105               07.4999994366E+01-2.261874161E+01+
*       3.9661962885E+01               0
GRID*               1106               08.7499991632E+01-2.258761414E+01+
*       3.9689226148E+01               0
GRID*               1107               03.7499999252E+01-3.980370664E+01+
*       2.3140391426E+01               0
GRID*               1108               03.7499999080E+01-3.299020053E+01+
*       3.2976703742E+01               0
GRID*               1109               07.5000000000E+02-1.232816080E+00+
*       -4.658769735E+01               0
GRID*               1110               07.5000000761E+021.0499366212E+01+
*       -4.443809400E+01               0
GRID*               1111               07.6250000576E+021.0461743232E+01+
*       -4.445546846E+01               0
GRID*               1112               07.6250000000E+02-1.232816080E+00+
*       -4.658769735E+01               0
GRID*               1113               07.6834646834E+02-6.547030818E+00+
*       -4.329855797E+01               0
GRID*               1114               07.5584646834E+02-7.779846898E+00+
*       -4.638625532E+01               0
GRID*               1115               07.6834646834E+02-7.820940767E+00+
*       -4.638084523E+01               0
GRID*               1116               06.8750001960E+024.4444094711E+01+
*       -1.315511466E+01               0
GRID*               1117               06.8750001960E+024.6185969545E+01+
*       -1.032268363E+00               0
GRID*               1118               07.0000001872E+024.6179090312E+01+
*       -1.073199552E+00               0
GRID*               1119               07.0000001872E+024.4437215478E+01+
*       -1.319604585E+01               0
GRID*               1120               09.3238507972E+01-3.466648739E+01+
*       2.7947529782E+01               0
GRID*               1121               08.0738507972E+01-3.466648739E+01+
*       2.7947529783E+01               0
GRID*               1122               08.6974252441E+01-3.879395134E+01+
*       2.2998911007E+01               0
GRID*               1123               07.7500000576E+021.0461743232E+01+
*       -4.445546846E+01               0
GRID*               1124               08.0000000000E+02-1.308171643E+01+
*       -4.311914238E+01               0
GRID*               1125               07.8750000000E+02-1.308171643E+01+
*       -4.311914238E+01               0
GRID*               1126               07.8750000404E+022.2190794699E+01+
*       -4.101504928E+01               0
GRID*               1127               03.7499999541E+01-4.460944518E+01+
*       -1.200180723E+01               0
GRID*               1128               03.7499999541E+01-4.635132001E+01+
*       1.2103905774E-01               0
GRID*               1129               02.4999999541E+01-4.460944518E+01+
*       -1.200180723E+01               0
GRID*               1130               06.2499997014E+01-3.295912424E+01+
*       3.3004101465E+01               0
GRID*               1131               07.4999994366E+01-3.292803614E+01+
*       3.3031421379E+01               0
GRID*               1132               05.6250000000E+02-9.040651255E-01+
*       -4.663097805E+01               0
GRID*               1133               05.6961167557E+026.3030765785E+00+
*       -4.337522856E+01               0
GRID*               1134               03.3749999351E+022.3112273815E+01+
*       3.9217395816E+01               0
GRID*               1135               03.5000000012E+021.2680274423E+01+
*       4.4994822652E+01               0
GRID*               1136               03.3750000012E+021.2680274427E+01+
*       4.4994822651E+01               0
GRID*               1137               04.9999997014E+01-2.264982971E+01+
*       3.9634642971E+01               0
GRID*               1138               04.9999997520E+01-3.978890990E+01+
*       2.3179115514E+01               0
GRID*               1139               03.8749999854E+02-1.216640658E+01+
*       -4.358980810E+01               0
GRID*               1140               04.0000000000E+02-6.575019095E-01+
*       -4.666343859E+01               0
GRID*               1141               04.1249998510E+02-4.073141563E+01+
*       -2.267969900E+01               0
GRID*               1142               04.1249998510E+02-3.271107441E+01+
*       -3.194228923E+01               0
GRID*               1143               04.2499998478E+02-3.273373058E+01+
*       -3.190746748E+01               0
GRID*               1144               04.2499998478E+02-4.075407180E+01+
*       -2.264487724E+01               0
GRID*               1145               03.9999999871E+02-1.220271269E+01+
*       -4.356954790E+01               0
GRID*               1146               04.1249999871E+02-2.396942536E+01+
*       -4.011181305E+01               0
GRID*               1147               08.1250000404E+022.2190794708E+01+
*       -4.101504927E+01               0
GRID*               1148               05.7500000000E+02-9.451589949E-01+
*       -4.662556797E+01               0
GRID*               1149               08.6250000000E+02-1.438285427E+00+
*       -4.656064690E+01               0
GRID*               1150               08.7500000000E+02-1.320499803E+01+
*       -4.310291212E+01               0
GRID*               1151               08.0738503046E+01-4.155392608E+01+
*       2.2692158294E+01               0
GRID*               1152               08.6250000042E+021.0310820466E+01+
*       -4.452439881E+01               0
GRID*               1153               08.6250000042E+022.2077533222E+01+
*       -4.106666390E+01               0
GRID*               1154               08.7500000042E+021.0310820466E+01+
*       -4.452439881E+01               0
GRID*               1155               06.3083076333E+02-6.845555018E+00+
*       -4.662462932E+01               0
GRID*               1156               06.3083076333E+02-1.834613179E+01+
*       -4.339437043E+01               0
GRID*               1157               06.4333076333E+02-6.886648887E+00+
*       -4.661921923E+01               0
GRID*               1158               06.4999998876E+02-3.293530663E+01+
*       -3.159201339E+01               0
GRID*               1159               06.4999998876E+02-4.095564788E+01+
*       -2.232942314E+01               0
GRID*               1160               06.4375297879E+02-2.820725569E+01+
*       -3.401416703E+01               0
GRID*               1161               06.4375296755E+02-3.760913706E+01+
*       -2.902165003E+01               0
GRID*               1162               06.4375297879E+02-3.622759695E+01+
*       -2.475157678E+01               0
GRID*               1163               03.7499999674E+01-4.038505844E+01+
*       -2.319693087E+01               0
GRID*               1164               02.4999999674E+01-4.038505844E+01+
*       -2.319693087E+01               0
GRID*               1165               02.4999999675E+01-3.236471729E+01+
*       -3.245952108E+01               0
GRID*               1166               06.2499997520E+01-3.978890990E+01+
*       2.3179115513E+01               0
GRID*               1167               07.4999999509E+01-2.349502704E+01+
*       -4.037037951E+01               0
GRID*               1168               07.4999999507E+01-1.172831429E+01+
*       -4.382811441E+01               0
GRID*               1169               08.7499999285E+01-1.176499526E+01+
*       -4.380859403E+01               0
GRID*               1170               02.2499999522E+023.3299236104E+01+
*       3.2699274439E+01               0
GRID*               1171               02.3749999522E+023.3299236101E+01+
*       3.2699274444E+01               0
GRID*               1172               02.4350711502E+023.7887061753E+01+
*       2.2572944637E+01               0
GRID*               1173               02.3100711502E+023.7887061757E+01+
*       2.2572944632E+01               0
GRID*               1174               02.3100711024E+023.8299667954E+01+
*       2.6799080354E+01               0
GRID*               1175               07.2500001556E+023.9652352491E+01+
*       -2.420710053E+01               0
GRID*               1176               01.3749999906E+02-2.356835568E+01+
*       -4.033127796E+01               0
GRID*               1177               07.1250000952E+022.2303667667E+01+
*       -4.096292427E+01               0
GRID*               1178               01.4999999516E+021.1396943552E+01+
*       -4.400095565E+01               0
GRID*               1179               01.3749999516E+022.3163656165E+01+
*       -4.054322086E+01               0
GRID*               1180               01.4999999516E+022.3163656167E+01+
*       -4.054322086E+01               0
GRID*               1181               01.3749999516E+021.1396943552E+01+
*       -4.400095565E+01               0
GRID*               1182               09.3006688247E+017.0413539441E+00+
*       -4.315559161E+01               0
GRID*               1183               08.0506688247E+011.8808066553E+01+
*       -3.969785682E+01               0
GRID*               1184               09.3006688247E+011.8808066555E+01+
*       -3.969785682E+01               0
GRID*               1185               09.9999993706E+011.1470967959E+01+
*       -4.396290855E+01               0
GRID*               1186               09.9999993706E+012.3237680570E+01+
*       -4.050517376E+01               0
GRID*               1187               01.1249999354E+021.1434028436E+01+
*       -4.398193929E+01               0
GRID*               1188               01.1249999929E+02-1.176499526E+01+
*       -4.380859403E+01               0
GRID*               1189               02.7499998245E+024.0099001860E+01+
*       -2.360406848E+01               0
GRID*               1190               02.7499998245E+023.2078660605E+01+
*       -3.286665873E+01               0
GRID*               1191               02.6249998245E+023.2078660601E+01+
*       -3.286665873E+01               0
GRID*               1192               02.8749998559E+024.0074606106E+01+
*       -2.363798761E+01               0
GRID*               1193               02.9999998559E+023.2054264855E+01+
*       -3.290057786E+01               0
GRID*               1194               02.8749998559E+023.2054264850E+01+
*       -3.290057786E+01               0
GRID*               1195               03.2500001329E+02-3.261220960E+01+
*       3.3303637806E+01               0
GRID*               1196               03.6249997883E+024.5103595430E+01+
*       1.1413054555E+01               0
GRID*               1197               03.4999997883E+024.5103595430E+01+
*       1.1413054555E+01               0
GRID*               1198               03.4999997883E+024.0017981630E+01+
*       2.2556452544E+01               0
GRID*               1199               03.6249997193E+024.6269737253E+01+
*       -4.951272675E-01               0
GRID*               1200               02.4999999774E+013.3052384642E+01+
*       3.2921623468E+01               0
GRID*               1201               04.1164560141E+013.6563118469E+01+
*       2.5505235538E+01               0
GRID*               1202               02.8664560141E+013.6563118468E+01+
*       2.5505235539E+01               0
GRID*               1203               02.8664559912E+013.6728873164E+01+
*       2.9953720346E+01               0
GRID*               1204               03.4999997193E+024.6269737253E+01+
*       -4.951272678E-01               0
GRID*               1205               04.2499997679E+024.0059141318E+01+
*       2.2438895413E+01               0
GRID*               1206               04.3749997679E+024.0059141315E+01+
*       2.2438895418E+01               0
GRID*               1207               04.6249997666E+024.0072745440E+01+
*       2.2399629046E+01               0
GRID*               1208               04.4999997666E+024.0072745443E+01+
*       2.2399629042E+01               0
GRID*               1209               04.8749997683E+024.0086292320E+01+
*       2.2360320793E+01               0
GRID*               1210               04.9999997732E+024.0099782333E+01+
*       2.2320969756E+01               0
GRID*               1211               04.9999997732E+024.5185396154E+01+
*       1.1177571739E+01               0
GRID*               1212               04.4999999324E+023.3573527033E+01+
*       3.2445108622E+01               0
GRID*               1213               04.6249999324E+023.3573527030E+01+
*       3.2445108626E+01               0
GRID*               1214               04.7499997683E+024.0086292324E+01+
*       2.2360320789E+01               0
GRID*               1215               04.7499999343E+023.3603790471E+01+
*       3.2416597351E+01               0
GRID*               1216               04.8749999343E+023.3603790467E+01+
*       3.2416597356E+01               0
GRID*               1217               06.7500001336E+022.2378756339E+01+
*       -4.092786756E+01               0
GRID*               1218               06.8053616033E+022.5385995220E+01+
*       -3.975240285E+01               0
GRID*               1219               05.2500000136E+021.2960707882E+01+
*       4.4916957243E+01               0
GRID*               1220               05.7499999484E+022.3415109143E+01+
*       3.8932563202E+01               0
GRID*               1221               05.5000001350E+021.0437535162E+00+
*       4.5343193479E+01               0
GRID*               1222               05.5000001350E+02-1.122428728E+01+
*       4.5343193466E+01               0
GRID*               1223               05.6250001275E+02-1.118363538E+01+
*       4.5351611827E+01               0
GRID*               1224               05.7500001275E+02-1.118363539E+01+
*       4.5351611825E+01               0
GRID*               1225               05.8750001188E+02-1.114297818E+01+
*       4.5359961376E+01               0
GRID*               1226               05.8750001188E+021.1250626162E+00+
*       4.5359961392E+01               0
GRID*               1227               05.8749999484E+022.3415109140E+01+
*       3.8932563203E+01               0
GRID*               1228               05.8750000164E+021.3080595319E+01+
*       4.4882591048E+01               0
GRID*               1229               06.9303616543E+023.4664335192E+01+
*       -3.226133312E+01               0
GRID*               1230               06.6250001779E+02-2.185448744E+01+
*       4.0305500743E+01               0
GRID*               1231               06.6250001779E+02-3.216378196E+01+
*       3.3674959178E+01               0
GRID*               1232               05.3749999968E+02-2.415045731E+01+
*       -4.000959968E+01               0
GRID*               1233               05.3749999968E+02-1.238374466E+01+
*       -4.346733450E+01               0
GRID*               1234               05.4999999983E+02-1.241984585E+01+
*       -4.344671162E+01               0
GRID*               1235               05.4999999984E+02-2.418655850E+01+
*       -3.998897680E+01               0
GRID*               1236               05.5000000000E+02-9.040651255E-01+
*       -4.663097805E+01               0
GRID*               1237               05.6249999983E+02-1.241984585E+01+
*       -4.344671162E+01               0
GRID*               1238               02.9999997602E+02-4.640134112E+01+
*       5.7390812824E-01               0
GRID*               1239               02.9999997602E+02-4.465946628E+01+
*       -1.154893818E+01               0
GRID*               1240               03.0483090017E+02-4.294615933E+01+
*       -1.178218004E+01               0
GRID*               1241               03.0483090017E+02-4.468803417E+01+
*       3.4066626876E-01               0
GRID*               1242               03.0483087619E+02-4.803151782E+01+
*       -5.271768396E+00               0
GRID*               1243               06.5000000980E+02-1.106164444E+01+
*       4.5376454493E+01               0
GRID*               1244               07.0596836414E+024.7096585077E+01+
*       -7.174267898E+00               0
GRID*               1245               07.7500000776E+02-3.203470023E+01+
*       3.3778660195E+01               0
GRID*               1246               05.5711167557E+026.3030765785E+00+
*       -4.337522856E+01               0
GRID*               1247               01.6249999903E+021.1359683573E+01+
*       -4.401996995E+01               0
GRID*               1248               01.7499999903E+021.1359683573E+01+
*       -4.401996995E+01               0
GRID*               1249               07.3750001024E+02-2.175774360E+01+
*       4.0383355052E+01               0
GRID*               1250               07.0000000741E+021.2877640273E+00+
*       4.5392674074E+01               0
GRID*               1251               08.5721657495E+02-4.350309987E+01+
*       8.5075711123E+00               0
GRID*               1252               08.7415393342E+02-3.427486457E+01+
*       3.1720577852E+01               0
GRID*               1253               07.6249999835E+022.3624392382E+01+
*       3.8730084892E+01               0
GRID*               1254               07.7500000091E+021.3359563708E+01+
*       4.4800111063E+01               0
GRID*               1255               07.7499999879E+022.3654092967E+01+
*       3.8700963143E+01               0
GRID*               1256               07.6250001097E+02-4.441600215E+01+
*       1.3151397119E+01               0
GRID*               1257               07.6250001097E+02-3.933038838E+01+
*       2.4294795071E+01               0
GRID*               1258               08.8750000000E+02-2.156280000E+01+
*       4.0537842102E+01               0
GRID*               1259               08.6794617669E+02-7.225138860E+00+
*       4.3409827449E+01               0
GRID*               1260               08.6794617669E+025.0429019563E+00+
*       4.3409827492E+01               0
GRID*               1261               08.5544617669E+02-7.225138859E+00+
*       4.3409827449E+01               0
GRID*               1262               08.7499999992E+022.3772374503E+01+
*       3.8584007132E+01               0
GRID*               1263               08.7500000012E+021.3518519765E+01+
*       4.4751526862E+01               0
GRID*               1264               08.8259875946E+021.6928684658E+01+
*       4.0895281245E+01               0
GRID*               1265               08.8259875938E+022.8433018446E+01+
*       3.7745066457E+01               0
GRID*               1266               08.8259875958E+021.8179163709E+01+
*       4.3912586187E+01               0
GRID*               1267               08.6249999975E+022.3742883571E+01+
*       3.8613315465E+01               0
GRID*               1268               08.6249999975E+023.4052178099E+01+
*       3.1982773960E+01               0
GRID*               1269               08.4999999975E+022.3742883571E+01+
*       3.8613315465E+01               0
GRID*               1270               08.0000000545E+02-3.200230932E+01+
*       3.3804460735E+01               0
GRID*               1271               07.8750000545E+02-3.200230932E+01+
*       3.3804460739E+01               0
GRID*               1272               08.6250000028E+021.3478807603E+01+
*       4.4763773677E+01               0
GRID*               1273               07.8750000781E+02-3.931371906E+01+
*       2.4332637534E+01               0
GRID*               1274               08.0000000781E+02-3.931371907E+01+
*       2.4332637530E+01               0
GRID*               1275               08.5000000028E+021.3478807603E+01+
*       4.4763773677E+01               0
GRID*               1276               08.5000000082E+021.5322319013E+00+
*       4.5439712571E+01               0
GRID*               1277               08.5544617669E+025.0429019568E+00+
*       4.3409827492E+01               0
GRID*               1278               08.5544617697E+026.2536688450E+00+
*       4.6439379250E+01               0
GRID*               1279               08.5544617751E+02-5.692906857E+00+
*       4.7115318144E+01               0
GRID*               1280               07.5000001024E+02-2.175774360E+01+
*       4.0383355051E+01               0
GRID*               1281               07.5000001024E+02-3.206703812E+01+
*       3.3752813473E+01               0
GRID*               1282               06.2500000000E+01-8.218773868E-02+
*       -4.673917982E+01               0
GRID*               1283               07.4999995121E+011.1507796580E+01+
*       -4.394384915E+01               0
GRID*               1284               07.5000000000E+01-1.232816080E-01+
*       -4.673376973E+01               0
GRID*               1285               08.0506688247E+017.0413539441E+00+
*       -4.315559161E+01               0
GRID*               1286               08.0506688247E+016.9180723361E+00+
*       -4.638936135E+01               0
GRID*               1287               08.0506683368E+011.8549150524E+01+
*       -4.359944076E+01               0
GRID*               1288               06.2499999712E+01-1.169159889E+01+
*       -4.384757446E+01               0
GRID*               1289               01.5567578410E+02-4.449262789E+01+
*       1.7828491936E+01               0
GRID*               1290               01.5567578592E+02-3.759785559E+01+
*       2.7608164247E+01               0
GRID*               1291               08.7500000084E+02-4.647974750E+01+
*       1.5283709996E+00               0
GRID*               1292               08.6971657495E+02-4.350309987E+01+
*       8.5075711121E+00               0
GRID*               1293               08.6971657580E+02-4.692498989E+01+
*       3.8495993305E+00               0
GRID*               1294               08.6971657570E+02-4.479412187E+01+
*       1.5623990113E+01               0
GRID*               1295               08.5721657743E+02-4.481102010E+01+
*       1.5586135251E+01               0
GRID*               1296               08.5721657782E+02-4.692236557E+01+
*       3.8082533120E+00               0
GRID*               1297               08.7500000084E+02-4.473787265E+01+
*       -1.059447534E+01               0
GRID*               1298               08.7499999992E+023.4081669031E+01+
*       3.1953465626E+01               0
GRID*               1299               08.7500000092E+024.0294697980E+01+
*       2.1727043106E+01               0
GRID*               1300               08.6956706533E+023.6949503236E+01+
*       2.3483909758E+01               0
GRID*               1301               08.6956706525E+023.8144542497E+01+
*       2.6964236475E+01               0
GRID*               1302               08.6956706626E+024.4357571446E+01+
*       1.6737813954E+01               0
GRID*               1303               08.5706706819E+024.4345128926E+01+
*       1.6777337338E+01               0
GRID*               1304               08.6250000074E+02-3.926326571E+01+
*       2.4446159721E+01               0
GRID*               1305               08.8750000000E+023.4111105779E+01+
*       3.1924112063E+01               0
GRID*               1306               08.9509875946E+022.7237979225E+01+
*       3.4264739694E+01               0
GRID*               1307               08.9509875946E+022.8462455194E+01+
*       3.7715712893E+01               0
GRID*               1308               08.8259875946E+022.7237979186E+01+
*       3.4264739740E+01               0
GRID*               1309               08.4999999975E+023.4052178099E+01+
*       3.1982773959E+01               0
GRID*               1310               08.8665393287E+02-4.161639088E+01+
*       2.2322992455E+01               0
GRID*               1311               08.7415393287E+02-4.034234901E+01+
*       1.5168687875E+01               0
GRID*               1312               08.9509875946E+021.6928684764E+01+
*       4.0895281214E+01               0
GRID*               1313               08.8750000000E+024.0307099101E+01+
*       2.1687446854E+01               0
GRID*               1314               02.3750000000E+02-3.698448241E-01+
*       -4.670130920E+01               0
GRID*               1315               02.5000000000E+02-4.109386934E-01+
*       -4.669589912E+01               0
GRID*               1316               02.4999998081E+023.2102937277E+01+
*       -3.283278158E+01               0
GRID*               1317               01.9060014422E+016.2647224374E+00+
*       -4.683307813E+01               0
GRID*               1318               01.9060013500E+011.7887106236E+01+
*       -4.399406269E+01               0
GRID*               1319               06.5600144218E+006.3058163068E+00+
*       -4.683848822E+01               0
GRID*               1320               06.5600144218E+006.3058163068E+00+
*       -4.358848822E+01               0
GRID*               1321               06.5600144218E+001.7923863202E+01+
*       -4.397481217E+01               0
GRID*               1322               06.5600144218E+001.8072528998E+01+
*       -4.013075338E+01               0
GRID*               1323               01.5034723649E+024.7911840167E+01+
*       -2.060797730E+00               0
GRID*               1324               01.4634643525E+024.5883413315E+01+
*       2.9178465576E+00               0
GRID*               1325               01.4599917404E+024.7544025406E+01+
*       -1.541307969E+00               0
GRID*               1326               01.4454907710E+024.7181841999E+01+
*       -6.210030126E+00               0
GRID*               1327               01.4489633831E+024.5521229908E+01+
*       -1.750875599E+00               0
GRID*               1328               01.4054827586E+024.5153415146E+01+
*       -1.231385838E+00               0
GRID*               1329               01.2500000000E+012.3384759502E+01+
*       -4.042858917E+01               0
GRID*               1330               01.9060014422E+011.8072528914E+01+
*       -4.013075343E+01               0
GRID*               1331               02.0000000421E+022.3089021129E+01+
*       -4.058122253E+01               0
GRID*               1332               01.9999998129E+023.2151164677E+01+
*       -3.276511247E+01               0
GRID*               1333               02.1249998049E+023.2127102615E+01+
*       -3.279893633E+01               0
GRID*               1334               02.0000000421E+021.1322308508E+01+
*       -4.403895733E+01               0
GRID*               1335               02.1250000845E+021.1284961650E+01+
*       -4.405785843E+01               0
GRID*               1336               02.1250000845E+022.3051674271E+01+
*       -4.060012363E+01               0
GRID*               1337               03.4999997810E+02-4.469195202E+01+
*       1.2498457276E+01               0
GRID*               1338               08.6250000183E+02-3.311090305E+01+
*       -3.130858045E+01               0
GRID*               1339               08.7500000004E+02-2.465258183E+01+
*       -3.971546172E+01               0
GRID*               1340               08.7500000080E+02-3.313247562E+01+
*       -3.127313321E+01               0
GRID*               1341               08.5000000129E+022.2115338652E+01+
*       -4.104951224E+01               0
GRID*               1342               08.5000000213E+023.1505710856E+01+
*       -3.363359818E+01               0
GRID*               1343               08.6250000066E+023.1480232597E+01+
*       -3.366632438E+01               0
GRID*               1344               08.7500000080E+02-4.115281690E+01+
*       -2.201054295E+01               0
GRID*               1345               08.3750000247E+02-4.436577770E+01+
*       1.3264906921E+01               0
GRID*               1346               08.2445735069E+02-4.204068414E+01+
*       1.3851832628E+01               0
GRID*               1347               08.3695735316E+02-4.334860437E+01+
*       2.0930396767E+01               0
GRID*               1348               08.5000000247E+02-4.436577770E+01+
*       1.3264906920E+01               0
GRID*               1349               08.8750000000E+02-1.065410339E+01+
*       4.5454868939E+01               0
GRID*               1350               08.7500000026E+02-1.069497982E+01+
*       4.5447320115E+01               0
GRID*               1351               07.8086682677E+02-4.700929158E+01+
*       -5.379579903E+00               0
GRID*               1352               07.9336682433E+02-4.701211873E+01+
*       -5.338277126E+00               0
GRID*               1353               07.9336681512E+02-4.337003305E+01+
*       -1.673691091E+01               0
GRID*               1354               04.1249999309E+023.3512871091E+01+
*       3.2501969610E+01               0
GRID*               1355               08.0493640186E+02-2.073175912E+01+
*       -4.276744478E+01               0
GRID*               1356               08.1743640173E+02-9.308995806E+00+
*       -4.610170370E+01               0
GRID*               1357               07.0000002001E+02-4.446564033E+01+
*       1.3037681978E+01               0
GRID*               1358               07.0000001232E+02-4.645990757E+01+
*       1.2388728398E+00               0
GRID*               1359               08.8750000012E+021.3518519872E+01+
*       4.4751526831E+01               0
GRID*               1360               08.9509875946E+021.8218874702E+01+
*       4.3900268204E+01               0
GRID*               1361               08.8750000000E+021.6139374217E+00+
*       4.5454868982E+01               0
GRID*               1362               08.7500000026E+021.5730610002E+00+
*       4.5447320159E+01               0
GRID*               1363               03.7499999149E+013.2317521153E+01+
*       -3.252788380E+01               0
GRID*               1364               03.7499999149E+014.0337862430E+01+
*       -2.326529354E+01               0
GRID*               1365               04.9999997192E+014.0314238680E+01+
*       -2.329933861E+01               0
GRID*               1366               04.9999997192E+013.2293897404E+01+
*       -3.256192887E+01               0
GRID*               1367               06.9432805035E+02-4.496478620E+01+
*       1.5599219239E+01               0
GRID*               1368               06.8182803035E+02-3.847138956E+01+
*       1.9891278011E+01               0
GRID*               1369               06.9182988322E+02-4.112736586E+01+
*       1.8377693952E+01               0
GRID*               1370               01.2500000000E+013.2341132059E+01+
*       -3.249374966E+01               0
GRID*               1371               08.0000000013E+02-2.454557362E+01+
*       -3.977947337E+01               0
GRID*               1372               08.0493640173E+02-1.971961073E+01+
*       -3.957250183E+01               0
GRID*               1373               01.2500000000E+014.0361473336E+01+
*       -2.323115939E+01               0
GRID*               1374               02.4999999149E+014.0337862430E+01+
*       -2.326529354E+01               0
GRID*               1375               02.4999999149E+013.2317521153E+01+
*       -3.252788381E+01               0
GRID*               1376               06.3750001785E+024.4457680678E+01+
*       -1.307297863E+01               0
GRID*               1377               06.2500001785E+024.4457680677E+01+
*       -1.307297863E+01               0
GRID*               1378               06.2500001785E+024.6199555513E+01+
*       -9.501323239E-01               0
GRID*               1379               06.5000000000E+02-1.068440603E+00+
*       -4.660933770E+01               0
GRID*               1380               05.7499999995E+02-2.422262245E+01+
*       -3.996829475E+01               0
GRID*               1381               05.9999999249E+02-4.470494397E+01+
*       -1.105109080E+01               0
GRID*               1382               05.9434967943E+02-4.198827698E+01+
*       -1.089516789E+01               0
GRID*               1383               05.9434967192E+02-4.711911318E+01+
*       -3.886908810E+00               0
GRID*               1384               05.9434967943E+02-4.373015183E+01+
*       1.2276784465E+00               0
GRID*               1385               06.2319884784E+004.3604233200E+01+
*       1.9253283824E+01               0
GRID*               1386               01.8731988056E+014.3618935426E+01+
*       1.9214414723E+01               0
GRID*               1387               01.8731988251E+013.6838150540E+01+
*       2.9073319764E+01               0
GRID*               1388               05.9535503298E+02-4.549766273E+01+
*       1.3463363502E+01               0
GRID*               1389               05.9999998686E+02-4.091121847E+01+
*       -2.239984044E+01               0
GRID*               1390               06.1249998686E+02-4.091121847E+01+
*       -2.239984044E+01               0
GRID*               1391               06.1249999249E+02-4.470494397E+01+
*       -1.105109080E+01               0
GRID*               1392               06.2499998774E+02-4.093345947E+01+
*       -2.236465412E+01               0
GRID*               1393               06.2499999905E+02-4.470833375E+01+
*       -1.100921022E+01               0
GRID*               1394               05.1250001411E+021.0031063394E+00+
*       4.5334706228E+01               0
GRID*               1395               05.2500001411E+021.0031063359E+00+
*       4.5334706230E+01               0
GRID*               1396               05.1250000136E+021.2960707885E+01+
*       4.4916957242E+01               0
GRID*               1397               07.0000000000E+02-1.291734096E+01+
*       -4.314078273E+01               0
GRID*               1398               06.8750000006E+02-2.436650939E+01+
*       -3.988497251E+01               0
GRID*               1399               07.0000000009E+02-2.440239367E+01+
*       -3.986399160E+01               0
GRID*               1400               06.8750000000E+02-1.287624709E+01+
*       -4.314619281E+01               0
GRID*               1401               06.7500000000E+02-1.287624710E+01+
*       -4.314619281E+01               0
GRID*               1402               06.7500000006E+02-2.436650940E+01+
*       -3.988497251E+01               0
GRID*               1403               04.1249999309E+022.3203576568E+01+
*       3.9132511152E+01               0
GRID*               1404               06.3125296653E+02-3.758694865E+01+
*       -2.905688102E+01               0
GRID*               1405               06.4375297882E+02-2.900442049E+01+
*       -3.733553011E+01               0
GRID*               1406               06.6249998876E+02-3.293530662E+01+
*       -3.159201339E+01               0
GRID*               1407               06.6250000003E+02-2.433059005E+01+
*       -3.990589347E+01               0
GRID*               1408               05.3749999567E+024.4484204174E+01+
*       -1.290729629E+01               0
GRID*               1409               05.2499999567E+024.4484204173E+01+
*       -1.290729629E+01               0
GRID*               1410               05.2499999567E+024.6226079013E+01+
*       -7.844499767E-01               0
GRID*               1411               04.0662072483E+022.9157660455E+01+
*       -3.621329467E+01               0
GRID*               1412               04.1912072530E+022.9120307785E+01+
*       -3.623160144E+01               0
GRID*               1413               04.9225460443E+024.1518026659E+01+
*       -2.280704061E+01               0
GRID*               1414               04.2500001507E+02-1.142748165E+01+
*       4.5300067617E+01               0
GRID*               1415               04.3750002681E+02-2.214310052E+01+
*       4.0068489058E+01               0
GRID*               1416               04.3750001506E+02-1.138685090E+01+
*       4.5308830734E+01               0
GRID*               1417               04.3749998462E+02-3.275633528E+01+
*       -3.187259961E+01               0
GRID*               1418               04.3749998462E+02-4.077667650E+01+
*       -2.261000937E+01               0
GRID*               1419               04.4999997324E+02-4.642521724E+01+
*       8.2196682293E-01               0
GRID*               1420               04.2500002551E+02-3.248437001E+01+
*       3.3411250055E+01               0
GRID*               1421               04.2499999246E+02-3.955875021E+01+
*       2.3758184159E+01               0
GRID*               1422               04.3060155363E+02-3.544121847E+01+
*       2.6594662542E+01               0
GRID*               1423               04.3060157914E+02-3.503895864E+01+
*       3.1532773781E+01               0
GRID*               1424               04.3060154610E+02-4.211333885E+01+
*       2.1879707886E+01               0
GRID*               1425               05.0000001436E+02-3.951038923E+01+
*       2.3874758456E+01               0
GRID*               1426               05.0000001437E+02-4.459600304E+01+
*       1.2731360457E+01               0
GRID*               1427               05.0856200906E+02-4.427648733E+01+
*       7.1389285658E+00               0
GRID*               1428               05.0856202342E+02-4.581463289E+01+
*       1.3683946234E+01               0
GRID*               1429               07.9999999905E+02-4.108771963E+01+
*       -2.211703969E+01               0
GRID*               1430               07.9999999905E+02-3.306737836E+01+
*       -3.137962995E+01               0
GRID*               1431               08.1250000155E+02-3.308921707E+01+
*       -3.134406228E+01               0
GRID*               1432               08.1250000155E+02-4.110955834E+01+
*       -2.208147202E+01               0
GRID*               1433               04.0000001493E+02-1.146810817E+01+
*       4.5291235547E+01               0
GRID*               1434               04.1250002551E+02-2.217507548E+01+
*       4.0041791592E+01               0
GRID*               1435               04.1250001507E+02-1.142748164E+01+
*       4.5300067618E+01               0
GRID*               1436               07.8749999651E+02-4.106582007E+01+
*       -2.215257346E+01               0
GRID*               1437               07.8749999651E+02-3.304547880E+01+
*       -3.141516372E+01               0
GRID*               1438               04.7500000824E+02-4.461215594E+01+
*       1.2692603809E+01               0
GRID*               1439               04.6980835813E+02-4.592142658E+01+
*       1.2847548399E+01               0
GRID*               1440               03.7499997789E+024.5117373634E+01+
*       1.1373908162E+01               0
GRID*               1441               02.5000001106E+025.5627918689E-01+
*       4.5236797341E+01               0
GRID*               1442               02.6250001106E+025.5627918287E-01+
*       4.5236797343E+01               0
GRID*               1443               02.4999999996E+021.2519657875E+01+
*       4.5037828240E+01               0
GRID*               1444               02.7500001205E+02-1.167116690E+01+
*       4.5246042299E+01               0
GRID*               1445               02.8336569972E+02-1.846677224E+01+
*       4.0700292775E+01               0
GRID*               1446               02.8336571177E+02-1.786989839E+01+
*       4.4212113168E+01               0
GRID*               1447               02.8336570138E+02-2.856560204E+01+
*       3.8845895511E+01               0
GRID*               1448               06.9457315296E+023.6895309712E+01+
*       2.3590267936E+01               0
GRID*               1449               06.9457315034E+023.7882814308E+01+
*       2.7274771476E+01               0
GRID*               1450               06.9457314919E+024.4214422734E+01+
*       1.7121538576E+01               0
GRID*               1451               03.2500001363E+026.7808121784E-01+
*       4.5264325979E+01               0
GRID*               1452               03.1250001363E+02-1.158995958E+01+
*       4.5264325996E+01               0
GRID*               1453               06.3750002402E+02-3.941285453E+01+
*       2.4105007115E+01               0
GRID*               1454               06.3750002010E+02-3.219595374E+01+
*       3.3648892464E+01               0
GRID*               1455               06.0000001188E+02-1.114297819E+01+
*       4.5359961374E+01               0
GRID*               1456               06.1250002220E+02-2.191879880E+01+
*       4.0253305154E+01               0
GRID*               1457               06.1250002499E+02-3.942920079E+01+
*       2.4066864105E+01               0
GRID*               1458               06.1250002220E+02-3.222809332E+01+
*       3.3622763595E+01               0
GRID*               1459               03.1250001329E+02-2.230291507E+01+
*       3.9934179332E+01               0
GRID*               1460               03.2500001329E+02-2.230291508E+01+
*       3.9934179331E+01               0
GRID*               1461               06.2500002220E+02-2.191879880E+01+
*       4.0253305152E+01               0
GRID*               1462               06.3750002010E+02-2.188665922E+01+
*       4.0279434026E+01               0
GRID*               1463               02.6249999468E+023.3329883666E+01+
*       3.2671250197E+01               0
GRID*               1464               02.7499999422E+023.3360487954E+01+
*       3.2643172292E+01               0
GRID*               1465               02.8749998139E+024.5075861583E+01+
*       1.1491235479E+01               0
GRID*               1466               02.7499998295E+024.5061904684E+01+
*       1.1530273040E+01               0
GRID*               1467               02.8085549611E+024.1555860846E+01+
*       1.2855036410E+01               0
GRID*               1468               05.2500002191E+021.0836784739E+01+
*       -4.427885952E+01               0
GRID*               1469               02.4999999468E+023.3329883669E+01+
*       3.2671250192E+01               0
GRID*               1470               02.4999998468E+023.9962273013E+01+
*       2.2712675725E+01               0
GRID*               1471               02.4350710970E+023.8330315522E+01+
*       2.6771056103E+01               0
GRID*               1472               02.4350709970E+024.4962704866E+01+
*       1.6812481636E+01               0
GRID*               1473               05.0000000000E+02-8.218773868E-01+
*       -4.664179823E+01               0
GRID*               1474               05.0000002260E+021.0874184228E+01+
*       -4.426083173E+01               0
GRID*               1475               05.1250002191E+021.0836784739E+01+
*       -4.427885952E+01               0
GRID*               1476               02.6835657612E+023.6458404864E+01+
*       2.4013190119E+01               0
GRID*               1477               02.5585657612E+023.6458404868E+01+
*       2.4013190114E+01               0
GRID*               1478               02.5585657081E+023.6901658637E+01+
*       2.8211301580E+01               0
GRID*               1479               02.8085549032E+023.6944105117E+01+
*       2.8168467941E+01               0
GRID*               1480               08.2500000011E+02-2.458127869E+01+
*       -3.975819565E+01               0
GRID*               1481               08.1250000011E+02-2.458127869E+01+
*       -3.975819565E+01               0
GRID*               1482               08.1743640184E+02-2.076746420E+01+
*       -4.274616705E+01               0
GRID*               1483               04.6249999324E+022.3264232506E+01+
*       3.9075650163E+01               0
GRID*               1484               04.7499999343E+022.3294495947E+01+
*       3.9047138888E+01               0
GRID*               1485               04.4999999324E+022.3264232510E+01+
*       3.9075650161E+01               0
GRID*               1486               04.7500000101E+021.2880678072E+01+
*       4.4939538511E+01               0
GRID*               1487               04.3749999312E+022.3233925934E+01+
*       3.9104107671E+01               0
GRID*               1488               04.5000000082E+021.2840633429E+01+
*       4.4950729576E+01               0
GRID*               1489               02.6250000000E+02-4.109386934E-01+
*       -4.669589912E+01               0
GRID*               1490               02.5575197753E+02-6.309507337E+00+
*       -4.659251692E+01               0
GRID*               1491               03.7499998145E+02-3.959057742E+01+
*       2.3680565682E+01               0
GRID*               1492               03.6249998145E+02-3.959057742E+01+
*       2.3680565686E+01               0
GRID*               1493               03.6249998145E+02-4.467619125E+01+
*       1.2537167661E+01               0
GRID*               1494               03.5000001755E+02-3.258025058E+01+
*       3.3330670491E+01               0
GRID*               1495               03.6250002094E+02-3.254829418E+01+
*       3.3357614303E+01               0
GRID*               1496               03.7499998145E+02-4.467619125E+01+
*       1.2537167661E+01               0
GRID*               1497               03.8749997228E+02-4.641751614E+01+
*       7.3912542604E-01               0
GRID*               1498               03.8749998619E+02-4.466032986E+01+
*       1.2575940873E+01               0
GRID*               1499               02.1249998482E+02-4.464223905E+01+
*       -1.171370037E+01               0
GRID*               1500               02.9999997312E+024.4539650859E+01+
*       -1.253576384E+01               0
GRID*               1501               02.9999998559E+024.0074606106E+01+
*       -2.363798761E+01               0
GRID*               1502               08.2500000000E+02-1.312281030E+01+
*       -4.311373229E+01               0
GRID*               1503               01.7499998273E+02-3.971413305E+01+
*       2.3371949501E+01               0
GRID*               1504               01.6861054348E+025.2935490095E+00+
*       4.3386127363E+01               0
GRID*               1505               01.5611054348E+02-6.974491795E+00+
*       4.3386127397E+01               0
GRID*               1506               02.1249999990E+021.2439243843E+01+
*       4.5058926854E+01               0
GRID*               1507               02.2500000993E+025.1569047338E-01+
*       4.5227483687E+01               0
GRID*               1508               02.2499999993E+021.2479459579E+01+
*       4.5048411153E+01               0
GRID*               1509               01.9227878428E+021.8302893010E+01+
*       4.0593163545E+01               0
GRID*               1510               01.7977878428E+021.8302893014E+01+
*       4.0593163543E+01               0
GRID*               1511               01.7977878415E+021.8433863288E+01+
*       4.3928316973E+01               0
GRID*               1512               01.5000000556E+02-1.187408953E+01+
*       4.5199129256E+01               0
GRID*               1513               04.6250000000E+02-7.396896482E-01+
*       -4.665261841E+01               0
GRID*               1514               04.5000000000E+02-7.396896482E-01+
*       -4.665261841E+01               0
GRID*               1515               04.6250002302E+021.0911570679E+01+
*       -4.424273474E+01               0
GRID*               1516               07.4999995972E+014.6331038310E+01+
*       -4.369343713E-02               0
GRID*               1517               07.4999997448E+014.4947960134E+01+
*       1.1841617638E+01               0
GRID*               1518               08.7499995919E+014.4962438431E+01+
*       1.1802761954E+01               0
GRID*               1519               08.7499993453E+014.6325809782E+01+
*       -8.475754469E-02               0
GRID*               1520               01.2499999431E+014.4599429953E+01+
*       -1.208427518E+01               0
GRID*               1521               01.2499999431E+014.6341304795E+01+
*       3.8571145545E-02               0
GRID*               1522               09.9999995919E+014.4962438431E+01+
*       1.1802761954E+01               0
GRID*               1523               01.2003376212E+024.1916780152E+01+
*       1.3017497131E+01               0
GRID*               1524               01.0753376212E+024.1916780152E+01+
*       1.3017497131E+01               0
GRID*               1525               01.0753376212E+023.6831166386E+01+
*       2.4160895075E+01               0
GRID*               1526               07.4999994513E+013.2270248799E+01+
*       -3.259589312E+01               0
GRID*               1527               07.4999995120E+012.3274509189E+01+
*       -4.048611436E+01               0
GRID*               1528               02.4999999431E+014.4599429942E+01+
*       -1.208427520E+01               0
GRID*               1529               02.8749997510E+02-4.473866510E+01+
*       1.2382619860E+01               0
GRID*               1530               02.8749997510E+02-3.965305127E+01+
*       2.3526017892E+01               0
GRID*               1531               02.7499997510E+02-4.473866510E+01+
*       1.2382619860E+01               0
GRID*               1532               03.0000001717E+021.1172989376E+01+
*       -4.411408590E+01               0
GRID*               1533               02.8750001717E+022.2939702009E+01+
*       -4.065635109E+01               0
GRID*               1534               02.8750000000E+02-4.520325628E-01+
*       -4.669048903E+01               0
GRID*               1535               02.8750001717E+021.1172989376E+01+
*       -4.411408590E+01               0
GRID*               1536               01.2499999578E+014.4918783291E+01+
*       1.1919320490E+01               0
GRID*               1537               01.6861054348E+02-6.974491797E+00+
*       4.3386127396E+01               0
GRID*               1538               01.6861055068E+02-6.539963421E+00+
*       4.6860555397E+01               0
GRID*               1539               06.2319884784E+004.1758009608E+01+
*       1.3481437020E+01               0
GRID*               1540               03.1250001909E+021.1135666599E+01+
*       -4.413267865E+01               0
GRID*               1541               05.4999998552E+02-3.284623790E+01+
*       -3.173266875E+01               0
GRID*               1542               05.5570902621E+02-2.630914542E+01+
*       -3.548546599E+01               0
GRID*               1543               05.5570901173E+02-3.562195802E+01+
*       -3.063360437E+01               0
GRID*               1544               05.5570902605E+02-2.696227863E+01+
*       -3.888991242E+01               0
GRID*               1545               05.4999998552E+02-4.086657914E+01+
*       -2.247007850E+01               0
GRID*               1546               05.5714959369E+02-2.831816253E+01+
*       -3.307159228E+01               0
GRID*               1547               05.5714959369E+02-3.633850378E+01+
*       -2.380900204E+01               0
GRID*               1548               05.5714957921E+02-3.763097514E+01+
*       -2.821973067E+01               0
GRID*               1549               05.6249999984E+02-2.418655850E+01+
*       -3.998897680E+01               0
GRID*               1550               08.8750000000E+024.5392712951E+01+
*       1.0544048797E+01               0
GRID*               1551               08.7500000092E+024.5380311831E+01+
*       1.0583645049E+01               0
GRID*               1552               02.8749999826E+02-2.378758168E+01+
*       -4.021249787E+01               0
GRID*               1553               02.8749999826E+02-1.202086898E+01+
*       -4.367023273E+01               0
GRID*               1554               02.9999999827E+02-2.382401230E+01+
*       -4.019248446E+01               0
GRID*               1555               02.7500001481E+022.2977022442E+01+
*       -4.063768471E+01               0
GRID*               1556               08.5000000285E+024.5367869311E+01+
*       1.0623168432E+01               0
GRID*               1557               08.3750000285E+024.5367869311E+01+
*       1.0623168432E+01               0
GRID*               1558               05.6227156621E+01-2.934502891E+01+
*       -3.352896285E+01               0
GRID*               1559               05.6227155675E+01-3.819983068E+01+
*       -2.936971731E+01               0
GRID*               1560               08.2499999950E+023.4022633769E+01+
*       3.2012036401E+01               0
GRID*               1561               08.2018249222E+023.6018014837E+01+
*       2.5845297503E+01               0
GRID*               1562               08.2018249172E+023.7154018834E+01+
*       2.9384194999E+01               0
GRID*               1563               08.2018249714E+024.3401136384E+01+
*       1.9178217154E+01               0
GRID*               1564               08.2500000492E+024.5355365169E+01+
*       1.0662660502E+01               0
GRID*               1565               08.1250000492E+024.5355365169E+01+
*       1.0662660502E+01               0
GRID*               1566               06.1415301818E+01-3.143812087E+01+
*       -3.352186203E+01               0
GRID*               1567               07.7500001097E+02-3.933038838E+01+
*       2.4294795067E+01               0
GRID*               1568               01.1249998834E+023.2222819521E+01+
*       -3.266365412E+01               0
GRID*               1569               01.2499998834E+023.2222819523E+01+
*       -3.266365412E+01               0
GRID*               1570               01.3749998544E+023.2199013598E+01+
*       -3.269748379E+01               0
GRID*               1571               01.4999998544E+023.2199013600E+01+
*       -3.269748378E+01               0
GRID*               1572               01.3749998544E+024.0219354870E+01+
*       -2.343489353E+01               0
GRID*               1573               02.3750001193E+022.3014344514E+01+
*       -4.061894306E+01               0
GRID*               1574               04.7500000824E+02-3.952654213E+01+
*       2.3836001812E+01               0
GRID*               1575               04.8750001437E+02-4.459600304E+01+
*       1.2731360457E+01               0
GRID*               1576               04.9381336283E+02-4.442638274E+01+
*       6.2809473845E+00               0
GRID*               1577               04.9381337719E+02-4.596452831E+01+
*       1.2825965053E+01               0
GRID*               1578               04.8131336283E+02-4.442638274E+01+
*       6.2809473848E+00               0
GRID*               1579               02.9999997313E+024.6281525706E+01+
*       -4.129175104E-01               0
GRID*               1580               03.1249997220E+024.6275668541E+01+
*       -4.540048669E-01               0
GRID*               1581               02.6249997462E+024.6287309462E+01+
*       -3.718597878E-01               0
GRID*               1582               04.0000001177E+023.1955549250E+01+
*       -3.303659841E+01               0
GRID*               1583               02.9999999382E+022.3081754889E+01+
*       3.9245581951E+01               0
GRID*               1584               03.2500000003E+021.2640144106E+01+
*       4.5005676244E+01               0
GRID*               1585               03.3750001421E+027.1869332100E-01+
*       4.5273364676E+01               0
GRID*               1586               03.5000001421E+027.1869331696E-01+
*       4.5273364678E+01               0
GRID*               1587               03.1249998001E+024.5089758273E+01+
*       1.1452163193E+01               0
GRID*               1588               02.9999998139E+024.5075861582E+01+
*       1.1491235480E+01               0
GRID*               1589               03.0585441930E+024.1567684230E+01+
*       1.2840271577E+01               0
GRID*               1590               03.1835439930E+024.3599585031E+01+
*       1.8106091983E+01               0
GRID*               1591               02.3749997770E+02-4.476936608E+01+
*       1.2305559350E+01               0
GRID*               1592               02.3749998233E+02-4.638852100E+01+
*       4.5030648143E-01               0
GRID*               1593               02.4999998000E+02-4.639286089E+01+
*       4.9148427871E-01               0
GRID*               1594               02.6249998000E+02-4.465098605E+01+
*       -1.163136203E+01               0
GRID*               1595               02.6249998000E+02-4.639286089E+01+
*       4.9148427851E-01               0
GRID*               1596               02.4999998000E+02-4.465098605E+01+
*       -1.163136202E+01               0
GRID*               1597               02.6249997602E+02-4.475405744E+01+
*       1.2344078603E+01               0
GRID*               1598               02.4999997602E+02-4.475405744E+01+
*       1.2344078603E+01               0
GRID*               1599               02.7499998879E+02-4.061735705E+01+
*       -2.285312325E+01               0
GRID*               1600               01.2499998834E+024.0243160795E+01+
*       -2.340106386E+01               0
GRID*               1601               01.2499999063E+024.4578640889E+01+
*       -1.224863764E+01               0
GRID*               1602               01.3749998764E+024.4573280014E+01+
*       -1.228965108E+01               0
GRID*               1603               01.3349917702E+024.7549386281E+01+
*       -1.500294531E+00               0
GRID*               1604               01.4599917872E+024.6220055890E+01+
*       1.0350513314E+01               0
GRID*               1605               03.2499998001E+024.5089758273E+01+
*       1.1452163193E+01               0
GRID*               1606               03.3749998001E+024.5089758273E+01+
*       1.1452163194E+01               0
GRID*               1607               03.3749997220E+024.6275668541E+01+
*       -4.540048663E-01               0
GRID*               1608               03.2499997220E+024.6275668541E+01+
*       -4.540048666E-01               0
GRID*               1609               01.6249998463E+024.4567851105E+01+
*       -1.233065332E+01               0
GRID*               1610               01.4999998764E+024.4573280015E+01+
*       -1.228965108E+01               0
GRID*               1611               01.6836426212E+024.6687558124E+01+
*       -4.801424343E+00               0
GRID*               1612               01.5586426513E+024.6692987034E+01+
*       -4.760422097E+00               0
GRID*               1613               01.7499998463E+024.6309725956E+01+
*       -2.078069826E-01               0
GRID*               1614               01.7499998463E+024.4567851105E+01+
*       -1.233065332E+01               0
GRID*               1615               01.6836427748E+024.3435689641E+01+
*       1.5927254236E+00               0
GRID*               1616               01.6836427748E+024.1693814790E+01+
*       -1.053012092E+01               0
GRID*               1617               08.7500001207E+01-1.195526755E+01+
*       4.5179876297E+01               0
GRID*               1618               09.9999991632E+01-2.258761414E+01+
*       3.9689226148E+01               0
GRID*               1619               01.0000000121E+02-1.195526756E+01+
*       4.5179876297E+01               0
GRID*               1620               07.4999998643E+012.7218188255E-01+
*       4.5170145202E+01               0
GRID*               1621               08.7500001208E+013.1277326002E-01+
*       4.5179876256E+01               0
GRID*               1622               04.2500000000E+02-6.985957788E-01+
*       -4.665802850E+01               0
GRID*               1623               04.1250000000E+02-6.575019095E-01+
*       -4.666343859E+01               0
GRID*               1624               04.9999999934E+011.2197600550E+01+
*       4.5120607310E+01               0
GRID*               1625               04.9999999397E+012.2774122122E+01+
*       3.9524540734E+01               0
GRID*               1626               06.2499999903E+011.2237915693E+01+
*       4.5110495572E+01               0
GRID*               1627               06.2499998643E+012.7218188514E-01+
*       4.5170145201E+01               0
GRID*               1628               06.2499998642E+01-1.199585893E+01+
*       4.5170145244E+01               0
GRID*               1629               01.3750000362E+02-1.191467056E+01+
*       4.5189538580E+01               0
GRID*               1630               01.4999998761E+02-2.252514640E+01+
*       3.9743655372E+01               0
GRID*               1631               02.6249997602E+02-3.966844361E+01+
*       2.3487476639E+01               0
GRID*               1632               02.4999997602E+02-3.966844361E+01+
*       2.3487476643E+01               0
GRID*               1633               02.4354875761E+02-4.321310633E+01+
*       1.9846970931E+01               0
GRID*               1634               02.4354877660E+02-3.625278334E+01+
*       2.9581486814E+01               0
GRID*               1635               02.3749999501E+02-3.270812061E+01+
*       3.3221992529E+01               0
GRID*               1636               02.7499997510E+02-3.965305127E+01+
*       2.3526017896E+01               0
GRID*               1637               03.8749997789E+024.0031759826E+01+
*       2.2517306161E+01               0
GRID*               1638               03.2499998692E+02-4.066313719E+01+
*       -2.278388893E+01               0
GRID*               1639               04.3749999312E+023.3543220458E+01+
*       3.2473566131E+01               0
GRID*               1640               03.5643463300E+02-4.453783623E+01+
*       5.4273232324E+00               0
GRID*               1641               03.5643461111E+02-4.617193077E+01+
*       1.1739437716E+01               0
GRID*               1642               03.5643460632E+02-4.788953720E+01+
*       -1.025727045E-01               0
GRID*               1643               03.4999997810E+02-3.960633819E+01+
*       2.3641855301E+01               0
GRID*               1644               01.1250000000E+02-1.643754774E-01+
*       -4.672835965E+01               0
GRID*               1645               04.6249998462E+02-4.077667650E+01+
*       -2.261000938E+01               0
GRID*               1646               04.4999998462E+02-4.077667650E+01+
*       -2.261000937E+01               0
GRID*               1647               05.7500001018E+024.4471047769E+01+
*       -1.299039323E+01               0
GRID*               1648               05.7500001018E+024.6212922608E+01+
*       -8.675469199E-01               0
GRID*               1649               04.3749997249E+02-4.642139858E+01+
*       7.8052432939E-01               0
GRID*               1650               04.3749997249E+02-4.467952374E+01+
*       -1.134232199E+01               0
GRID*               1651               04.8749999343E+022.3294495943E+01+
*       3.9047138889E+01               0
GRID*               1652               06.0000002701E+023.9777353052E+01+
*       -2.404205708E+01               0
GRID*               1653               05.9391952000E+023.6415059870E+01+
*       -2.447942793E+01               0
GRID*               1654               05.2500001411E+02-1.126493446E+01+
*       4.5334706220E+01               0
GRID*               1655               05.3750001350E+02-1.122428728E+01+
*       4.5343193468E+01               0
GRID*               1656               05.3750001350E+021.0437535196E+00+
*       4.5343193478E+01               0
GRID*               1657               05.1250001411E+02-1.126493446E+01+
*       4.5334706221E+01               0
GRID*               1658               06.2500001089E+021.1657259218E+00+
*       4.5368242240E+01               0
GRID*               1659               05.6961167557E+021.8069789276E+01+
*       -3.991749370E+01               0
GRID*               1660               06.8272831560E+024.4000822234E+01+
*       -1.639969885E+01               0
GRID*               1661               06.8272831715E+023.9259203512E+01+
*       -2.738584629E+01               0
GRID*               1662               06.9522831472E+024.3993943001E+01+
*       -1.644063004E+01               0
GRID*               1663               07.3750001024E+02-3.206703812E+01+
*       3.3752813477E+01               0
GRID*               1664               06.9522829600E+023.9130835327E+01+
*       -2.130393399E+01               0
GRID*               1665               06.9522831446E+023.9234165015E+01+
*       -2.741879180E+01               0
GRID*               1666               08.0000000640E+024.5342779872E+01+
*       1.0702168416E+01               0
GRID*               1667               07.6250001153E+024.6158085412E+01+
*       -1.195614466E+00               0
GRID*               1668               07.2500001724E+02-3.936353744E+01+
*       2.4219027574E+01               0
GRID*               1669               07.3310232271E+02-4.132309329E+01+
*       1.4532143500E+01               0
GRID*               1670               07.3310232271E+02-3.623747952E+01+
*       2.5675541456E+01               0
GRID*               1671               07.3310233995E+02-4.271438704E+01+
*       2.1421430334E+01               0
GRID*               1672               07.3750001306E+02-4.472109487E+01+
*       -1.084246969E+01               0
GRID*               1673               07.3750001306E+02-4.646296972E+01+
*       1.2803766538E+00               0
GRID*               1674               07.2500001306E+02-4.472109487E+01+
*       -1.084246968E+01               0
GRID*               1675               08.7500000066E+023.9500573747E+01+
*       -2.440373417E+01               0
GRID*               1676               07.3750001724E+02-4.444915122E+01+
*       1.3075629618E+01               0
GRID*               1677               07.7500001097E+02-4.441600215E+01+
*       1.3151397119E+01               0
GRID*               1678               07.8750000781E+02-4.439933283E+01+
*       1.3189239586E+01               0
GRID*               1679               08.1250000491E+02-3.929697955E+01+
*       2.4370469375E+01               0
GRID*               1680               08.0856554542E+02-4.416488409E+01+
*       7.5395937150E+00               0
GRID*               1681               08.2500000551E+02-4.647443557E+01+
*       1.4457261595E+00               0
GRID*               1682               08.2500000491E+02-4.438259332E+01+
*       1.3227071431E+01               0
GRID*               1683               08.2106554542E+02-4.416488409E+01+
*       7.5395937148E+00               0
GRID*               1684               08.2106555092E+02-4.758146218E+01+
*       2.7989770924E+00               0
GRID*               1685               08.2106555033E+02-4.548961994E+01+
*       1.4580322364E+01               0
GRID*               1686               01.6249999903E+022.3126396188E+01+
*       -4.056223516E+01               0
GRID*               1687               01.0000000000E+02-1.643754774E-01+
*       -4.672835965E+01               0
GRID*               1688               08.1250000826E+02-4.647168017E+01+
*       1.4044404311E+00               0
GRID*               1689               08.0856555368E+02-4.757870678E+01+
*       2.7576913640E+00               0
GRID*               1690               06.0000001188E+021.1250626131E+00+
*       4.5359961393E+01               0
GRID*               1691               01.2499999966E+011.2157268286E+01+
*       4.5130651806E+01               0
GRID*               1692               01.2499999966E+01-1.107726420E-01+
*       4.5130651806E+01               0
GRID*               1693               01.2499999773E+012.2743090133E+01+
*       3.9552165066E+01               0
GRID*               1694               07.2500000000E+02-1.295843483E+01+
*       -4.313537264E+01               0
GRID*               1695               07.1250000000E+02-1.291734096E+01+
*       -4.314078273E+01               0
GRID*               1696               07.1250000009E+02-2.440239367E+01+
*       -3.986399160E+01               0
GRID*               1697               07.0000000000E+02-1.150628342E+00+
*       -4.659851752E+01               0
GRID*               1698               06.8750000000E+02-1.109534472E+00+
*       -4.660392761E+01               0
GRID*               1699               05.9999999532E+023.3754444050E+01+
*       3.2273247243E+01               0
GRID*               1700               08.8750000000E+02-2.468818906E+01+
*       -3.969400032E+01               0
GRID*               1701               08.4309455169E+022.6649181950E+01+
*       -3.532088031E+01               0
GRID*               1702               08.4309455383E+023.4621467294E+01+
*       -3.236994830E+01               0
GRID*               1703               08.4309455299E+022.5231095089E+01+
*       -3.978586236E+01               0
GRID*               1704               08.6848092796E+024.0106240088E+01+
*       -1.971222702E+01               0
GRID*               1705               08.6848092863E+024.0032706023E+01+
*       -2.605661142E+01               0
GRID*               1706               08.6848092796E+023.2085898937E+01+
*       -2.897481722E+01               0
GRID*               1707               08.2500000551E+02-4.473256071E+01+
*       -1.067712018E+01               0
GRID*               1708               08.3157844854E+02-4.177523274E+01+
*       -1.398905649E+01               0
GRID*               1709               08.3157844854E+02-4.351710760E+01+
*       -1.866210150E+00               0
GRID*               1710               05.3749998507E+02-3.282383994E+01+
*       -3.176772001E+01               0
GRID*               1711               08.3750000287E+02-4.647712318E+01+
*       1.4870249814E+00               0
GRID*               1712               08.7500000000E+01-1.643754774E-01+
*       -4.672835965E+01               0
GRID*               1713               07.0608114410E+02-4.386520732E+01+
*       -9.319606764E-01               0
GRID*               1714               07.1858115716E+02-4.727031956E+01+
*       -5.837926807E+00               0
GRID*               1715               07.0608115643E+02-4.726725741E+01+
*       -5.879430621E+00               0
GRID*               1716               07.5709735330E+02-4.710796066E+01+
*       -5.458780996E+00               0
GRID*               1717               07.6959735158E+02-4.711086309E+01+
*       -5.417434389E+00               0
GRID*               1718               07.6959733740E+02-4.344970500E+01+
*       -1.681029916E+01               0
GRID*               1719               06.2500001089E+02-1.110231488E+01+
*       4.5368242218E+01               0
GRID*               1720               01.2500000000E+01-4.109386934E-02+
*       -4.674458991E+01               0
GRID*               1721               01.9060014422E+016.3058163068E+00+
*       -4.358848822E+01               0
GRID*               1722               06.8749999686E+023.3844283879E+01+
*       3.2186618620E+01               0
GRID*               1723               06.8207314982E+023.7852963804E+01+
*       2.7303747670E+01               0
GRID*               1724               06.8749999686E+022.3534989352E+01+
*       3.8817160133E+01               0
GRID*               1725               07.0000000145E+021.3240137446E+01+
*       4.4835852661E+01               0
GRID*               1726               06.9999999738E+022.3564839857E+01+
*       3.8788183939E+01               0
GRID*               1727               05.8750002793E+023.9802244730E+01+
*       -2.400885010E+01               0
GRID*               1728               05.8141954793E+023.6643196803E+01+
*       -3.042892820E+01               0
GRID*               1729               05.6249998612E+02-4.088892497E+01+
*       -2.243498197E+01               0
GRID*               1730               05.7499998612E+02-4.088892497E+01+
*       -2.243498198E+01               0
GRID*               1731               05.6998973226E+02-4.200816458E+01+
*       -1.394359177E+01               0
GRID*               1732               05.5748973226E+02-4.200816458E+01+
*       -1.394359177E+01               0
GRID*               1733               05.6998971837E+02-4.332298177E+01+
*       -1.831922387E+01               0
GRID*               1734               06.3013052643E+02-4.754902701E+01+
*       -5.472399514E+00               0
GRID*               1735               06.4263053295E+02-4.755234763E+01+
*       -5.430516326E+00               0
GRID*               1736               06.4263051615E+02-4.379634114E+01+
*       -1.679261243E+01               0
GRID*               1737               05.9535500789E+02-4.402439993E+01+
*       6.7644653037E+00               0
GRID*               1738               05.8970468731E+02-4.469669429E+01+
*       1.8058009634E+00               0
GRID*               1739               06.2500002499E+02-4.451481458E+01+
*       1.2923466125E+01               0
GRID*               1740               06.3750000556E+02-4.645352922E+01+
*       1.1555193050E+00               0
GRID*               1741               06.3750002402E+02-4.449846832E+01+
*       1.2961609140E+01               0
GRID*               1742               06.0000002509E+02-3.944550648E+01+
*       2.4028638965E+01               0
GRID*               1743               06.0683165726E+02-3.846647480E+01+
*       1.9820027261E+01               0
GRID*               1744               06.1933168225E+02-4.500904570E+01+
*       1.5413752620E+01               0
GRID*               1745               06.1933165630E+02-4.694443972E+01+
*       3.6039226124E+00               0
GRID*               1746               06.1250001485E+024.6206265606E+01+
*       -9.089019784E-01               0
GRID*               1747               06.2499998529E+024.5252011431E+01+
*       1.0980130710E+01               0
GRID*               1748               06.1092265441E+02-3.596435088E+01+
*       2.5435098702E+01               0
GRID*               1749               05.5000002670E+02-2.201505325E+01+
*       4.0174523412E+01               0
GRID*               1750               05.9543032633E+02-3.597432055E+01+
*       2.8972436487E+01               0
GRID*               1751               05.3750002778E+023.9851947055E+01+
*       -2.394220211E+01               0
GRID*               1752               05.5000000367E+024.4477653324E+01+
*       -1.294890098E+01               0
GRID*               1753               04.6843566041E+023.5052352126E+01+
*       -2.583586332E+01               0
GRID*               1754               04.6843568482E+023.5379807464E+01+
*       -3.165172719E+01               0
GRID*               1755               04.6843566041E+022.7032010906E+01+
*       -3.509845355E+01               0
GRID*               1756               04.8749998462E+02-3.277888846E+01+
*       -3.183768566E+01               0
GRID*               1757               04.7499999930E+02-2.407814718E+01+
*       -4.005066628E+01               0
GRID*               1758               04.7499998462E+02-3.277888847E+01+
*       -3.183768565E+01               0
GRID*               1759               04.6250001490E+029.2182468208E-01+
*       4.5317524875E+01               0
GRID*               1760               04.6250000101E+021.2880678076E+01+
*       4.4939538510E+01               0
GRID*               1761               04.0000001494E+027.9993262487E-01+
*       4.5291235540E+01               0
GRID*               1762               03.8750001493E+02-1.146810817E+01+
*       4.5291235549E+01               0
GRID*               1763               04.2499999312E+023.3543220461E+01+
*       3.2473566127E+01               0
GRID*               1764               04.2499999312E+022.3233925938E+01+
*       3.9104107669E+01               0
GRID*               1765               04.3750000082E+021.2840633432E+01+
*       4.4950729574E+01               0
GRID*               1766               04.2500000062E+021.2800569907E+01+
*       4.4961853868E+01               0
GRID*               1767               04.3750001506E+028.8118989188E-01+
*       4.5308830731E+01               0
GRID*               1768               04.0000002357E+02-2.220704079E+01+
*       4.0015014671E+01               0
GRID*               1769               03.7499997257E+02-4.467169472E+01+
*       -1.142507910E+01               0
GRID*               1770               03.8018983347E+02-4.181004881E+01+
*       -1.405532328E+01               0
GRID*               1771               03.8018980604E+02-4.690763574E+01+
*       -7.421052548E+00               0
GRID*               1772               03.8018981903E+02-4.294464895E+01+
*       -1.871044815E+01               0
GRID*               1773               03.6893463300E+02-4.453783623E+01+
*       5.4273232321E+00               0
GRID*               1774               03.6893461445E+02-4.615617000E+01+
*       1.1778148101E+01               0
GRID*               1775               03.7578985356E+02-4.290153785E+01+
*       -8.818114904E+00               0
GRID*               1776               03.7578982614E+02-4.799912477E+01+
*       -2.183844171E+00               0
GRID*               1777               03.8097968703E+02-4.513747887E+01+
*       -4.814088348E+00               0
GRID*               1778               03.9999998510E+02-4.073141563E+01+
*       -2.267969899E+01               0
GRID*               1779               03.9999997228E+02-4.467564130E+01+
*       -1.138372089E+01               0
GRID*               1780               03.9268983347E+02-4.181004881E+01+
*       -1.405532328E+01               0
GRID*               1781               03.9268981856E+02-4.296735665E+01+
*       -1.867567244E+01               0
GRID*               1782               03.9268980575E+02-4.691158232E+01+
*       -7.379694332E+00               0
GRID*               1783               04.2500002551E+02-2.217507548E+01+
*       4.0041791591E+01               0
GRID*               1784               05.8184966654E+02-4.711566529E+01+
*       -3.928702745E+00               0
GRID*               1785               05.9434966629E+02-4.332538768E+01+
*       -1.523565845E+01               0
GRID*               1786               05.7499998712E+02-4.470149609E+01+
*       -1.109288473E+01               0
GRID*               1787               05.8749998686E+02-4.091121847E+01+
*       -2.239984044E+01               0
GRID*               1788               05.8184967943E+02-4.198827698E+01+
*       -1.089516788E+01               0
GRID*               1789               02.4999997662E+024.6293020550E+01+
*       -3.308260680E-01               0
GRID*               1790               05.7499998712E+02-4.644337094E+01+
*       1.0299615959E+00               0
GRID*               1791               05.8184967943E+02-4.373015183E+01+
*       1.2276784468E+00               0
GRID*               1792               01.8750000421E+022.3089021126E+01+
*       -4.058122253E+01               0
GRID*               1793               03.4999999841E+02-1.213006873E+01+
*       -4.361000687E+01               0
GRID*               1794               03.4999999841E+02-2.389678142E+01+
*       -4.015227201E+01               0
GRID*               1795               02.9586569972E+02-1.846677224E+01+
*       4.0700292774E+01               0
GRID*               1796               02.8336569972E+02-2.877606676E+01+
*       3.4069751255E+01               0
GRID*               1797               02.1250000865E+02-1.179293351E+01+
*       4.5218101283E+01               0
GRID*               1798               02.1250000865E+024.7510729685E-01+
*       4.5218101255E+01               0
GRID*               1799               02.0000000865E+02-1.179293350E+01+
*       4.5218101284E+01               0
GRID*               1800               02.0000000865E+024.7510730078E-01+
*       4.5218101253E+01               0
GRID*               1801               01.9999999990E+021.2439243846E+01+
*       4.5058926853E+01               0
GRID*               1802               02.9586569972E+02-2.877606676E+01+
*       3.4069751251E+01               0
GRID*               1803               02.9586571263E+02-1.782929764E+01+
*       4.4221289388E+01               0
GRID*               1804               02.9586570778E+02-2.853361497E+01+
*       3.8873123449E+01               0
GRID*               1805               08.9328182818E+021.6976794255E+01+
*       -4.415121569E+01               0
GRID*               1806               08.8078182860E+021.7014665632E+01+
*       -4.413410592E+01               0
GRID*               1807               02.8750001291E+02-1.163056616E+01+
*       4.5255218518E+01               0
GRID*               1808               02.1249998843E+024.5019664340E+01+
*       1.1647197651E+01               0
GRID*               1809               02.1249998843E+023.9934050557E+01+
*       2.2790595617E+01               0
GRID*               1810               02.2499998651E+023.9948193245E+01+
*       2.2751649762E+01               0
GRID*               1811               08.9328182818E+026.7038451657E+00+
*       -4.310970711E+01               0
GRID*               1812               06.5629139357E+022.6949706449E+01+
*       -3.439424325E+01               0
GRID*               1813               06.6879140693E+022.5795037351E+01+
*       -3.873758056E+01               0
GRID*               1814               06.5629140875E+022.5832543289E+01+
*       -3.871995622E+01               0
GRID*               1815               01.8750000421E+021.1322308508E+01+
*       -4.403895733E+01               0
GRID*               1816               06.2319884784E+003.6672395796E+01+
*       2.4624835035E+01               0
GRID*               1817               03.7499998696E+014.4933409202E+01+
*       1.1880468596E+01               0
GRID*               1818               04.9999998696E+014.4933409202E+01+
*       1.1880468596E+01               0
GRID*               1819               04.9999998023E+014.6336202781E+01+
*       -2.587928400E-03               0
GRID*               1820               03.7499998023E+014.6336202781E+01+
*       -2.587928538E-03               0
GRID*               1821               02.4999999431E+014.6341304795E+01+
*       3.8571142692E-02               0
GRID*               1822               02.2500000845E+021.1284961650E+01+
*       -4.405785843E+01               0
GRID*               1823               08.9328182818E+021.8470557857E+01+
*       -3.965197227E+01               0
GRID*               1824               01.2499999771E+022.2866903659E+01+
*       3.9441387873E+01               0
GRID*               1825               01.2499999773E+013.3052384594E+01+
*       3.2921623546E+01               0
GRID*               1826               08.7499991632E+01-3.289690867E+01+
*       3.3058684642E+01               0
GRID*               1827               01.1250000362E+02-1.191467056E+01+
*       4.5189538582E+01               0
GRID*               1828               01.2500000362E+02-1.191467056E+01+
*       4.5189538581E+01               0
GRID*               1829               08.6794617695E+02-5.652077758E+00+
*       4.7122925732E+01               0
GRID*               1830               07.2500000953E+021.0536954940E+01+
*       -4.442065915E+01               0
GRID*               1831               07.2500000952E+022.2303667673E+01+
*       -4.096292426E+01               0
GRID*               1832               07.3750000761E+021.0499366212E+01+
*       -4.443809400E+01               0
GRID*               1833               07.3750000761E+022.2266078945E+01+
*       -4.098035912E+01               0
GRID*               1834               01.9999998793E+02-3.277155633E+01+
*       3.3167515483E+01               0
GRID*               1835               02.0607114185E+02-3.762891332E+01+
*       2.1873703272E+01               0
GRID*               1836               02.0607112978E+02-3.751383986E+01+
*       2.6568079870E+01               0
GRID*               1837               02.0607112183E+02-4.444126431E+01+
*       1.6811015828E+01               0
GRID*               1838               02.1249998793E+02-3.277155633E+01+
*       3.3167515480E+01               0
GRID*               1839               02.1857114185E+02-3.762891332E+01+
*       2.1873703269E+01               0
GRID*               1840               02.1857111955E+02-4.442603577E+01+
*       1.6849521782E+01               0
GRID*               1841               02.1249998793E+02-2.246226180E+01+
*       3.9798056995E+01               0
GRID*               1842               02.2499999049E+02-2.243062037E+01+
*       3.9825280308E+01               0
GRID*               1843               02.8749997602E+02-4.640134112E+01+
*       5.7390812845E-01               0
GRID*               1844               03.1733090017E+02-4.468803417E+01+
*       3.4066626853E-01               0
GRID*               1845               03.1249997449E+02-4.640548243E+01+
*       6.1516149413E-01               0
GRID*               1846               03.8749998556E+02-4.070870792E+01+
*       -2.271447471E+01               0
GRID*               1847               04.1249997228E+02-4.467564130E+01+
*       -1.138372089E+01               0
GRID*               1848               07.3750000000E+02-1.232816080E+00+
*       -4.658769735E+01               0
GRID*               1849               04.1249997228E+02-4.641751614E+01+
*       7.3912542552E-01               0
GRID*               1850               05.6250002098E+022.2566083880E+01+
*       -4.083908369E+01               0
GRID*               1851               05.1250002191E+022.2603497419E+01+
*       -4.082112468E+01               0
GRID*               1852               05.2500000000E+02-8.629712562E-01+
*       -4.663638814E+01               0
GRID*               1853               07.4560233295E+02-3.541788772E+01+
*       3.0955216236E+01               0
GRID*               1854               01.2500000001E+01-4.460447608E+01+
*       -1.204305284E+01               0
GRID*               1855               01.2500000000E+01-4.634635091E+01+
*       7.9793446884E-02               0
GRID*               1856               06.1250001484E+024.4464390769E+01+
*       -1.303174828E+01               0
GRID*               1857               06.1906265261E+024.0779041626E+01+
*       -1.865302070E+01               0
GRID*               1858               06.0656266746E+024.5669324596E+01+
*       -1.362541916E+01               0
GRID*               1859               06.1906267046E+024.5662614504E+01+
*       -1.366664951E+01               0
GRID*               1860               06.3750001688E+022.2453745999E+01+
*       -4.089255350E+01               0
GRID*               1861               08.0768249140E+023.7124421741E+01+
*       2.9413411063E+01               0
GRID*               1862               08.0768249862E+024.3388551087E+01+
*       1.9217725069E+01               0
GRID*               1863               08.5000000285E+024.0282255460E+01+
*       2.1766566488E+01               0
GRID*               1864               04.1249999871E+02-1.220271269E+01+
*       -4.356954790E+01               0
GRID*               1865               07.3749999275E+02-4.102189994E+01+
*       -2.222345910E+01               0
GRID*               1866               07.4999999447E+02-4.104388288E+01+
*       -2.218804307E+01               0
GRID*               1867               04.4999998462E+02-3.275633527E+01+
*       -3.187259961E+01               0
GRID*               1868               04.2499999889E+02-2.400569916E+01+
*       -4.009149164E+01               0
GRID*               1869               04.3749999909E+02-2.404194001E+01+
*       -4.007110928E+01               0
GRID*               1870               08.7500000079E+024.4387261901E+01+
*       -1.348144539E+01               0
GRID*               1871               08.8078182817E+021.8470557921E+01+
*       -3.965197220E+01               0
GRID*               1872               07.3749999275E+02-3.300155867E+01+
*       -3.148604935E+01               0
GRID*               1873               07.2499999275E+02-3.300155867E+01+
*       -3.148604935E+01               0
GRID*               1874               07.5000000013E+02-2.447405550E+01+
*       -3.982185108E+01               0
GRID*               1875               07.3750000013E+02-2.447405550E+01+
*       -3.982185108E+01               0
GRID*               1876               06.2499994513E+014.0290590075E+01+
*       -2.333330286E+01               0
GRID*               1877               06.2499994513E+013.2270248798E+01+
*       -3.259589312E+01               0
GRID*               1878               07.6959734089E+02-4.369986755E+01+
*       -5.942292609E-01               0
GRID*               1879               07.5709734089E+02-4.369986755E+01+
*       -5.942292607E-01               0
GRID*               1880               07.5709734089E+02-4.195799270E+01+
*       -1.271707560E+01               0
GRID*               1881               01.3349918640E+024.4286728013E+01+
*       4.8118395509E+00               0
GRID*               1882               01.3204908946E+024.3924544606E+01+
*       1.4311739382E-01               0
GRID*               1883               01.3204908009E+024.7187202874E+01+
*       -6.169016688E+00               0
GRID*               1884               07.5000001241E+02-4.646595058E+01+
*       1.3217910485E+00               0
GRID*               1885               08.7499995120E+012.3274509191E+01+
*       -4.048611436E+01               0
GRID*               1886               01.6249998301E+023.2175131956E+01+
*       -3.273129892E+01               0
GRID*               1887               06.1906267812E+024.0957363840E+01+
*       -2.466886262E+01               0
GRID*               1888               06.0656265261E+024.0779041625E+01+
*       -1.865302070E+01               0
GRID*               1889               06.7019307040E+024.4262286357E+01+
*       -1.646130215E+01               0
GRID*               1890               01.7499999903E+022.3126396191E+01+
*       -4.056223515E+01               0
GRID*               1891               01.9999998129E+024.0171505942E+01+
*       -2.350252221E+01               0
GRID*               1892               01.8749998129E+024.0171505941E+01+
*       -2.350252221E+01               0
GRID*               1893               01.8749998172E+024.6304227918E+01+
*       -2.488063404E-01               0
GRID*               1894               01.8749998172E+024.4562353067E+01+
*       -1.237165268E+01               0
GRID*               1895               01.9999998172E+024.4562353067E+01+
*       -1.237165268E+01               0
GRID*               1896               04.8131337107E+02-4.598068120E+01+
*       1.2787208404E+01               0
GRID*               1897               04.8131333742E+02-4.779749781E+01+
*       9.5806061351E-01               0
GRID*               1898               02.5000001193E+022.3014344518E+01+
*       -4.061894306E+01               0
GRID*               1899               02.6250001481E+022.2977022438E+01+
*       -4.063768471E+01               0
GRID*               1900               04.9999997658E+02-4.643266496E+01+
*       9.0499542153E-01               0
GRID*               1901               04.9999997658E+02-4.469079011E+01+
*       -1.121785090E+01               0
GRID*               1902               05.2499998507E+02-4.084418118E+01+
*       -2.250512976E+01               0
GRID*               1903               07.2500000012E+02-2.443824247E+01+
*       -3.984295105E+01               0
GRID*               1904               03.0000001291E+026.3747463927E-01+
*       4.5255218498E+01               0
GRID*               1905               03.0000001291E+02-1.163056616E+01+
*       4.5255218517E+01               0
GRID*               1906               01.4454908946E+024.2182669755E+01+
*       -1.197972895E+01               0
GRID*               1907               01.4454908946E+024.3924544606E+01+
*       1.4311739408E-01               0
GRID*               1908               07.6250000576E+022.2228455970E+01+
*       -4.099773356E+01               0
GRID*               1909               02.2499998233E+02-4.464664617E+01+
*       -1.167253982E+01               0
GRID*               1910               03.7499997789E+024.0031759830E+01+
*       2.2517306156E+01               0
GRID*               1911               03.6249997883E+024.0017981626E+01+
*       2.2556452549E+01               0
GRID*               1912               03.7499999314E+023.3482479192E+01+
*       3.2530318858E+01               0
GRID*               1913               02.7499998879E+02-3.259701586E+01+
*       -3.211571347E+01               0
GRID*               1914               02.6249999826E+02-2.378758169E+01+
*       -4.021249786E+01               0
GRID*               1915               03.6249999328E+023.3452044915E+01+
*       3.2558613764E+01               0
GRID*               1916               03.4999999328E+023.3452044919E+01+
*       3.2558613759E+01               0
GRID*               1917               03.4999999328E+022.3142750397E+01+
*       3.9189155312E+01               0
GRID*               1918               05.6998971937E+02-4.713555289E+01+
*       -6.977126629E+00               0
GRID*               1919               03.6249999328E+022.3142750393E+01+
*       3.9189155313E+01               0
GRID*               1920               01.3749999232E+024.4991185350E+01+
*       1.1725016546E+01               0
GRID*               1921               01.4599918640E+024.4286728013E+01+
*       4.8118395511E+00               0
GRID*               1922               01.4999999232E+024.4991185350E+01+
*       1.1725016547E+01               0
GRID*               1923               01.5034724117E+024.6587870651E+01+
*       9.8310235531E+00               0
GRID*               1924               01.4999999232E+023.9905571577E+01+
*       2.2868414499E+01               0
GRID*               1925               01.4137874362E+023.6185310637E+01+
*       2.5425601446E+01               0
GRID*               1926               01.4137874069E+023.6505707460E+01+
*       2.9735493366E+01               0
GRID*               1927               01.4137873594E+024.3204252286E+01+
*       1.9820877257E+01               0
GRID*               1928               01.3204908946E+024.2182669755E+01+
*       -1.197972895E+01               0
GRID*               1929               05.0000001458E+029.6246346737E-01+
*       4.5326150039E+01               0
GRID*               1930               04.8750001458E+029.6246347104E-01+
*       4.5326150037E+01               0
GRID*               1931               04.8750001458E+02-1.130557733E+01+
*       4.5326150034E+01               0
GRID*               1932               05.0000000120E+021.2920703108E+01+
*       4.4928280977E+01               0
GRID*               1933               04.8750000120E+021.2920703111E+01+
*       4.4928280975E+01               0
GRID*               1934               04.9999997014E+01-3.295912424E+01+
*       3.3004101466E+01               0
GRID*               1935               05.5967045395E+01-2.814092122E+01+
*       3.3642487936E+01               0
GRID*               1936               05.5967045395E+01-1.783162669E+01+
*       4.0273029442E+01               0
GRID*               1937               05.5967042409E+01-2.821341568E+01+
*       3.8173450494E+01               0
GRID*               1938               06.8467045395E+01-2.814092122E+01+
*       3.3642487935E+01               0
GRID*               1939               04.0722814029E+02-4.479164096E+01+
*       1.7156190873E+01               0
GRID*               1940               04.1972814657E+02-4.477567513E+01+
*       1.7195036147E+01               0
GRID*               1941               04.1972812660E+02-4.655270967E+01+
*       5.3607743299E+00               0
GRID*               1942               05.3750002670E+02-2.201505325E+01+
*       4.0174523414E+01               0
GRID*               1943               07.4999999903E+011.2237915690E+01+
*       4.5110495573E+01               0
GRID*               1944               06.8467039761E+01-2.818232759E+01+
*       3.8200770408E+01               0
GRID*               1945               01.5619993329E+02-4.411672963E+01+
*       6.7036568925E+00               0
GRID*               1946               01.5567579830E+02-4.273565829E+01+
*       1.1824791230E+01               0
GRID*               1947               01.6249998707E+02-2.249376516E+01+
*       3.9770852761E+01               0
GRID*               1948               01.3749998925E+02-2.255642295E+01+
*       3.9716451445E+01               0
GRID*               1949               01.2500000000E+01-1.161804689E+01+
*       -4.388632396E+01               0
GRID*               1950               06.5000002010E+02-2.188665922E+01+
*       4.0279434025E+01               0
GRID*               1951               04.2499997249E+02-4.642139858E+01+
*       7.8052432966E-01               0
GRID*               1952               04.2499999246E+02-4.464436403E+01+
*       1.2614786147E+01               0
GRID*               1953               04.1972815411E+02-4.318916857E+01+
*       1.0766592791E+01               0
GRID*               1954               03.6893463300E+02-4.279596139E+01+
*       -6.695523082E+00               0
GRID*               1955               03.5643463300E+02-4.279596139E+01+
*       -6.695523080E+00               0
GRID*               1956               04.3276033669E+02-4.453778674E+01+
*       1.8625040898E+01               0
GRID*               1957               04.3276034423E+02-4.295128019E+01+
*       1.2196597542E+01               0
GRID*               1958               04.3060155363E+02-4.052683229E+01+
*       1.5451264530E+01               0
GRID*               1959               04.3836189786E+02-4.042025500E+01+
*       2.1461519281E+01               0
GRID*               1960               04.6250002302E+022.2678283347E+01+
*       -4.078499990E+01               0
GRID*               1961               04.6843568343E+022.6176868911E+01+
*       -3.929892313E+01               0
GRID*               1962               06.6250002231E+02-3.939646430E+01+
*       2.4143076189E+01               0
GRID*               1963               06.6250002231E+02-4.448207809E+01+
*       1.2999678219E+01               0
GRID*               1964               07.7500000959E+023.9602024108E+01+
*       -2.427275314E+01               0
GRID*               1965               07.7991699492E+023.6530841711E+01+
*       -2.446315064E+01               0
GRID*               1966               06.7500002231E+02-4.448207809E+01+
*       1.2999678218E+01               0
GRID*               1967               06.8182803035E+02-4.355700334E+01+
*       8.7478800459E+00               0
GRID*               1968               06.8182805266E+02-4.498122396E+01+
*       1.5561215479E+01               0
GRID*               1969               08.4497251017E+023.8446742933E+01+
*       -2.249480738E+01               0
GRID*               1970               08.4497251017E+023.0426401782E+01+
*       -3.175739758E+01               0
GRID*               1971               08.3247251017E+023.8446742932E+01+
*       -2.249480738E+01               0
GRID*               1972               05.6817462813E+024.3155327936E+01+
*       -4.001211957E+00               0
GRID*               1973               05.6817462813E+024.1413453098E+01+
*       -1.612405827E+01               0
GRID*               1974               05.5567462813E+024.3155327936E+01+
*       -4.001211957E+00               0
GRID*               1975               05.5567465635E+024.1666453626E+01+
*       -2.204027495E+01               0
GRID*               1976               05.6817465607E+024.1641590032E+01+
*       -2.207355854E+01               0
GRID*               1977               05.6817463831E+024.6310393072E+01+
*       -1.105510167E+01               0
GRID*               1978               08.2500000422E+023.9551448334E+01+
*       -2.433827535E+01               0
GRID*               1979               08.3247251440E+023.8424083455E+01+
*       -2.877373295E+01               0
GRID*               1980               08.3059455169E+023.4669523100E+01+
*       -2.605829011E+01               0
GRID*               1981               08.3059455592E+023.4646863622E+01+
*       -3.233721568E+01               0
GRID*               1982               08.3806706187E+023.3542158220E+01+
*       -3.049374771E+01               0
GRID*               1983               03.1733087465E+02-4.803565913E+01+
*       -5.230515030E+00               0
GRID*               1984               03.1947356288E+02-4.316931079E+01+
*       -3.388774249E+00               0
GRID*               1985               03.1947353737E+02-4.651693575E+01+
*       -8.959955548E+00               0
GRID*               1986               03.1180446305E+02-4.479948749E+01+
*       -9.234450773E+00               0
GRID*               1987               08.0000000640E+024.0257166024E+01+
*       2.1845566470E+01               0
GRID*               1988               07.9456971265E+024.4296952322E+01+
*       1.6901586278E+01               0
GRID*               1989               07.4999999835E+022.3624392384E+01+
*       3.8730084891E+01               0
GRID*               1990               06.9522829600E+023.1110494152E+01+
*       -3.056652420E+01               0
GRID*               1991               06.8272829600E+023.9130835326E+01+
*       -2.130393399E+01               0
GRID*               1992               06.7500002115E+023.9702475988E+01+
*       -2.414126211E+01               0
GRID*               1993               06.8053614697E+023.4561005504E+01+
*       -2.614647531E+01               0
GRID*               1994               06.8053616812E+023.4689373689E+01+
*       -3.222838761E+01               0
GRID*               1995               06.8826444297E+023.4117733028E+01+
*       -2.939105950E+01               0
GRID*               1996               02.4999999578E+014.4918783291E+01+
*       1.1919320487E+01               0
GRID*               1997               08.0000000781E+02-4.439933283E+01+
*       1.3189239586E+01               0
GRID*               1998               07.9205719352E+02-4.419071280E+01+
*       6.6106179701E+00               0
GRID*               1999               07.9205720134E+02-4.553218816E+01+
*       1.3613514774E+01               0
GRID*               2000               07.7955719352E+02-4.419071280E+01+
*       6.6106179704E+00               0
GRID*               2001               07.7955720422E+02-4.760170834E+01+
*       1.7874128421E+00               0
GRID*               2002               07.7500001069E+02-4.646885301E+01+
*       1.3631376546E+00               0
GRID*               2003               07.8086681607E+02-4.359829604E+01+
*       -5.563747748E-01               0
GRID*               2004               07.8542400960E+02-4.473115137E+01+
*       -1.320995873E-01               0
GRID*               2005               07.6250000111E+021.3319776229E+01+
*       4.4812090708E+01               0
GRID*               2006               03.7499998023E+014.4594327928E+01+
*       -1.212543427E+01               0
GRID*               2007               02.8664559717E+014.3509658050E+01+
*       2.0094815305E+01               0
GRID*               2008               04.1164559535E+013.6759905159E+01+
*       2.9926096027E+01               0
GRID*               2009               07.5000001241E+02-4.472407573E+01+
*       -1.080105529E+01               0
GRID*               2010               08.0856555323E+02-4.550635945E+01+
*       1.4542490519E+01               0
GRID*               2011               07.6250001069E+02-4.646885301E+01+
*       1.3631376549E+00               0
GRID*               2012               04.4479643989E+023.9465715940E+01+
*       -2.195738863E+01               0
GRID*               2013               06.5769307433E+023.9545663846E+01+
*       -2.741444599E+01               0
GRID*               2014               06.7019307195E+023.9520667635E+01+
*       -2.744744959E+01               0
GRID*               2015               02.5000001193E+021.1247631890E+01+
*       -4.407667786E+01               0
GRID*               2016               02.6250001481E+021.1210309810E+01+
*       -4.409541951E+01               0
GRID*               2017               01.8749998129E+023.2151164674E+01+
*       -3.276511247E+01               0
GRID*               2018               02.3750001193E+021.1247631890E+01+
*       -4.407667786E+01               0
GRID*               2019               07.6249999447E+02-3.302354161E+01+
*       -3.145063333E+01               0
GRID*               2020               07.4999999447E+02-3.302354161E+01+
*       -3.145063333E+01               0
GRID*               2021               07.7500000014E+02-2.450983257E+01+
*       -3.980069184E+01               0
GRID*               2022               07.6250000014E+02-2.450983257E+01+
*       -3.980069183E+01               0
GRID*               2023               07.5000000761E+022.2266078950E+01+
*       -4.098035911E+01               0
GRID*               2024               07.8750000959E+023.9602024109E+01+
*       -2.427275314E+01               0
GRID*               2025               08.0000000840E+024.4409079484E+01+
*       -1.335919317E+01               0
GRID*               2026               08.0000000676E+023.9576770128E+01+
*       -2.430552666E+01               0
GRID*               2027               02.1249998049E+024.0147443881E+01+
*       -2.353634607E+01               0
GRID*               2028               08.8750000000E+02-1.324609190E+01+
*       -4.309750203E+01               0
GRID*               2029               08.3059455169E+022.6649181947E+01+
*       -3.532088031E+01               0
GRID*               2030               08.8190649691E+02-4.380342435E+01+
*       -1.676627124E+01               0
GRID*               2031               06.9999999125E+02-4.099986751E+01+
*       -2.225882641E+01               0
GRID*               2032               07.1249999125E+02-4.099986751E+01+
*       -2.225882641E+01               0
GRID*               2033               07.1858114410E+02-4.212333247E+01+
*       -1.305480702E+01               0
GRID*               2034               07.0608114410E+02-4.212333247E+01+
*       -1.305480701E+01               0
GRID*               2035               07.0608113536E+02-4.354909221E+01+
*       -1.725428353E+01               0
GRID*               2036               08.3059455422E+022.5268847052E+01+
*       -3.976865826E+01               0
GRID*               2037               06.2499999905E+02-4.645020860E+01+
*       1.1136361173E+00               0
GRID*               2038               06.1933165726E+02-4.355208859E+01+
*       8.6766292813E+00               0
GRID*               2039               08.5000000270E+024.4394608119E+01+
*       -1.344066289E+01               0
GRID*               2040               08.6250000270E+024.4394608119E+01+
*       -1.344066289E+01               0
GRID*               2041               08.5598092796E+024.0106240088E+01+
*       -1.971222702E+01               0
GRID*               2042               08.5598093067E+024.4926740394E+01+
*       -1.509354013E+01               0
GRID*               2043               06.3013052738E+02-4.415667588E+01+
*       -3.996928449E-01               0
GRID*               2044               06.3749998876E+02-4.095564788E+01+
*       -2.232942313E+01               0
GRID*               2045               06.4263052738E+02-4.241480103E+01+
*       -1.252253918E+01               0
GRID*               2046               06.3013052738E+02-4.241480104E+01+
*       -1.252253918E+01               0
GRID*               2047               07.8750000091E+021.3359563707E+01+
*       4.4800111063E+01               0
GRID*               2048               08.1250000069E+021.3399330793E+01+
*       4.4788065273E+01               0
GRID*               2049               04.5000001506E+02-1.138685091E+01+
*       4.5308830733E+01               0
GRID*               2050               04.6250002754E+02-2.211111317E+01+
*       4.0095109165E+01               0
GRID*               2051               04.6250001490E+02-1.134621611E+01+
*       4.5317524875E+01               0
GRID*               2052               02.6835657034E+023.6932262925E+01+
*       2.8183223675E+01               0
GRID*               2053               05.3163735295E+023.6427890455E+01+
*       -2.999093567E+01               0
GRID*               2054               05.3163734709E+022.7199782036E+01+
*       -3.760726800E+01               0
GRID*               2055               08.0000000840E+024.6150954314E+01+
*       -1.236346875E+00               0
GRID*               2056               04.5000002681E+02-2.214310052E+01+
*       4.0068489057E+01               0
GRID*               2057               04.2500001508E+028.4055914857E-01+
*       4.5300067613E+01               0
GRID*               2058               07.8750000013E+02-2.454557362E+01+
*       -3.977947337E+01               0
GRID*               2059               04.5000001506E+028.8118988802E-01+
*       4.5308830733E+01               0
GRID*               2060               07.5709733536E+02-4.342776781E+01+
*       -1.684576878E+01               0
GRID*               2061               06.8750000992E+02-4.645676154E+01+
*       1.1972598387E+00               0
GRID*               2062               06.9432803035E+02-4.355700334E+01+
*       8.7478800456E+00               0
GRID*               2063               06.8182804026E+02-4.695590741E+01+
*       3.7587970998E+00               0
GRID*               2064               06.9432804267E+02-4.695905344E+01+
*       3.8004101009E+00               0
GRID*               2065               07.1858113685E+02-4.357112464E+01+
*       -1.721891622E+01               0
GRID*               2066               03.6249998617E+02-3.266560732E+01+
*       -3.201179480E+01               0
GRID*               2067               06.9432803035E+02-3.847138956E+01+
*       1.9891278007E+01               0
GRID*               2068               02.7499998296E+023.9976290895E+01+
*       2.2673671015E+01               0
GRID*               2069               02.8085549611E+023.6470247056E+01+
*       2.3998434385E+01               0
GRID*               2070               02.8749999422E+023.3360487950E+01+
*       3.2643172297E+01               0
GRID*               2071               02.9335549611E+023.6470247053E+01+
*       2.3998434390E+01               0
GRID*               2072               05.9999998686E+02-3.289087722E+01+
*       -3.166243069E+01               0
GRID*               2073               05.8749998686E+02-3.289087722E+01+
*       -3.166243069E+01               0
GRID*               2074               06.1249998686E+02-3.289087722E+01+
*       -3.166243070E+01               0
GRID*               2075               06.2500000001E+02-2.429463613E+01+
*       -3.992675409E+01               0
GRID*               2076               06.2499998774E+02-3.291311822E+01+
*       -3.162724438E+01               0
GRID*               2077               09.9999991459E+013.2246560596E+01+
*       -3.262979577E+01               0
GRID*               2078               07.8086681258E+02-4.334813349E+01+
*       -1.677244468E+01               0
GRID*               2079               05.1250002744E+02-2.204709178E+01+
*       4.0148124623E+01               0
GRID*               2080               05.2500002744E+02-2.204709178E+01+
*       4.0148124622E+01               0
GRID*               2081               06.8467045395E+01-1.783162669E+01+
*       4.0273029442E+01               0
GRID*               2082               04.9398026086E+02-4.255929016E+01+
*       -1.042622002E+01               0
GRID*               2083               06.8467044037E+01-1.755944491E+01+
*       4.3708952767E+01               0
GRID*               2084               01.2499998925E+02-3.286571747E+01+
*       3.3085909938E+01               0
GRID*               2085               06.8749999622E+024.5291356652E+01+
*       1.0861011480E+01               0
GRID*               2086               01.0000000121E+023.1277325688E-01+
*       4.5179876257E+01               0
GRID*               2087               04.6249999909E+02-2.404194000E+01+
*       -4.007110929E+01               0
GRID*               2088               04.6249999909E+02-1.227522733E+01+
*       -4.352884412E+01               0
GRID*               2089               04.7499999930E+02-1.231143451E+01+
*       -4.350840112E+01               0
GRID*               2090               04.2499999889E+02-1.223898649E+01+
*       -4.354922648E+01               0
GRID*               2091               04.3750000000E+02-7.396896482E-01+
*       -4.665261841E+01               0
GRID*               2092               04.3749999909E+02-1.227522733E+01+
*       -4.352884412E+01               0
GRID*               2093               09.3006681953E+011.8512321904E+01+
*       -4.361850016E+01               0
GRID*               2094               01.6869992067E+02-4.743851106E+01+
*       8.8531203595E-01               0
GRID*               2095               04.4999999909E+02-1.227522733E+01+
*       -4.352884412E+01               0
GRID*               2096               02.1857114185E+02-4.271452716E+01+
*       1.0730305227E+01               0
GRID*               2097               02.1428773436E+02-4.347779416E+01+
*       1.1474440525E+01               0
GRID*               2098               04.4999999909E+02-2.404194000E+01+
*       -4.007110929E+01               0
GRID*               2099               04.6249998462E+02-3.275633527E+01+
*       -3.187259962E+01               0
GRID*               2100               02.9227985582E+02-4.836266944E+01+
*       -5.148991117E+00               0
GRID*               2101               02.8750000166E+02-3.267616509E+01+
*       3.3249283117E+01               0
GRID*               2102               02.8749998879E+02-3.259701585E+01+
*       -3.211571348E+01               0
GRID*               2103               02.8749998879E+02-4.061735704E+01+
*       -2.285312326E+01               0
GRID*               2104               02.9999998780E+02-3.261993234E+01+
*       -3.208111850E+01               0
GRID*               2105               02.9999998780E+02-4.064027353E+01+
*       -2.281852827E+01               0
GRID*               2106               02.8157739917E+02-4.089985119E+01+
*       -1.667474003E+01               0
GRID*               2107               02.8157737704E+02-4.598100265E+01+
*       -1.020555296E+01               0
GRID*               2108               02.8157738796E+02-4.194310043E+01+
*       -2.146851346E+01               0
GRID*               2109               03.0697355068E+02-4.249360168E+01+
*       -2.027079901E+01               0
GRID*               2110               03.0697353890E+02-4.651279444E+01+
*       -9.001208913E+00               0
GRID*               2111               03.1947354981E+02-4.251646535E+01+
*       -2.023615966E+01               0
GRID*               2112               03.0697356289E+02-4.142743595E+01+
*       -1.551162056E+01               0
GRID*               2113               03.7500001464E+02-1.150873022E+01+
*       4.5282334558E+01               0
GRID*               2114               03.8750002357E+02-2.220704079E+01+
*       4.0015014673E+01               0
GRID*               2115               04.1250002551E+02-3.248437000E+01+
*       3.3411250059E+01               0
GRID*               2116               04.0000002357E+02-3.251633531E+01+
*       3.3384473138E+01               0
GRID*               2117               04.0582762249E+02-3.525098229E+01+
*       2.7086575279E+01               0
GRID*               2118               04.1832764800E+02-3.484872246E+01+
*       3.2024686513E+01               0
GRID*               2119               04.0582764606E+02-3.488068777E+01+
*       3.1997909592E+01               0
GRID*               2120               03.8828982584E+02-4.800307136E+01+
*       -2.142485955E+00               0
GRID*               2121               04.6250000824E+02-3.952654212E+01+
*       2.3836001817E+01               0
GRID*               2122               04.6250002754E+02-3.242040770E+01+
*       3.3464567625E+01               0
GRID*               2123               04.2500002301E+022.2753020749E+01+
*       -4.074859686E+01               0
GRID*               2124               04.8750002653E+023.9876764183E+01+
*       -2.390875267E+01               0
GRID*               2125               09.3006688247E+016.8769784668E+00+
*       -4.638395126E+01               0
GRID*               2126               02.4999999468E+022.3020589150E+01+
*       3.9301791758E+01               0
GRID*               2127               08.2500000535E+024.6143754433E+01+
*       -1.277073783E+00               0
GRID*               2128               07.8206971291E+024.4284269310E+01+
*       1.6941150012E+01               0
GRID*               2129               06.1249998286E+024.5238797116E+01+
*       1.1019716552E+01               0
GRID*               2130               02.4195125700E+024.4252410603E+01+
*       6.1837621646E+00               0
GRID*               2131               02.4350711502E+024.2972675539E+01+
*       1.1429546666E+01               0
GRID*               2132               07.6250001153E+024.4416210579E+01+
*       -1.331846076E+01               0
GRID*               2133               07.4999997449E+013.9862346370E+01+
*       2.2985015579E+01               0
GRID*               2134               07.4999998907E+013.3114394855E+01+
*       3.2866329230E+01               0
GRID*               2135               08.7499998335E+013.3145321417E+01+
*       3.2838612084E+01               0
GRID*               2136               08.7499995921E+013.9876824667E+01+
*       2.2946159895E+01               0
GRID*               2137               01.1249999834E+023.3145321412E+01+
*       3.2838612091E+01               0
GRID*               2138               01.2499999771E+023.3176198177E+01+
*       3.2810846292E+01               0
GRID*               2139               01.2003376212E+023.6831166383E+01+
*       2.4160895079E+01               0
GRID*               2140               01.0753376045E+023.7089857861E+01+
*       2.8526368492E+01               0
GRID*               2141               01.2003375983E+023.7120734625E+01+
*       2.8498602692E+01               0
GRID*               2142               01.1249999834E+022.2836026894E+01+
*       3.9469153672E+01               0
GRID*               2143               06.9457315296E+024.1980923554E+01+
*       1.2446869891E+01               0
GRID*               2144               06.2499995972E+014.4589163458E+01+
*       -1.216653978E+01               0
GRID*               2145               07.4999995972E+014.4589163458E+01+
*       -1.216653978E+01               0
GRID*               2146               07.4999994513E+014.0290590075E+01+
*       -2.333330286E+01               0
GRID*               2147               01.1249999063E+024.4578640889E+01+
*       -1.224863764E+01               0
GRID*               2148               01.1249998834E+024.0243160795E+01+
*       -2.340106386E+01               0
GRID*               2149               08.3749999975E+022.3742883572E+01+
*       3.8613315464E+01               0
GRID*               2150               07.9456970625E+024.2012029921E+01+
*       1.2385760658E+01               0
GRID*               2151               07.8206970625E+024.2012029921E+01+
*       1.2385760658E+01               0
GRID*               2152               05.0000000000E+01-8.218773868E-02+
*       -4.673917982E+01               0
GRID*               2153               02.7500001481E+021.1210309810E+01+
*       -4.409541951E+01               0
GRID*               2154               08.2500000163E+021.4914330405E+00+
*       4.5432039456E+01               0
GRID*               2155               08.2500000048E+021.3439078390E+01+
*       4.4775952964E+01               0
GRID*               2156               03.7499999078E+012.3348002537E+01+
*       -4.044783969E+01               0
GRID*               2157               05.1250000000E+02-8.218773868E-01+
*       -4.664179823E+01               0
GRID*               2158               05.1249999950E+02-1.234760724E+01+
*       -4.348789779E+01               0
GRID*               2159               08.7499994513E+013.2270248801E+01+
*       -3.259589312E+01               0
GRID*               2160               08.7499993453E+014.4583934930E+01+
*       -1.220760389E+01               0
GRID*               2161               06.3750000000E+02-1.027346734E+00+
*       -4.661474779E+01               0
GRID*               2162               06.4333076333E+02-5.818208284E+00+
*       -4.350988153E+01               0
GRID*               2163               06.3083076333E+02-1.758492092E+01+
*       -4.005214672E+01               0
GRID*               2164               05.2499999968E+02-1.238374466E+01+
*       -4.346733450E+01               0
GRID*               2165               05.2499999968E+02-2.415045732E+01+
*       -4.000959967E+01               0
GRID*               2166               01.9999998843E+024.5019664340E+01+
*       1.1647197651E+01               0
GRID*               2167               01.9999998843E+023.9934050561E+01+
*       2.2790595612E+01               0
GRID*               2168               05.3750000000E+02-8.629712562E-01+
*       -4.663638814E+01               0
GRID*               2169               02.9999998139E+023.9990247789E+01+
*       2.2634633459E+01               0
GRID*               2170               03.0585441930E+023.6482070437E+01+
*       2.3983669557E+01               0
GRID*               2171               02.9999999382E+023.3391049409E+01+
*       3.2615040392E+01               0
GRID*               2172               03.1835441930E+023.6482070434E+01+
*       2.3983669562E+01               0
GRID*               2173               03.3749999351E+023.3421568337E+01+
*       3.2586854263E+01               0
GRID*               2174               03.3749998001E+024.0004144473E+01+
*       2.2595561183E+01               0
GRID*               2175               03.2499998001E+024.0004144477E+01+
*       2.2595561178E+01               0
GRID*               2176               08.1250000535E+024.6143754433E+01+
*       -1.277073783E+00               0
GRID*               2177               08.1250000535E+024.4401879602E+01+
*       -1.339992007E+01               0
GRID*               2178               05.3750002670E+02-3.232434777E+01+
*       3.3543981865E+01               0
GRID*               2179               02.4195124167E+024.6242439929E+01+
*       1.1566697134E+01               0
GRID*               2180               05.1250002744E+02-3.235638630E+01+
*       3.3517583078E+01               0
GRID*               2181               06.6249998876E+02-4.095564788E+01+
*       -2.232942314E+01               0
GRID*               2182               06.3125297880E+02-2.896846657E+01+
*       -3.735639073E+01               0
GRID*               2183               05.8750002403E+02-2.195090920E+01+
*       4.0227111806E+01               0
GRID*               2184               05.3750002221E+02-4.456362303E+01+
*       1.2808512704E+01               0
GRID*               2185               03.7499999675E+01-3.236471729E+01+
*       -3.245952107E+01               0
GRID*               2186               05.1249998477E+02-3.280139007E+01+
*       -3.180272572E+01               0
GRID*               2187               06.1250001089E+02-1.110231487E+01+
*       4.5368242220E+01               0
GRID*               2188               08.2445735559E+02-4.336541998E+01+
*       2.0892561277E+01               0
GRID*               2189               06.1933165726E+02-3.846647480E+01+
*       1.9820027256E+01               0
GRID*               2190               06.1775431167E+02-4.154419579E+01+
*       1.6781987218E+01               0
GRID*               2191               05.7499998612E+02-3.286858372E+01+
*       -3.169757222E+01               0
GRID*               2192               05.6964959369E+02-2.831816253E+01+
*       -3.307159229E+01               0
GRID*               2193               05.6964957980E+02-3.765332097E+01+
*       -2.818463414E+01               0
GRID*               2194               05.6964959369E+02-3.633850378E+01+
*       -2.380900204E+01               0
GRID*               2195               05.1249999950E+02-2.411431989E+01+
*       -4.003016297E+01               0
GRID*               2196               07.2500001279E+02-3.209932807E+01+
*       3.3726916676E+01               0
GRID*               2197               05.0000002774E+02-3.238840554E+01+
*       3.3491112226E+01               0
GRID*               2198               04.7500001490E+02-1.134621612E+01+
*       4.5317524874E+01               0
GRID*               2199               04.7500002754E+02-2.211111318E+01+
*       4.0095109163E+01               0
GRID*               2200               04.8750002774E+02-2.207911101E+01+
*       4.0121653773E+01               0
GRID*               2201               07.0000001232E+02-4.471803272E+01+
*       -1.088397350E+01               0
GRID*               2202               04.0662070229E+022.9900712355E+01+
*       -3.206753493E+01               0
GRID*               2203               07.2499999275E+02-4.102189994E+01+
*       -2.222345909E+01               0
GRID*               2204               08.4407845141E+02-4.693637330E+01+
*       -6.565527951E+00               0
GRID*               2205               08.2500000155E+02-4.110955834E+01+
*       -2.208147202E+01               0
GRID*               2206               08.3750000155E+02-4.110955834E+01+
*       -2.208147202E+01               0
GRID*               2207               08.4407844854E+02-4.177523274E+01+
*       -1.398905649E+01               0
GRID*               2208               03.3750001755E+02-3.258025058E+01+
*       3.3330670495E+01               0
GRID*               2209               08.1250000826E+02-4.472980531E+01+
*       -1.071840591E+01               0
GRID*               2210               08.0000000826E+02-4.472980531E+01+
*       -1.071840591E+01               0
GRID*               2211               03.0000000805E+02-2.233488348E+01+
*       3.9907052578E+01               0
GRID*               2212               03.0000000805E+02-3.264417801E+01+
*       3.3276511055E+01               0
GRID*               2213               03.1250001329E+02-3.261220960E+01+
*       3.3303637810E+01               0
GRID*               2214               08.2500000155E+02-3.308921707E+01+
*       -3.134406228E+01               0
GRID*               2215               08.9440649610E+02-4.382494355E+01+
*       -1.673078288E+01               0
GRID*               2216               02.8749999422E+022.3051193430E+01+
*       3.9273713856E+01               0
GRID*               2217               07.2500000000E+02-1.191722211E+00+
*       -4.659310744E+01               0
GRID*               2218               07.1250000000E+02-1.150628342E+00+
*       -4.659851752E+01               0
GRID*               2219               07.1250000953E+021.0536954940E+01+
*       -4.442065915E+01               0
GRID*               2220               07.3750001256E+023.1606875209E+01+
*       -3.350253706E+01               0
GRID*               2221               08.5000000183E+02-3.311090305E+01+
*       -3.130858045E+01               0
GRID*               2222               08.6250000004E+02-2.465258183E+01+
*       -3.971546172E+01               0
GRID*               2223               01.2887873781E+024.3189913141E+01+
*       1.9859757159E+01               0
GRID*               2224               01.2887874133E+023.6474878883E+01+
*       2.9763309054E+01               0
GRID*               2225               08.6250000000E+02-1.320499803E+01+
*       -4.310291212E+01               0
GRID*               2226               05.9543030230E+02-4.168636051E+01+
*       1.2705607009E+01               0
GRID*               2227               05.8293030230E+02-4.168636051E+01+
*       1.2705607009E+01               0
GRID*               2228               05.9078531019E+02-4.265290297E+01+
*       1.3283729525E+01               0
GRID*               2229               08.5000000213E+023.9526052007E+01+
*       -2.437100798E+01               0
GRID*               2230               08.4497251288E+024.3267243239E+01+
*       -1.787612049E+01               0
GRID*               2231               08.4497251231E+023.8398687127E+01+
*       -2.880646558E+01               0
GRID*               2232               08.6848092875E+024.4919394176E+01+
*       -1.513432263E+01               0
GRID*               2233               09.9999992159E+01-4.484478960E+01+
*       1.2112964956E+01               0
GRID*               2234               09.3735744468E+01-4.209970757E+01+
*       1.2381122075E+01               0
GRID*               2235               09.3735736628E+01-4.388663970E+01+
*       1.8307744235E+01               0
GRID*               2236               08.6250000270E+024.6136482948E+01+
*       -1.317816599E+00               0
GRID*               2237               08.5000000287E+02-4.647712318E+01+
*       1.4870249812E+00               0
GRID*               2238               09.9999992159E+01-3.975917575E+01+
*       2.3256363009E+01               0
GRID*               2239               09.9999991632E+01-3.289690867E+01+
*       3.3058684640E+01               0
GRID*               2240               09.3238500131E+01-4.153903337E+01+
*       2.2730753888E+01               0
GRID*               2241               09.3238499604E+01-3.467676629E+01+
*       3.2533075519E+01               0
GRID*               2242               05.9543030230E+02-3.660074671E+01+
*       2.3849004988E+01               0
GRID*               2243               05.8293030230E+02-3.660074671E+01+
*       2.3849004993E+01               0
GRID*               2244               07.1250001694E+024.4430276367E+01+
*       -1.323690389E+01               0
GRID*               2245               03.2499999832E+02-2.386041230E+01+
*       -4.017240913E+01               0
GRID*               2246               03.3749999832E+02-2.386041230E+01+
*       -4.017240914E+01               0
GRID*               2247               03.2499998692E+02-3.264279599E+01+
*       -3.204647916E+01               0
GRID*               2248               04.5862740646E+01-2.851156831E+01+
*       3.4164855718E+01               0
GRID*               2249               07.8206970625E+023.6926416073E+01+
*       2.3529158710E+01               0
GRID*               2250               07.6249999447E+02-4.104388288E+01+
*       -2.218804307E+01               0
GRID*               2251               07.1249999125E+02-3.297952625E+01+
*       -3.152141667E+01               0
GRID*               2252               06.3750001689E+021.0687033283E+01+
*       -4.435028837E+01               0
GRID*               2253               03.7499999883E+01-2.342156047E+01+
*       -4.040923983E+01               0
GRID*               2254               04.6250002131E+023.9926347584E+01+
*       -2.384158044E+01               0
GRID*               2255               06.3125297879E+02-3.622759695E+01+
*       -2.475157678E+01               0
GRID*               2256               06.1249999249E+02-4.644681882E+01+
*       1.0717555299E+00               0
GRID*               2257               07.3750001694E+024.4430276369E+01+
*       -1.323690388E+01               0
GRID*               2258               05.5000002221E+02-3.947800923E+01+
*       2.3951910693E+01               0
GRID*               2259               05.5000002221E+02-4.456362303E+01+
*       1.2808512704E+01               0
GRID*               2260               05.6250002421E+02-4.454738867E+01+
*       1.2846925795E+01               0
GRID*               2261               07.9241699491E+022.8510500555E+01+
*       -3.372574085E+01               0
GRID*               2262               06.6250000000E+02-1.283515323E+01+
*       -4.315160290E+01               0
GRID*               2263               06.5000000000E+02-1.283515323E+01+
*       -4.315160290E+01               0
GRID*               2264               01.5619992324E+02-4.743396754E+01+
*       8.4417139833E-01               0
GRID*               2265               04.7500000000E+02-7.807835175E-01+
*       -4.664720832E+01               0
GRID*               2266               04.8750000000E+02-7.807835175E-01+
*       -4.664720832E+01               0
GRID*               2267               06.6879139357E+022.6949706455E+01+
*       -3.439424324E+01               0
GRID*               2268               02.1249998482E+02-4.638411388E+01+
*       4.0914593088E-01               0
GRID*               2269               04.1832761495E+02-4.192310267E+01+
*       2.2371620618E+01               0
GRID*               2270               04.5000002681E+02-3.245239505E+01+
*       3.3437947517E+01               0
GRID*               2271               04.5000000044E+02-3.954267577E+01+
*       2.3797111565E+01               0
GRID*               2272               04.2499997249E+02-4.467952374E+01+
*       -1.134232199E+01               0
GRID*               2273               04.3750002681E+02-3.245239504E+01+
*       3.3437947522E+01               0
GRID*               2274               04.4310158045E+02-3.500698368E+01+
*       3.1559471249E+01               0
GRID*               2275               05.5567462813E+024.1413453097E+01+
*       -1.612405827E+01               0
GRID*               2276               05.0000002774E+02-2.207911102E+01+
*       4.0121653772E+01               0
GRID*               2277               05.0000001458E+02-1.130557733E+01+
*       4.5326150032E+01               0
GRID*               2278               02.2500000993E+02-1.175235033E+01+
*       4.5227483714E+01               0
GRID*               2279               01.5619991908E+02-4.587369923E+01+
*       1.2707357598E+01               0
GRID*               2280               05.3749997928E+02-4.469442016E+01+
*       -1.117625716E+01               0
GRID*               2281               05.3749998507E+02-4.084418118E+01+
*       -2.250512976E+01               0
GRID*               2282               06.6250000000E+02-1.068440603E+00+
*       -4.660933770E+01               0
GRID*               2283               06.7500000000E+02-1.109534472E+00+
*       -4.660392761E+01               0
GRID*               2284               03.8749998619E+02-3.957471604E+01+
*       2.3719338894E+01               0
GRID*               2285               03.7578983501E+02-4.626174647E+01+
*       9.6555562795E+00               0
GRID*               2286               02.9407739917E+02-4.264172602E+01+
*       -4.551893720E+00               0
GRID*               2287               02.9407737519E+02-4.598520967E+01+
*       -1.016432838E+01               0
GRID*               2288               02.8635727897E+02-4.460305434E+01+
*       -1.027479296E+01               0
GRID*               2289               03.1249998780E+02-3.261993233E+01+
*       -3.208111850E+01               0
GRID*               2290               03.1249998780E+02-4.064027353E+01+
*       -2.281852827E+01               0
GRID*               2291               03.2499999832E+02-1.209369961E+01+
*       -4.363014399E+01               0
GRID*               2292               02.6250001106E+02-1.171176162E+01+
*       4.5236797365E+01               0
GRID*               2293               02.5000001106E+02-1.171176161E+01+
*       4.5236797366E+01               0
GRID*               2294               02.1249999580E+022.2959250125E+01+
*       3.9357787073E+01               0
GRID*               2295               07.4999998907E+012.2805100338E+01+
*       3.9496870816E+01               0
GRID*               2296               08.7499999879E+011.2278214146E+01+
*       4.5100316523E+01               0
GRID*               2297               08.7499998335E+012.2836026901E+01+
*       3.9469153669E+01               0
GRID*               2298               06.2499999397E+013.3083416636E+01+
*       3.2893999150E+01               0
GRID*               2299               06.6584586740E+013.6622313787E+01+
*       2.5622043821E+01               0
GRID*               2300               05.4084586135E+013.6819100478E+01+
*       3.0042904307E+01               0
GRID*               2301               06.6584585644E+013.6850078697E+01+
*       3.0015234388E+01               0
GRID*               2302               04.9999999398E+013.3083416638E+01+
*       3.2893999147E+01               0
GRID*               2303               03.1947356289E+02-4.142743595E+01+
*       -1.551162056E+01               0
GRID*               2304               02.7499999826E+02-2.378758169E+01+
*       -4.021249786E+01               0
GRID*               2305               06.8727156621E+01-2.934502890E+01+
*       -3.352896285E+01               0
GRID*               2306               07.9336681607E+02-4.359829604E+01+
*       -5.563747751E-01               0
GRID*               2307               07.3750000000E+02-1.299952870E+01+
*       -4.312996255E+01               0
GRID*               2308               01.2499999244E+02-4.637048256E+01+
*       2.8571824362E-01               0
GRID*               2309               01.1905424205E+02-4.768945239E+01+
*       6.9871171449E-01               0
GRID*               2310               01.1905423861E+02-4.614880949E+01+
*       1.2564512112E+01               0
GRID*               2311               01.8749999580E+023.3268544652E+01+
*       3.2727245495E+01               0
GRID*               2312               01.9999999580E+023.3268544648E+01+
*       3.2727245500E+01               0
GRID*               2313               01.8749998843E+023.9934050564E+01+
*       2.2790595607E+01               0
GRID*               2314               03.9999998619E+02-4.466032986E+01+
*       1.2575940873E+01               0
GRID*               2315               03.9999998619E+02-3.957471604E+01+
*       2.3719338890E+01               0
GRID*               2316               02.3750000993E+02-1.175235033E+01+
*       4.5227483713E+01               0
GRID*               2317               02.3750000993E+025.1569046940E-01+
*       4.5227483688E+01               0
GRID*               2318               07.5000000000E+02-1.299952870E+01+
*       -4.312996255E+01               0
GRID*               2319               01.2500000001E+01-4.036147336E+01+
*       -2.323115933E+01               0
GRID*               2320               02.7500001205E+025.9687389694E-01+
*       4.5246042276E+01               0
GRID*               2321               03.6250001465E+027.5931057721E-01+
*       4.5282334546E+01               0
GRID*               2322               03.7500001465E+027.5931057320E-01+
*       4.5282334548E+01               0
GRID*               2323               03.6250000026E+021.2720389501E+01+
*       4.4983900780E+01               0
GRID*               2324               06.2499995972E+014.6331038310E+01+
*       -4.369343735E-02               0
GRID*               2325               03.7500002094E+02-2.223899966E+01+
*       3.9988155829E+01               0
GRID*               2326               03.7500002094E+02-3.254829418E+01+
*       3.3357614299E+01               0
GRID*               2327               03.8750002357E+02-3.251633531E+01+
*       3.3384473143E+01               0
GRID*               2328               04.4326295745E+024.1361968299E+01+
*       -1.585020618E+01               0
GRID*               2329               01.4999998544E+024.0219354871E+01+
*       -2.343489353E+01               0
GRID*               2330               01.6249998301E+024.0195473226E+01+
*       -2.346870867E+01               0
GRID*               2331               01.7499998301E+024.0195473227E+01+
*       -2.346870866E+01               0
GRID*               2332               01.7499998301E+023.2175131959E+01+
*       -3.273129892E+01               0
GRID*               2333               01.8749998843E+024.5019664340E+01+
*       1.1647197651E+01               0
GRID*               2334               01.7499999038E+024.5005457559E+01+
*       1.1686118160E+01               0
GRID*               2335               07.8086681607E+02-4.185642119E+01+
*       -1.267922112E+01               0
GRID*               2336               03.3749999832E+02-1.209369961E+01+
*       -4.363014399E+01               0
GRID*               2337               02.2499999522E+022.2989941585E+01+
*       3.9329816007E+01               0
GRID*               2338               07.9336681607E+02-4.185642119E+01+
*       -1.267922112E+01               0
GRID*               2339               07.7500000000E+02-1.304062256E+01+
*       -4.312455247E+01               0
GRID*               2340               08.0000000826E+02-4.647168017E+01+
*       1.4044404314E+00               0
GRID*               2341               08.3750000082E+021.5322319021E+00+
*       4.5439712571E+01               0
GRID*               2342               08.3750000028E+021.3478807604E+01+
*       4.4763773677E+01               0
GRID*               2343               04.3750002131E+023.1906006353E+01+
*       -3.310417068E+01               0
GRID*               2344               04.4479646120E+023.9817955737E+01+
*       -2.773961921E+01               0
GRID*               2345               04.3229645702E+023.9842729892E+01+
*       -2.770588616E+01               0
GRID*               2346               07.9205720179E+02-4.760453550E+01+
*       1.8287156191E+00               0
GRID*               2347               03.8750001494E+027.9993262885E-01+
*       4.5291235539E+01               0
GRID*               2348               08.4407844854E+02-4.351710760E+01+
*       -1.866210150E+00               0
GRID*               2349               01.2500000002E+01-2.338475965E+01+
*       -4.042858905E+01               0
GRID*               2350               02.4999999883E+01-2.342156047E+01+
*       -4.040923983E+01               0
GRID*               2351               04.7500001490E+029.2182467831E-01+
*       4.5317524877E+01               0
GRID*               2352               08.7415393361E+02-4.163337101E+01+
*       2.2285106877E+01               0
GRID*               2353               08.6250000183E+02-4.113124432E+01+
*       -2.204599019E+01               0
GRID*               2354               05.5430406262E+02-4.433172958E+01+
*       3.3489170108E+00               0
GRID*               2355               05.6680408683E+02-4.582126078E+01+
*       1.0009500018E+01               0
GRID*               2356               05.5430408483E+02-4.583749514E+01+
*       9.9710869269E+00               0
GRID*               2357               07.3750001256E+023.9627216379E+01+
*       -2.423994684E+01               0
GRID*               2358               08.5000000270E+024.6136482948E+01+
*       -1.317816599E+00               0
GRID*               2359               08.5000000008E+02-2.461694799E+01+
*       -3.973685851E+01               0
GRID*               2360               08.3750000008E+02-2.461694799E+01+
*       -3.973685851E+01               0
GRID*               2361               08.6250000092E+024.5380311831E+01+
*       1.0583645049E+01               0
GRID*               2362               08.6956706533E+024.2035117087E+01+
*       1.2340511701E+01               0
GRID*               2363               08.5706706533E+024.2035117087E+01+
*       1.2340511701E+01               0
GRID*               2364               06.5000002010E+02-3.219595374E+01+
*       3.3648892459E+01               0
GRID*               2365               06.6250000556E+02-4.645352922E+01+
*       1.1555193044E+00               0
GRID*               2366               06.5000000556E+02-4.645352922E+01+
*       1.1555193047E+00               0
GRID*               2367               06.5000000556E+02-4.471165437E+01+
*       -1.096732703E+01               0
GRID*               2368               08.3750000535E+024.6143754433E+01+
*       -1.277073783E+00               0
GRID*               2369               06.5000002402E+02-4.449846832E+01+
*       1.2961609140E+01               0
GRID*               2370               06.5593952674E+02-4.440457982E+01+
*       6.2936995126E+00               0
GRID*               2371               06.5593955076E+02-4.584519067E+01+
*       1.3068965867E+01               0
GRID*               2372               06.5593953231E+02-4.780025156E+01+
*       1.2628760316E+00               0
GRID*               2373               08.2500000422E+023.1531107181E+01+
*       -3.360086556E+01               0
GRID*               2374               08.1250000422E+023.1531107177E+01+
*       -3.360086556E+01               0
GRID*               2375               08.1250000422E+023.9551448334E+01+
*       -2.433827535E+01               0
GRID*               2376               08.3750000535E+024.4401879603E+01+
*       -1.339992007E+01               0
GRID*               2377               08.2500000535E+024.4401879603E+01+
*       -1.339992007E+01               0
GRID*               2378               06.6843952674E+02-4.440457982E+01+
*       6.2936995123E+00               0
GRID*               2379               06.6843954906E+02-4.582880044E+01+
*       1.3107034946E+01               0
GRID*               2380               06.7500000992E+02-4.645676154E+01+
*       1.1972598390E+00               0
GRID*               2381               06.7500000992E+02-4.471488669E+01+
*       -1.092558650E+01               0
GRID*               2382               07.7499999651E+02-3.304547880E+01+
*       -3.141516372E+01               0
GRID*               2383               07.3749999788E+023.3903935633E+01+
*       3.2128617165E+01               0
GRID*               2384               08.2499999950E+022.3713339241E+01+
*       3.8642577908E+01               0
GRID*               2385               07.7499999651E+02-4.106582007E+01+
*       -2.215257346E+01               0
GRID*               2386               07.6959734089E+02-4.195799270E+01+
*       -1.271707560E+01               0
GRID*               2387               07.7500001069E+02-4.472697816E+01+
*       -1.075970869E+01               0
GRID*               2388               07.3750001694E+024.6172151201E+01+
*       -1.114057587E+00               0
GRID*               2389               07.5000001446E+024.4423275438E+01+
*       -1.327770351E+01               0
GRID*               2390               08.0000000676E+023.1556428971E+01+
*       -3.356811687E+01               0
GRID*               2391               07.9241700167E+023.6533504029E+01+
*       -3.070932752E+01               0
GRID*               2392               07.9241699896E+022.7167869762E+01+
*       -3.815625993E+01               0
GRID*               2393               07.4405597264E+024.0734980403E+01+
*       -1.879168022E+01               0
GRID*               2394               07.3155598957E+024.5591148964E+01+
*       -1.396923431E+01               0
GRID*               2395               07.4405598710E+024.5584148034E+01+
*       -1.401003394E+01               0
GRID*               2396               07.4405598520E+024.0788088975E+01+
*       -2.497227727E+01               0
GRID*               2397               07.3155597264E+024.0734980402E+01+
*       -1.879168022E+01               0
GRID*               2398               08.5000000183E+02-4.113124432E+01+
*       -2.204599019E+01               0
GRID*               2399               06.7500002115E+023.1682134808E+01+
*       -3.340385233E+01               0
GRID*               2400               08.3750000155E+02-3.308921707E+01+
*       -3.134406228E+01               0
GRID*               2401               06.6879141472E+023.5098415820E+01+
*       -3.121356533E+01               0
GRID*               2402               06.7500001336E+021.0612043618E+01+
*       -4.438560244E+01               0
GRID*               2403               05.5567463180E+024.6316998627E+01+
*       -1.101360942E+01               0
GRID*               2404               06.5629141710E+023.5123412031E+01+
*       -3.118056172E+01               0
GRID*               2405               03.0000000000E+02-4.931264321E-01+
*       -4.668507894E+01               0
GRID*               2406               04.8779362369E+02-4.566969027E+01+
*       1.7912308993E+00               0
GRID*               2407               05.6820902621E+02-2.630914541E+01+
*       -3.548546599E+01               0
GRID*               2408               06.1249998286E+024.0153183281E+01+
*       2.2163114588E+01               0
GRID*               2409               05.2499998507E+02-3.282383995E+01+
*       -3.176772001E+01               0
GRID*               2410               08.3247251553E+024.3274514723E+01+
*       -1.783537767E+01               0
GRID*               2411               06.6250000556E+02-4.471165437E+01+
*       -1.096732703E+01               0
GRID*               2412               06.7499998993E+02-4.097778378E+01+
*       -2.229414738E+01               0
GRID*               2413               08.8190649694E+02-4.738848011E+01+
*       -5.350203629E+00               0
GRID*               2414               04.5730835033E+02-4.593756023E+01+
*       1.2808658146E+01               0
GRID*               2415               07.3750000111E+021.3319776232E+01+
*       4.4812090707E+01               0
GRID*               2416               06.9750185288E+02-4.062821999E+01+
*       1.5816156691E+01               0
GRID*               2417               07.5584646834E+02-1.831374343E+01+
*       -3.984082318E+01               0
GRID*               2418               07.6834646847E+02-1.929015077E+01+
*       -4.305698460E+01               0
GRID*               2419               07.5584646847E+02-1.925437370E+01+
*       -4.307814385E+01               0
GRID*               2420               04.9398023744E+02-4.767597249E+01+
*       -3.584721064E+00               0
GRID*               2421               07.3749999788E+022.3594641106E+01+
*       3.8759158674E+01               0
GRID*               2422               06.8750000992E+02-4.471488669E+01+
*       -1.092558650E+01               0
GRID*               2423               05.5733942234E+024.4031676784E+01+
*       -7.563441442E+00               0
GRID*               2424               06.8749998993E+02-4.097778378E+01+
*       -2.229414739E+01               0
GRID*               2425               06.8749998993E+02-3.295744252E+01+
*       -3.155673764E+01               0
GRID*               2426               04.5000000044E+02-4.462828958E+01+
*       1.2653713557E+01               0
GRID*               2427               04.4526034423E+02-4.295128019E+01+
*       1.2196597542E+01               0
GRID*               2428               04.4526034467E+02-4.452171230E+01+
*       1.8663968309E+01               0
GRID*               2429               04.4526034423E+02-3.786566637E+01+
*       2.3339995550E+01               0
GRID*               2430               04.0722812639E+02-4.654882724E+01+
*       5.3193754257E+00               0
GRID*               2431               06.4333076333E+02-1.758492091E+01+
*       -4.005214673E+01               0
GRID*               2432               06.9999999125E+02-3.297952625E+01+
*       -3.152141667E+01               0
GRID*               2433               04.1832762249E+02-3.525098229E+01+
*       2.7086575274E+01               0
GRID*               2434               03.9999997228E+02-4.641751614E+01+
*       7.3912542579E-01               0
GRID*               2435               04.4310155363E+02-3.544121847E+01+
*       2.6594662537E+01               0
GRID*               2436               02.0821659251E+02-4.382112447E+01+
*       6.9304780933E+00               0
GRID*               2437               02.0607114185E+02-4.271452716E+01+
*       1.0730305227E+01               0
GRID*               2438               02.0821657249E+02-4.554786161E+01+
*       1.3011188695E+01               0
GRID*               2439               03.5000001755E+02-2.227095605E+01+
*       3.9961212018E+01               0
GRID*               2440               03.6250002094E+02-2.223899965E+01+
*       3.9988155831E+01               0
GRID*               2441               05.6250000367E+024.6219528163E+01+
*       -8.260546685E-01               0
GRID*               2442               03.5000001421E+02-1.154934748E+01+
*       4.5273364691E+01               0
GRID*               2443               02.2499999049E+02-3.273991490E+01+
*       3.3194738793E+01               0
GRID*               2444               09.9999999879E+011.2278214143E+01+
*       4.5100316525E+01               0
GRID*               2445               01.7499999642E+022.2928514001E+01+
*       3.9385705551E+01               0
GRID*               2446               01.7977878070E+022.8963366131E+01+
*       3.8244647247E+01               0
GRID*               2447               02.3749999502E+02-2.239882609E+01+
*       3.9852534044E+01               0
GRID*               2448               02.3749999522E+022.2989941581E+01+
*       3.9329816009E+01               0
GRID*               2449               01.5747209656E+023.7151361260E+01+
*       2.3320247353E+01               0
GRID*               2450               01.5747209656E+024.2236975033E+01+
*       1.2176849401E+01               0
GRID*               2451               02.1249999580E+023.3268544645E+01+
*       3.2727245505E+01               0
GRID*               2452               01.1250000362E+023.5337025086E-01+
*       4.5189538542E+01               0
GRID*               2453               05.5166479421E+024.2192331481E+01+
*       -9.498733005E+00               0
GRID*               2454               01.1249999986E+021.2318496172E+01+
*       4.5090070129E+01               0
GRID*               2455               01.2499999419E+023.9891232435E+01+
*       2.2907294396E+01               0
GRID*               2456               01.2003375631E+024.3835768884E+01+
*       1.8595050797E+01               0
GRID*               2457               04.9999998023E+014.4594327929E+01+
*       -1.212543427E+01               0
GRID*               2458               09.9999995921E+013.9876824665E+01+
*       2.2946159898E+01               0
GRID*               2459               09.9999998335E+013.3145321415E+01+
*       3.2838612087E+01               0
GRID*               2460               01.0753375804E+024.3821361111E+01+
*       1.8633916303E+01               0
GRID*               2461               09.9999998335E+012.2836026898E+01+
*       3.9469153671E+01               0
GRID*               2462               06.2499999397E+012.2774122120E+01+
*       3.9524540736E+01               0
GRID*               2463               04.5000002131E+023.9926347583E+01+
*       -2.384158044E+01               0
GRID*               2464               04.9398026086E+02-4.430116500E+01+
*       1.6966263039E+00               0
GRID*               2465               06.2499997448E+014.4947960134E+01+
*       1.1841617637E+01               0
GRID*               2466               06.3750000001E+02-2.429463613E+01+
*       -3.992675409E+01               0
GRID*               2467               01.2500000002E+01-3.234113221E+01+
*       -3.249374954E+01               0
GRID*               2468               01.9999999580E+022.2959250129E+01+
*       3.9357787072E+01               0
GRID*               2469               06.7688145201E+01-2.562651747E+01+
*       -3.657742937E+01               0
GRID*               2470               04.9381333941E+02-4.780119022E+01+
*       9.9960001691E-01               0
GRID*               2471               04.9225457789E+024.1215370264E+01+
*       -1.695763779E+01               0
GRID*               2472               06.2342265441E+02-4.104996467E+01+
*       1.4291700723E+01               0
GRID*               2473               05.6680404973E+02-4.771724304E+01+
*       -1.807464181E+00               0
GRID*               2474               01.6732145321E+024.3944690072E+01+
*       6.5358688649E+00               0
GRID*               2475               01.5482145321E+024.3944690072E+01+
*       6.5358688647E+00               0
GRID*               2476               01.6997209656E+024.2236975033E+01+
*       1.2176849401E+01               0
GRID*               2477               01.6229354977E+024.3123807632E+01+
*       1.2526375482E+01               0
GRID*               2478               07.3310233550E+02-3.545017767E+01+
*       3.0929319436E+01               0
GRID*               2479               07.6834646834E+02-1.831374343E+01+
*       -3.984082318E+01               0
GRID*               2480               01.6732144360E+024.5892290158E+01+
*       1.2035644241E+01               0
GRID*               2481               07.5000000111E+021.3319776230E+01+
*       4.4812090708E+01               0
GRID*               2482               08.5706706508E+023.8115051565E+01+
*       2.6993544808E+01               0
GRID*               2483               08.5706706533E+023.6949503237E+01+
*       2.3483909757E+01               0
GRID*               2484               01.9227878428E+022.8612187529E+01+
*       3.3962621973E+01               0
GRID*               2485               06.8750001146E+021.0574513014E+01+
*       -4.440316240E+01               0
GRID*               2486               04.3076295745E+024.3103843142E+01+
*       -3.727359860E+00               0
GRID*               2487               06.7019305080E+023.1371958270E+01+
*       -3.062812751E+01               0
GRID*               2488               06.6398444437E+023.4788239282E+01+
*       -2.843784051E+01               0
GRID*               2489               06.5000002402E+02-3.941285453E+01+
*       2.4105007110E+01               0
GRID*               2490               04.6924162072E+02-4.281725197E+01+
*       1.1826627290E+01               0
GRID*               2491               04.6924162071E+02-3.773163815E+01+
*       2.2970025293E+01               0
GRID*               2492               04.5674162072E+02-4.281725197E+01+
*       1.1826627290E+01               0
GRID*               2493               01.6068573070E+024.4322522240E+01+
*       1.9422515046E+00               0
GRID*               2494               01.5482144086E+024.7201987465E+01+
*       1.8272134443E-01               0
GRID*               2495               01.5516870206E+024.5541375373E+01+
*       4.6418758711E+00               0
GRID*               2496               04.0582760868E+02-4.193906850E+01+
*       2.2332775344E+01               0
GRID*               2497               01.5482144554E+024.5878017949E+01+
*       1.2074542628E+01               0
GRID*               2498               01.7977878428E+022.8612187533E+01+
*       3.3962621968E+01               0
GRID*               2499               02.3749999993E+021.2479459575E+01+
*       4.5048411154E+01               0
GRID*               2500               02.9407739917E+02-4.089985119E+01+
*       -1.667474003E+01               0
GRID*               2501               03.6250001464E+02-1.150873022E+01+
*       4.5282334559E+01               0
GRID*               2502               04.0722815411E+02-4.318916857E+01+
*       1.0766592791E+01               0
GRID*               2503               04.3749999246E+02-4.464436403E+01+
*       1.2614786146E+01               0
GRID*               2504               01.2887874362E+023.6185310640E+01+
*       2.5425601442E+01               0
GRID*               2505               01.4137874362E+024.1270924409E+01+
*       1.4282203494E+01               0
GRID*               2506               01.2887874362E+024.1270924409E+01+
*       1.4282203494E+01               0
GRID*               2507               03.3750000000E+02-5.342203014E-01+
*       -4.667966885E+01               0
GRID*               2508               03.8018983347E+02-4.355192365E+01+
*       -1.932476966E+00               0
GRID*               2509               03.7578985356E+02-4.464341269E+01+
*       3.3047314105E+00               0
GRID*               2510               01.9227878008E+022.8994102263E+01+
*       3.8216728766E+01               0
GRID*               2511               05.3749997928E+02-4.643629501E+01+
*       9.4658917178E-01               0
GRID*               2512               04.4310155407E+02-4.209726440E+01+
*       2.1918635296E+01               0
GRID*               2513               03.6972448656E+02-4.612339144E+01+
*       2.5457118507E+00               0
GRID*               2514               04.5674162071E+02-3.773163815E+01+
*       2.2970025298E+01               0
GRID*               2515               04.5674162115E+02-4.438768408E+01+
*       1.8293998057E+01               0
GRID*               2516               03.6893460557E+02-4.789354831E+01+
*       -6.125234925E-02               0
GRID*               2517               05.5748971501E+02-4.713204534E+01+
*       -7.018845847E+00               0
GRID*               2518               05.5430404537E+02-4.771373549E+01+
*       -1.849183399E+00               0
GRID*               2519               05.6179379487E+02-4.502391153E+01+
*       -4.658171215E+00               0
GRID*               2520               05.4999998276E+02-4.469798854E+01+
*       -1.113460395E+01               0
GRID*               2521               05.3094627331E+02-4.444184984E+01+
*       6.1520269759E+00               0
GRID*               2522               05.4344629552E+02-4.594761540E+01+
*       1.2774196892E+01               0
GRID*               2523               05.3094629228E+02-4.596381903E+01+
*       1.2735677908E+01               0
GRID*               2524               05.6680406262E+02-4.433172958E+01+
*       3.3489170105E+00               0
GRID*               2525               05.4999998276E+02-4.643986338E+01+
*       9.8824237857E-01               0
GRID*               2526               07.9241699492E+023.6530841712E+01+
*       -2.446315064E+01               0
GRID*               2527               06.5000000003E+02-2.433059005E+01+
*       -3.990589347E+01               0
GRID*               2528               02.0821657732E+02-4.714738087E+01+
*       1.1532812295E+00               0
GRID*               2529               08.5598092796E+023.2085898938E+01+
*       -2.897481722E+01               0
GRID*               2530               07.7955720450E+02-4.554885748E+01+
*       1.3575672306E+01               0
GRID*               2531               04.4479641894E+024.4394989875E+01+
*       -1.668096116E+01               0
GRID*               2532               06.3125297879E+02-2.820725570E+01+
*       -3.401416703E+01               0
GRID*               2533               06.7499998993E+02-3.295744252E+01+
*       -3.155673764E+01               0
GRID*               2534               06.5629139357E+023.4970047634E+01+
*       -2.513165303E+01               0
GRID*               2535               08.5598093010E+024.0058184282E+01+
*       -2.602388522E+01               0
GRID*               2536               01.8731988480E+013.6672395845E+01+
*       2.4624834957E+01               0
GRID*               2537               05.4084585434E+014.3583479280E+01+
*       2.0172771694E+01               0
GRID*               2538               05.6820902616E+02-2.699834258E+01+
*       -3.886923038E+01               0
GRID*               2539               05.6285861990E+02-3.109388266E+01+
*       -3.197252791E+01               0
GRID*               2540               05.6964959363E+02-2.900735970E+01+
*       -3.645535667E+01               0
GRID*               2541               02.4999999579E+013.9833169528E+01+
*       2.3062718427E+01               0
GRID*               2542               04.3076295745E+024.1361968298E+01+
*       -1.585020618E+01               0
GRID*               2543               05.4344627331E+02-4.444184984E+01+
*       6.1520269756E+00               0
GRID*               2544               05.3094625258E+02-4.782028738E+01+
*       9.1227335941E-01               0
GRID*               2545               05.5430406262E+02-4.258985473E+01+
*       -8.773929318E+00               0
GRID*               2546               04.1972815411E+02-3.810355475E+01+
*       2.1909990803E+01               0
GRID*               2547               04.1305577660E+02-4.046790721E+01+
*       2.0523427262E+01               0
GRID*               2548               04.0582762249E+02-4.033659611E+01+
*       1.5943177262E+01               0
GRID*               2549               04.9999998697E+013.9847795440E+01+
*       2.3023866534E+01               0
GRID*               2550               04.1164558835E+014.3524283960E+01+
*       2.0055963414E+01               0
GRID*               2551               05.4084586740E+013.6622313788E+01+
*       2.5622043818E+01               0
GRID*               2552               06.6584584187E+014.3598030212E+01+
*       2.0133920736E+01               0
GRID*               2553               04.3805939733E+024.1253576453E+01+
*       -1.974824495E+01               0
GRID*               2554               04.3076297459E+024.1738982251E+01+
*       -2.159870371E+01               0
GRID*               2555               06.8727156126E+01-2.930663044E+01+
*       -3.731481217E+01               0
GRID*               2556               01.9426181572E+02-1.480896198E+01+
*       -4.081414633E+01               0
GRID*               2557               02.6835657612E+024.1544018654E+01+
*       1.2869792144E+01               0
GRID*               2558               07.5584646834E+02-6.547030818E+00+
*       -4.329855797E+01               0
GRID*               2559               02.9335549611E+024.1555860846E+01+
*       1.2855036410E+01               0
GRID*               2560               01.9227878417E+021.8474095981E+01+
*       4.3917868547E+01               0
GRID*               2561               01.8731988478E+014.1758009608E+01+
*       1.3481437017E+01               0
GRID*               2562               03.1835441930E+024.1567684230E+01+
*       1.2840271577E+01               0
GRID*               2563               02.3104877208E+02-3.628457763E+01+
*       2.9554233078E+01               0
GRID*               2564               07.1858114410E+02-4.386520732E+01+
*       -9.319606767E-01               0
GRID*               2565               05.8141952000E+023.6415059869E+01+
*       -2.447942793E+01               0
GRID*               2566               05.5711167557E+021.8069789270E+01+
*       -3.991749371E+01               0
GRID*               2567               06.0656267962E+024.0982286880E+01+
*       -2.463572796E+01               0
GRID*               2568               06.4263052738E+02-4.415667588E+01+
*       -3.996928452E-01               0
GRID*               2569               03.9268983347E+02-4.355192365E+01+
*       -1.932476966E+00               0
GRID*               2570               05.3163732518E+023.6150051192E+01+
*       -2.410808339E+01               0
GRID*               2571               06.3083076333E+02-5.818208284E+00+
*       -4.350988153E+01               0
GRID*               2572               03.3362740646E+01-2.851156831E+01+
*       3.4164855719E+01               0
GRID*               2573               05.5967043636E+01-1.759987196E+01+
*       4.3699173838E+01               0
GRID*               2574               04.5593566041E+023.5052352125E+01+
*       -2.583586332E+01               0
GRID*               2575               07.3155598820E+024.0813225087E+01+
*       -2.493943095E+01               0
GRID*               2576               02.6825197753E+02-1.766528135E+01+
*       -3.993888294E+01               0
GRID*               2577               08.0738502338E+01-3.470789376E+01+
*       3.2505812256E+01               0
GRID*               2578               06.7688144706E+01-2.558811900E+01+
*       -4.036327869E+01               0
GRID*               2579               01.0655424177E+02-4.616375943E+01+
*       1.2525958426E+01               0
GRID*               2580               03.3258869049E+023.5429731397E+01+
*       -2.545182468E+01               0
GRID*               2581               02.9407738697E+02-4.196601692E+01+
*       -2.143391848E+01               0
GRID*               2582               06.6584586739E+014.1707927551E+01+
*       1.4478645880E+01               0
GRID*               2583               05.4084586739E+014.1707927551E+01+
*       1.4478645880E+01               0
GRID*               2584               01.6249998764E+024.6315154866E+01+
*       -1.668047366E-01               0
GRID*               2585               04.1164560139E+014.1648732231E+01+
*       1.4361837599E+01               0
GRID*               2586               02.8664560139E+014.1648732231E+01+
*       1.4361837599E+01               0
GRID*               2587               05.6998973226E+02-4.375003943E+01+
*       -1.820745438E+00               0
GRID*               2588               06.6843953666E+02-4.780348389E+01+
*       1.3046165662E+00               0
GRID*               2589               05.4344625606E+02-4.782385575E+01+
*       9.5392656620E-01               0
GRID*               2590               04.5730834989E+02-4.436712812E+01+
*       6.3412873797E+00               0
GRID*               2591               04.6404997061E+02-4.412652261E+01+
*       1.1981571880E+01               0
GRID*               2592               04.6924162895E+02-4.437155043E+01+
*       1.8332888309E+01               0
GRID*               2593               00.0000000000E+00-4.490408105E+01+
*       1.1958189586E+01               0
GRID*               2594               00.0000000000E+00-4.634635092E+01+
*       7.9793438187E-02               0
GRID*               2595               00.0000000000E+00-1.161804689E+01+
*       -4.388632395E+01               0
GRID*               2596               00.0000000000E+00-2.338475959E+01+
*       -4.042858912E+01               0
GRID*               2597               00.0000000000E+004.3115756843E-15+
*       -4.675000000E+01               0
GRID*               2598               00.0000000000E+00-4.460447609E+01+
*       -1.204305288E+01               0
GRID*               2599               00.0000000000E+00-4.036147335E+01+
*       -2.323115937E+01               0
GRID*               2600               00.0000000000E+00-3.234113215E+01+
*       -3.249374961E+01               0
GRID*               2601               00.0000000000E+00-1.511320127E-01+
*       4.5140631876E+01               0
GRID*               2602               00.0000000000E+00-1.211690892E+01+
*       4.5140631881E+01               0
GRID*               2603               00.0000000000E+001.2116908920E+01+
*       4.5140631876E+01               0
GRID*               2604               00.0000000000E+00-3.981846723E+01+
*       2.3101587601E+01               0
GRID*               2605               00.0000000000E+00-3.302128654E+01+
*       3.2949216410E+01               0
GRID*               2606               00.0000000000E+00-2.271199208E+01+
*       3.9579757942E+01               0
GRID*               2607               00.0000000000E+001.1618046895E+01+
*       -4.388632395E+01               0
GRID*               2608               00.0000000000E+002.3384759590E+01+
*       -4.042858912E+01               0
GRID*               2609               00.0000000000E+003.2341132147E+01+
*       -3.249374961E+01               0
GRID*               2610               00.0000000000E+004.0361473348E+01+
*       -2.323115937E+01               0
GRID*               2611               00.0000000000E+004.4604476085E+01+
*       -1.204305288E+01               0
GRID*               2612               00.0000000000E+002.2711992085E+01+
*       3.9579757942E+01               0
GRID*               2613               00.0000000000E+003.3021286541E+01+
*       3.2949216410E+01               0
GRID*               2614               00.0000000000E+004.6346350925E+01+
*       7.9793438187E-02               0
GRID*               2615               00.0000000000E+004.4904081047E+01+
*       1.1958189586E+01               0
GRID*               2616               00.0000000000E+003.9818467234E+01+
*       2.3101587601E+01               0
GRID*               2617               08.7500000000E+02-2.353342521E+01+
*       -3.658453043E+01               0
GRID*               2618               08.7500000000E+02-3.957410777E+01+
*       -1.805934990E+01               0
GRID*               2619               08.7500000000E+02-4.305785747E+01+
*       6.1863427812E+00               0
GRID*               2620               08.7500000000E+02-3.288662995E+01+
*       2.8473138661E+01               0
GRID*               2621               08.7500000000E+02-1.226804092E+01+
*       4.1734221832E+01               0
GRID*               2622               08.7500000000E+021.2268040714E+01+
*       4.1734221920E+01               0
GRID*               2623               08.7500000000E+023.2886629770E+01+
*       2.8473138909E+01               0
GRID*               2624               08.7500000000E+024.3057857472E+01+
*       6.1863427962E+00               0
GRID*               2625               08.7500000000E+023.9574107813E+01+
*       -1.805934978E+01               0
GRID*               2626               08.7500000000E+022.3533425510E+01+
*       -3.658453019E+01               0
GRID*               2627               08.5000000000E+02-2.353342522E+01+
*       -3.658453043E+01               0
GRID*               2628               08.5000000000E+02-3.957410777E+01+
*       -1.805934990E+01               0
GRID*               2629               08.5000000000E+02-4.305785747E+01+
*       6.1863427814E+00               0
GRID*               2630               08.5000000000E+02-3.288662995E+01+
*       2.8473138659E+01               0
GRID*               2631               08.5000000000E+02-1.226804092E+01+
*       4.1734221833E+01               0
GRID*               2632               08.5000000000E+021.2268040715E+01+
*       4.1734221919E+01               0
GRID*               2633               08.5000000000E+023.2886629771E+01+
*       2.8473138908E+01               0
GRID*               2634               08.5000000000E+024.3057857472E+01+
*       6.1863427961E+00               0
GRID*               2635               08.5000000000E+023.9574107813E+01+
*       -1.805934978E+01               0
GRID*               2636               08.5000000000E+022.3533425512E+01+
*       -3.658453019E+01               0
GRID*               2637               08.2500000000E+02-2.353342522E+01+
*       -3.658453042E+01               0
GRID*               2638               08.2500000000E+02-3.957410777E+01+
*       -1.805934990E+01               0
GRID*               2639               08.2500000000E+02-4.305785747E+01+
*       6.1863427819E+00               0
GRID*               2640               08.2500000000E+02-3.288662994E+01+
*       2.8473138664E+01               0
GRID*               2641               08.2500000000E+02-1.226804091E+01+
*       4.1734221835E+01               0
GRID*               2642               08.2500000000E+021.2268040717E+01+
*       4.1734221919E+01               0
GRID*               2643               08.2500000000E+023.2886629772E+01+
*       2.8473138906E+01               0
GRID*               2644               08.2500000000E+024.3057857472E+01+
*       6.1863427960E+00               0
GRID*               2645               08.2500000000E+023.9574107812E+01+
*       -1.805934978E+01               0
GRID*               2646               08.2500000000E+022.3533425506E+01+
*       -3.658453019E+01               0
GRID*               2647               08.0000000000E+02-2.353342522E+01+
*       -3.658453042E+01               0
GRID*               2648               08.0000000000E+02-3.957410777E+01+
*       -1.805934990E+01               0
GRID*               2649               08.0000000000E+02-4.305785747E+01+
*       6.1863427824E+00               0
GRID*               2650               08.0000000000E+02-3.288662994E+01+
*       2.8473138671E+01               0
GRID*               2651               08.0000000000E+02-1.226804091E+01+
*       4.1734221838E+01               0
GRID*               2652               08.0000000000E+021.2268040719E+01+
*       4.1734221918E+01               0
GRID*               2653               08.0000000000E+023.2886629774E+01+
*       2.8473138903E+01               0
GRID*               2654               08.0000000000E+024.3057857472E+01+
*       6.1863427958E+00               0
GRID*               2655               08.0000000000E+023.9574107810E+01+
*       -1.805934978E+01               0
GRID*               2656               08.0000000000E+022.3533425497E+01+
*       -3.658453020E+01               0
GRID*               2657               07.7500000000E+02-2.353342523E+01+
*       -3.658453042E+01               0
GRID*               2658               07.7500000000E+02-3.957410777E+01+
*       -1.805934990E+01               0
GRID*               2659               07.7500000000E+02-4.305785747E+01+
*       6.1863427829E+00               0
GRID*               2660               07.7500000000E+02-3.288662993E+01+
*       2.8473138679E+01               0
GRID*               2661               07.7500000000E+02-1.226804090E+01+
*       4.1734221841E+01               0
GRID*               2662               07.7500000000E+021.2268040722E+01+
*       4.1734221917E+01               0
GRID*               2663               07.7500000000E+023.2886629777E+01+
*       2.8473138900E+01               0
GRID*               2664               07.7500000000E+024.3057857472E+01+
*       6.1863427956E+00               0
GRID*               2665               07.7500000000E+023.9574107809E+01+
*       -1.805934979E+01               0
GRID*               2666               07.7500000000E+022.3533425487E+01+
*       -3.658453021E+01               0
GRID*               2667               07.5000000000E+02-2.353342523E+01+
*       -3.658453041E+01               0
GRID*               2668               07.5000000000E+02-3.957410777E+01+
*       -1.805934990E+01               0
GRID*               2669               07.5000000000E+02-4.305785747E+01+
*       6.1863427834E+00               0
GRID*               2670               07.5000000000E+02-3.288662993E+01+
*       2.8473138688E+01               0
GRID*               2671               07.5000000000E+02-1.226804089E+01+
*       4.1734221844E+01               0
GRID*               2672               07.5000000000E+021.2268040725E+01+
*       4.1734221915E+01               0
GRID*               2673               07.5000000000E+023.2886629780E+01+
*       2.8473138895E+01               0
GRID*               2674               07.5000000000E+024.3057857472E+01+
*       6.1863427954E+00               0
GRID*               2675               07.5000000000E+023.9574107807E+01+
*       -1.805934979E+01               0
GRID*               2676               07.5000000000E+022.3533425477E+01+
*       -3.658453021E+01               0
GRID*               2677               07.2500000000E+02-2.353342524E+01+
*       -3.658453041E+01               0
GRID*               2678               07.2500000000E+02-3.957410777E+01+
*       -1.805934989E+01               0
GRID*               2679               07.2500000000E+02-4.305785747E+01+
*       6.1863427839E+00               0
GRID*               2680               07.2500000000E+02-3.288662992E+01+
*       2.8473138697E+01               0
GRID*               2681               07.2500000000E+02-1.226804088E+01+
*       4.1734221847E+01               0
GRID*               2682               07.2500000000E+021.2268040729E+01+
*       4.1734221914E+01               0
GRID*               2683               07.2500000000E+023.2886629783E+01+
*       2.8473138891E+01               0
GRID*               2684               07.2500000000E+024.3057857472E+01+
*       6.1863427951E+00               0
GRID*               2685               07.2500000000E+023.9574107806E+01+
*       -1.805934980E+01               0
GRID*               2686               07.2500000000E+022.3533425466E+01+
*       -3.658453022E+01               0
GRID*               2687               07.0000000000E+02-2.353342524E+01+
*       -3.658453040E+01               0
GRID*               2688               07.0000000000E+02-3.957410777E+01+
*       -1.805934989E+01               0
GRID*               2689               07.0000000000E+02-4.305785747E+01+
*       6.1863427845E+00               0
GRID*               2690               07.0000000000E+02-3.288662991E+01+
*       2.8473138706E+01               0
GRID*               2691               07.0000000000E+02-1.226804088E+01+
*       4.1734221850E+01               0
GRID*               2692               07.0000000000E+021.2268040733E+01+
*       4.1734221912E+01               0
GRID*               2693               07.0000000000E+023.2886629787E+01+
*       2.8473138885E+01               0
GRID*               2694               07.0000000000E+024.3057857472E+01+
*       6.1863427948E+00               0
GRID*               2695               07.0000000000E+023.9574107804E+01+
*       -1.805934980E+01               0
GRID*               2696               07.0000000000E+022.3533425455E+01+
*       -3.658453023E+01               0
GRID*               2697               06.7500000000E+02-2.353342525E+01+
*       -3.658453040E+01               0
GRID*               2698               06.7500000000E+02-3.957410777E+01+
*       -1.805934989E+01               0
GRID*               2699               06.7500000000E+02-4.305785747E+01+
*       6.1863427851E+00               0
GRID*               2700               06.7500000000E+02-3.288662991E+01+
*       2.8473138716E+01               0
GRID*               2701               06.7500000000E+02-1.226804087E+01+
*       4.1734221854E+01               0
GRID*               2702               06.7500000000E+021.2268040738E+01+
*       4.1734221910E+01               0
GRID*               2703               06.7500000000E+023.2886629791E+01+
*       2.8473138879E+01               0
GRID*               2704               06.7500000000E+024.3057857472E+01+
*       6.1863427945E+00               0
GRID*               2705               06.7500000000E+023.9574107802E+01+
*       -1.805934981E+01               0
GRID*               2706               06.7500000000E+022.3533425443E+01+
*       -3.658453024E+01               0
GRID*               2707               06.5000000000E+02-2.353342526E+01+
*       -3.658453039E+01               0
GRID*               2708               06.5000000000E+02-3.957410777E+01+
*       -1.805934988E+01               0
GRID*               2709               06.5000000000E+02-4.305785747E+01+
*       6.1863427857E+00               0
GRID*               2710               06.5000000000E+02-3.288662990E+01+
*       2.8473138726E+01               0
GRID*               2711               06.5000000000E+02-1.226804086E+01+
*       4.1734221857E+01               0
GRID*               2712               06.5000000000E+021.2268040743E+01+
*       4.1734221907E+01               0
GRID*               2713               06.5000000000E+023.2886629796E+01+
*       2.8473138873E+01               0
GRID*               2714               06.5000000000E+024.3057857472E+01+
*       6.1863427941E+00               0
GRID*               2715               06.5000000000E+023.9574107801E+01+
*       -1.805934981E+01               0
GRID*               2716               06.5000000000E+022.3533425431E+01+
*       -3.658453025E+01               0
GRID*               2717               06.2500000000E+02-2.353342527E+01+
*       -3.658453038E+01               0
GRID*               2718               06.2500000000E+02-3.957410778E+01+
*       -1.805934988E+01               0
GRID*               2719               06.2500000000E+02-4.305785747E+01+
*       6.1863427862E+00               0
GRID*               2720               06.2500000000E+02-3.288662989E+01+
*       2.8473138736E+01               0
GRID*               2721               06.2500000000E+02-1.226804085E+01+
*       4.1734221861E+01               0
GRID*               2722               06.2500000000E+021.2268040749E+01+
*       4.1734221905E+01               0
GRID*               2723               06.2500000000E+023.2886629801E+01+
*       2.8473138866E+01               0
GRID*               2724               06.2500000000E+024.3057857472E+01+
*       6.1863427937E+00               0
GRID*               2725               06.2500000000E+023.9574107799E+01+
*       -1.805934982E+01               0
GRID*               2726               06.2500000000E+022.3533425419E+01+
*       -3.658453026E+01               0
GRID*               2727               06.0000000000E+02-2.353342527E+01+
*       -3.658453038E+01               0
GRID*               2728               06.0000000000E+02-3.957410778E+01+
*       -1.805934988E+01               0
GRID*               2729               06.0000000000E+02-4.305785747E+01+
*       6.1863427868E+00               0
GRID*               2730               06.0000000000E+02-3.288662989E+01+
*       2.8473138746E+01               0
GRID*               2731               06.0000000000E+02-1.226804084E+01+
*       4.1734221864E+01               0
GRID*               2732               06.0000000000E+021.2268040755E+01+
*       4.1734221902E+01               0
GRID*               2733               06.0000000000E+023.2886629806E+01+
*       2.8473138858E+01               0
GRID*               2734               06.0000000000E+024.3057857472E+01+
*       6.1863427933E+00               0
GRID*               2735               06.0000000000E+023.9574107797E+01+
*       -1.805934982E+01               0
GRID*               2736               06.0000000000E+022.3533425407E+01+
*       -3.658453027E+01               0
GRID*               2737               05.7500000000E+02-2.353342528E+01+
*       -3.658453037E+01               0
GRID*               2738               05.7500000000E+02-3.957410778E+01+
*       -1.805934987E+01               0
GRID*               2739               05.7500000000E+02-4.305785747E+01+
*       6.1863427874E+00               0
GRID*               2740               05.7500000000E+02-3.288662988E+01+
*       2.8473138756E+01               0
GRID*               2741               05.7500000000E+02-1.226804084E+01+
*       4.1734221868E+01               0
GRID*               2742               05.7500000000E+021.2268040761E+01+
*       4.1734221900E+01               0
GRID*               2743               05.7500000000E+023.2886629812E+01+
*       2.8473138850E+01               0
GRID*               2744               05.7500000000E+024.3057857472E+01+
*       6.1863427928E+00               0
GRID*               2745               05.7500000000E+023.9574107795E+01+
*       -1.805934983E+01               0
GRID*               2746               05.7500000000E+022.3533425395E+01+
*       -3.658453028E+01               0
GRID*               2747               05.5000000000E+02-2.353342529E+01+
*       -3.658453036E+01               0
GRID*               2748               05.5000000000E+02-3.957410778E+01+
*       -1.805934987E+01               0
GRID*               2749               05.5000000000E+02-4.305785747E+01+
*       6.1863427880E+00               0
GRID*               2750               05.5000000000E+02-3.288662987E+01+
*       2.8473138766E+01               0
GRID*               2751               05.5000000000E+02-1.226804083E+01+
*       4.1734221871E+01               0
GRID*               2752               05.5000000000E+021.2268040768E+01+
*       4.1734221897E+01               0
GRID*               2753               05.5000000000E+023.2886629818E+01+
*       2.8473138842E+01               0
GRID*               2754               05.5000000000E+024.3057857472E+01+
*       6.1863427923E+00               0
GRID*               2755               05.5000000000E+023.9574107793E+01+
*       -1.805934983E+01               0
GRID*               2756               05.5000000000E+022.3533425383E+01+
*       -3.658453029E+01               0
GRID*               2757               05.2500000000E+02-2.353342530E+01+
*       -3.658453035E+01               0
GRID*               2758               05.2500000000E+02-3.957410778E+01+
*       -1.805934987E+01               0
GRID*               2759               05.2500000000E+02-4.305785747E+01+
*       6.1863427886E+00               0
GRID*               2760               05.2500000000E+02-3.288662986E+01+
*       2.8473138776E+01               0
GRID*               2761               05.2500000000E+02-1.226804082E+01+
*       4.1734221874E+01               0
GRID*               2762               05.2500000000E+021.2268040775E+01+
*       4.1734221894E+01               0
GRID*               2763               05.2500000000E+023.2886629824E+01+
*       2.8473138834E+01               0
GRID*               2764               05.2500000000E+024.3057857472E+01+
*       6.1863427919E+00               0
GRID*               2765               05.2500000000E+023.9574107792E+01+
*       -1.805934984E+01               0
GRID*               2766               05.2500000000E+022.3533425371E+01+
*       -3.658453030E+01               0
GRID*               2767               05.0000000000E+02-2.353342531E+01+
*       -3.658453035E+01               0
GRID*               2768               05.0000000000E+02-3.957410778E+01+
*       -1.805934986E+01               0
GRID*               2769               05.0000000000E+02-4.305785747E+01+
*       6.1863427891E+00               0
GRID*               2770               05.0000000000E+02-3.288662986E+01+
*       2.8473138786E+01               0
GRID*               2771               05.0000000000E+02-1.226804081E+01+
*       4.1734221878E+01               0
GRID*               2772               05.0000000000E+021.2268040782E+01+
*       4.1734221891E+01               0
GRID*               2773               05.0000000000E+023.2886629830E+01+
*       2.8473138825E+01               0
GRID*               2774               05.0000000000E+024.3057857472E+01+
*       6.1863427913E+00               0
GRID*               2775               05.0000000000E+023.9574107790E+01+
*       -1.805934984E+01               0
GRID*               2776               05.0000000000E+022.3533425359E+01+
*       -3.658453031E+01               0
GRID*               2777               04.7500000000E+02-2.353342533E+01+
*       -3.658453034E+01               0
GRID*               2778               04.7500000000E+02-3.957410778E+01+
*       -1.805934986E+01               0
GRID*               2779               04.7500000000E+02-4.305785747E+01+
*       6.1863427897E+00               0
GRID*               2780               04.7500000000E+02-3.288662985E+01+
*       2.8473138796E+01               0
GRID*               2781               04.7500000000E+02-1.226804080E+01+
*       4.1734221881E+01               0
GRID*               2782               04.7500000000E+021.2268040789E+01+
*       4.1734221888E+01               0
GRID*               2783               04.7500000000E+023.2886629837E+01+
*       2.8473138815E+01               0
GRID*               2784               04.7500000000E+024.3057857472E+01+
*       6.1863427908E+00               0
GRID*               2785               04.7500000000E+023.9574107788E+01+
*       -1.805934985E+01               0
GRID*               2786               04.7500000000E+022.3533425348E+01+
*       -3.658453032E+01               0
GRID*               2787               04.5000000000E+02-2.353342534E+01+
*       -3.658453033E+01               0
GRID*               2788               04.5000000000E+02-3.957410779E+01+
*       -1.805934985E+01               0
GRID*               2789               04.5000000000E+02-4.305785747E+01+
*       6.1863427903E+00               0
GRID*               2790               04.5000000000E+02-3.288662984E+01+
*       2.8473138806E+01               0
GRID*               2791               04.5000000000E+02-1.226804080E+01+
*       4.1734221885E+01               0
GRID*               2792               04.5000000000E+021.2268040797E+01+
*       4.1734221885E+01               0
GRID*               2793               04.5000000000E+023.2886629843E+01+
*       2.8473138806E+01               0
GRID*               2794               04.5000000000E+024.3057857472E+01+
*       6.1863427903E+00               0
GRID*               2795               04.5000000000E+023.9574107786E+01+
*       -1.805934985E+01               0
GRID*               2796               04.5000000000E+022.3533425336E+01+
*       -3.658453033E+01               0
GRID*               2797               04.2500000000E+02-2.353342535E+01+
*       -3.658453032E+01               0
GRID*               2798               04.2500000000E+02-3.957410779E+01+
*       -1.805934985E+01               0
GRID*               2799               04.2500000000E+02-4.305785747E+01+
*       6.1863427908E+00               0
GRID*               2800               04.2500000000E+02-3.288662984E+01+
*       2.8473138815E+01               0
GRID*               2801               04.2500000000E+02-1.226804079E+01+
*       4.1734221888E+01               0
GRID*               2802               04.2500000000E+021.2268040804E+01+
*       4.1734221881E+01               0
GRID*               2803               04.2500000000E+023.2886629850E+01+
*       2.8473138796E+01               0
GRID*               2804               04.2500000000E+024.3057857472E+01+
*       6.1863427897E+00               0
GRID*               2805               04.2500000000E+023.9574107785E+01+
*       -1.805934986E+01               0
GRID*               2806               04.2500000000E+022.3533425325E+01+
*       -3.658453034E+01               0
GRID*               2807               04.0000000000E+02-2.353342536E+01+
*       -3.658453031E+01               0
GRID*               2808               04.0000000000E+02-3.957410779E+01+
*       -1.805934984E+01               0
GRID*               2809               04.0000000000E+02-4.305785747E+01+
*       6.1863427913E+00               0
GRID*               2810               04.0000000000E+02-3.288662983E+01+
*       2.8473138825E+01               0
GRID*               2811               04.0000000000E+02-1.226804078E+01+
*       4.1734221891E+01               0
GRID*               2812               04.0000000000E+021.2268040812E+01+
*       4.1734221878E+01               0
GRID*               2813               04.0000000000E+023.2886629857E+01+
*       2.8473138786E+01               0
GRID*               2814               04.0000000000E+024.3057857472E+01+
*       6.1863427891E+00               0
GRID*               2815               04.0000000000E+023.9574107783E+01+
*       -1.805934986E+01               0
GRID*               2816               04.0000000000E+022.3533425314E+01+
*       -3.658453035E+01               0
GRID*               2817               03.7500000000E+02-2.353342537E+01+
*       -3.658453030E+01               0
GRID*               2818               03.7500000000E+02-3.957410779E+01+
*       -1.805934984E+01               0
GRID*               2819               03.7500000000E+02-4.305785747E+01+
*       6.1863427919E+00               0
GRID*               2820               03.7500000000E+02-3.288662982E+01+
*       2.8473138834E+01               0
GRID*               2821               03.7500000000E+02-1.226804077E+01+
*       4.1734221894E+01               0
GRID*               2822               03.7500000000E+021.2268040820E+01+
*       4.1734221874E+01               0
GRID*               2823               03.7500000000E+023.2886629864E+01+
*       2.8473138776E+01               0
GRID*               2824               03.7500000000E+024.3057857472E+01+
*       6.1863427886E+00               0
GRID*               2825               03.7500000000E+023.9574107781E+01+
*       -1.805934987E+01               0
GRID*               2826               03.7500000000E+022.3533425303E+01+
*       -3.658453035E+01               0
GRID*               2827               03.5000000000E+02-2.353342538E+01+
*       -3.658453029E+01               0
GRID*               2828               03.5000000000E+02-3.957410779E+01+
*       -1.805934983E+01               0
GRID*               2829               03.5000000000E+02-4.305785747E+01+
*       6.1863427923E+00               0
GRID*               2830               03.5000000000E+02-3.288662982E+01+
*       2.8473138842E+01               0
GRID*               2831               03.5000000000E+02-1.226804077E+01+
*       4.1734221897E+01               0
GRID*               2832               03.5000000000E+021.2268040828E+01+
*       4.1734221871E+01               0
GRID*               2833               03.5000000000E+023.2886629872E+01+
*       2.8473138766E+01               0
GRID*               2834               03.5000000000E+024.3057857472E+01+
*       6.1863427880E+00               0
GRID*               2835               03.5000000000E+023.9574107780E+01+
*       -1.805934987E+01               0
GRID*               2836               03.5000000000E+022.3533425293E+01+
*       -3.658453036E+01               0
GRID*               2837               03.2500000000E+02-2.353342540E+01+
*       -3.658453028E+01               0
GRID*               2838               03.2500000000E+02-3.957410780E+01+
*       -1.805934983E+01               0
GRID*               2839               03.2500000000E+02-4.305785747E+01+
*       6.1863427928E+00               0
GRID*               2840               03.2500000000E+02-3.288662981E+01+
*       2.8473138850E+01               0
GRID*               2841               03.2500000000E+02-1.226804076E+01+
*       4.1734221900E+01               0
GRID*               2842               03.2500000000E+021.2268040836E+01+
*       4.1734221868E+01               0
GRID*               2843               03.2500000000E+023.2886629879E+01+
*       2.8473138756E+01               0
GRID*               2844               03.2500000000E+024.3057857472E+01+
*       6.1863427874E+00               0
GRID*               2845               03.2500000000E+023.9574107778E+01+
*       -1.805934987E+01               0
GRID*               2846               03.2500000000E+022.3533425283E+01+
*       -3.658453037E+01               0
GRID*               2847               03.0000000000E+02-2.353342541E+01+
*       -3.658453027E+01               0
GRID*               2848               03.0000000000E+02-3.957410780E+01+
*       -1.805934982E+01               0
GRID*               2849               03.0000000000E+02-4.305785747E+01+
*       6.1863427933E+00               0
GRID*               2850               03.0000000000E+02-3.288662981E+01+
*       2.8473138858E+01               0
GRID*               2851               03.0000000000E+02-1.226804075E+01+
*       4.1734221902E+01               0
GRID*               2852               03.0000000000E+021.2268040844E+01+
*       4.1734221864E+01               0
GRID*               2853               03.0000000000E+023.2886629886E+01+
*       2.8473138746E+01               0
GRID*               2854               03.0000000000E+024.3057857472E+01+
*       6.1863427868E+00               0
GRID*               2855               03.0000000000E+023.9574107777E+01+
*       -1.805934988E+01               0
GRID*               2856               03.0000000000E+022.3533425274E+01+
*       -3.658453038E+01               0
GRID*               2857               02.7500000000E+02-2.353342542E+01+
*       -3.658453026E+01               0
GRID*               2858               02.7500000000E+02-3.957410780E+01+
*       -1.805934982E+01               0
GRID*               2859               02.7500000000E+02-4.305785747E+01+
*       6.1863427937E+00               0
GRID*               2860               02.7500000000E+02-3.288662980E+01+
*       2.8473138866E+01               0
GRID*               2861               02.7500000000E+02-1.226804075E+01+
*       4.1734221905E+01               0
GRID*               2862               02.7500000000E+021.2268040852E+01+
*       4.1734221861E+01               0
GRID*               2863               02.7500000000E+023.2886629893E+01+
*       2.8473138736E+01               0
GRID*               2864               02.7500000000E+024.3057857472E+01+
*       6.1863427862E+00               0
GRID*               2865               02.7500000000E+023.9574107776E+01+
*       -1.805934988E+01               0
GRID*               2866               02.7500000000E+022.3533425265E+01+
*       -3.658453038E+01               0
GRID*               2867               02.5000000000E+02-2.353342543E+01+
*       -3.658453025E+01               0
GRID*               2868               02.5000000000E+02-3.957410780E+01+
*       -1.805934981E+01               0
GRID*               2869               02.5000000000E+02-4.305785747E+01+
*       6.1863427941E+00               0
GRID*               2870               02.5000000000E+02-3.288662980E+01+
*       2.8473138873E+01               0
GRID*               2871               02.5000000000E+02-1.226804074E+01+
*       4.1734221907E+01               0
GRID*               2872               02.5000000000E+021.2268040860E+01+
*       4.1734221857E+01               0
GRID*               2873               02.5000000000E+023.2886629900E+01+
*       2.8473138726E+01               0
GRID*               2874               02.5000000000E+024.3057857472E+01+
*       6.1863427857E+00               0
GRID*               2875               02.5000000000E+023.9574107774E+01+
*       -1.805934988E+01               0
GRID*               2876               02.5000000000E+022.3533425257E+01+
*       -3.658453039E+01               0
GRID*               2877               02.2500000000E+02-2.353342544E+01+
*       -3.658453024E+01               0
GRID*               2878               02.2500000000E+02-3.957410780E+01+
*       -1.805934981E+01               0
GRID*               2879               02.2500000000E+02-4.305785747E+01+
*       6.1863427945E+00               0
GRID*               2880               02.2500000000E+02-3.288662979E+01+
*       2.8473138879E+01               0
GRID*               2881               02.2500000000E+02-1.226804074E+01+
*       4.1734221910E+01               0
GRID*               2882               02.2500000000E+021.2268040868E+01+
*       4.1734221854E+01               0
GRID*               2883               02.2500000000E+023.2886629907E+01+
*       2.8473138716E+01               0
GRID*               2884               02.2500000000E+024.3057857472E+01+
*       6.1863427851E+00               0
GRID*               2885               02.2500000000E+023.9574107773E+01+
*       -1.805934989E+01               0
GRID*               2886               02.2500000000E+022.3533425249E+01+
*       -3.658453040E+01               0
GRID*               2887               02.0000000000E+02-2.353342545E+01+
*       -3.658453023E+01               0
GRID*               2888               02.0000000000E+02-3.957410780E+01+
*       -1.805934980E+01               0
GRID*               2889               02.0000000000E+02-4.305785747E+01+
*       6.1863427948E+00               0
GRID*               2890               02.0000000000E+02-3.288662979E+01+
*       2.8473138885E+01               0
GRID*               2891               02.0000000000E+02-1.226804073E+01+
*       4.1734221912E+01               0
GRID*               2892               02.0000000000E+021.2268040876E+01+
*       4.1734221850E+01               0
GRID*               2893               02.0000000000E+023.2886629914E+01+
*       2.8473138706E+01               0
GRID*               2894               02.0000000000E+024.3057857473E+01+
*       6.1863427845E+00               0
GRID*               2895               02.0000000000E+023.9574107772E+01+
*       -1.805934989E+01               0
GRID*               2896               02.0000000000E+022.3533425242E+01+
*       -3.658453040E+01               0
GRID*               2897               01.7500000000E+02-2.353342547E+01+
*       -3.658453022E+01               0
GRID*               2898               01.7500000000E+02-3.957410781E+01+
*       -1.805934980E+01               0
GRID*               2899               01.7500000000E+02-4.305785747E+01+
*       6.1863427951E+00               0
GRID*               2900               01.7500000000E+02-3.288662978E+01+
*       2.8473138891E+01               0
GRID*               2901               01.7500000000E+02-1.226804073E+01+
*       4.1734221914E+01               0
GRID*               2902               01.7500000000E+021.2268040884E+01+
*       4.1734221847E+01               0
GRID*               2903               01.7500000000E+023.2886629921E+01+
*       2.8473138697E+01               0
GRID*               2904               01.7500000000E+024.3057857473E+01+
*       6.1863427839E+00               0
GRID*               2905               01.7500000000E+023.9574107771E+01+
*       -1.805934989E+01               0
GRID*               2906               01.7500000000E+022.3533425236E+01+
*       -3.658453041E+01               0
GRID*               2907               01.5000000000E+02-2.353342548E+01+
*       -3.658453021E+01               0
GRID*               2908               01.5000000000E+02-3.957410781E+01+
*       -1.805934979E+01               0
GRID*               2909               01.5000000000E+02-4.305785747E+01+
*       6.1863427954E+00               0
GRID*               2910               01.5000000000E+02-3.288662978E+01+
*       2.8473138895E+01               0
GRID*               2911               01.5000000000E+02-1.226804073E+01+
*       4.1734221915E+01               0
GRID*               2912               01.5000000000E+021.2268040891E+01+
*       4.1734221844E+01               0
GRID*               2913               01.5000000000E+023.2886629928E+01+
*       2.8473138688E+01               0
GRID*               2914               01.5000000000E+024.3057857473E+01+
*       6.1863427834E+00               0
GRID*               2915               01.5000000000E+023.9574107770E+01+
*       -1.805934990E+01               0
GRID*               2916               01.5000000000E+022.3533425230E+01+
*       -3.658453041E+01               0
GRID*               2917               01.2500000000E+02-2.353342549E+01+
*       -3.658453021E+01               0
GRID*               2918               01.2500000000E+02-3.957410781E+01+
*       -1.805934979E+01               0
GRID*               2919               01.2500000000E+02-4.305785747E+01+
*       6.1863427956E+00               0
GRID*               2920               01.2500000000E+02-3.288662978E+01+
*       2.8473138900E+01               0
GRID*               2921               01.2500000000E+02-1.226804072E+01+
*       4.1734221917E+01               0
GRID*               2922               01.2500000000E+021.2268040899E+01+
*       4.1734221841E+01               0
GRID*               2923               01.2500000000E+023.2886629934E+01+
*       2.8473138679E+01               0
GRID*               2924               01.2500000000E+024.3057857473E+01+
*       6.1863427829E+00               0
GRID*               2925               01.2500000000E+023.9574107770E+01+
*       -1.805934990E+01               0
GRID*               2926               01.2500000000E+022.3533425225E+01+
*       -3.658453042E+01               0
GRID*               2927               01.0000000000E+02-2.353342550E+01+
*       -3.658453020E+01               0
GRID*               2928               01.0000000000E+02-3.957410781E+01+
*       -1.805934978E+01               0
GRID*               2929               01.0000000000E+02-4.305785747E+01+
*       6.1863427958E+00               0
GRID*               2930               01.0000000000E+02-3.288662977E+01+
*       2.8473138903E+01               0
GRID*               2931               01.0000000000E+02-1.226804072E+01+
*       4.1734221918E+01               0
GRID*               2932               01.0000000000E+021.2268040905E+01+
*       4.1734221838E+01               0
GRID*               2933               01.0000000000E+023.2886629940E+01+
*       2.8473138671E+01               0
GRID*               2934               01.0000000000E+024.3057857473E+01+
*       6.1863427824E+00               0
GRID*               2935               01.0000000000E+023.9574107769E+01+
*       -1.805934990E+01               0
GRID*               2936               01.0000000000E+022.3533425221E+01+
*       -3.658453042E+01               0
GRID*               2937               07.5000000004E+01-2.353342551E+01+
*       -3.658453019E+01               0
GRID*               2938               07.5000000001E+01-3.957410781E+01+
*       -1.805934978E+01               0
GRID*               2939               07.5000000000E+01-4.305785747E+01+
*       6.1863427960E+00               0
GRID*               2940               07.5000000000E+01-3.288662977E+01+
*       2.8473138906E+01               0
GRID*               2941               07.5000000000E+01-1.226804072E+01+
*       4.1734221919E+01               0
GRID*               2942               07.5000000002E+011.2268040912E+01+
*       4.1734221835E+01               0
GRID*               2943               07.5000000003E+013.2886629945E+01+
*       2.8473138664E+01               0
GRID*               2944               07.5000000000E+014.3057857473E+01+
*       6.1863427819E+00               0
GRID*               2945               07.5000000000E+013.9574107769E+01+
*       -1.805934990E+01               0
GRID*               2946               07.5000000000E+012.3533425218E+01+
*       -3.658453042E+01               0
GRID*               2947               05.0000000004E+01-2.353342551E+01+
*       -3.658453019E+01               0
GRID*               2948               05.0000000001E+01-3.957410781E+01+
*       -1.805934978E+01               0
GRID*               2949               05.0000000000E+01-4.305785747E+01+
*       6.1863427961E+00               0
GRID*               2950               05.0000000000E+01-3.288662977E+01+
*       2.8473138908E+01               0
GRID*               2951               05.0000000000E+01-1.226804072E+01+
*       4.1734221919E+01               0
GRID*               2952               05.0000000003E+011.2268040917E+01+
*       4.1734221833E+01               0
GRID*               2953               05.0000000003E+013.2886629948E+01+
*       2.8473138659E+01               0
GRID*               2954               05.0000000000E+014.3057857473E+01+
*       6.1863427814E+00               0
GRID*               2955               05.0000000000E+013.9574107768E+01+
*       -1.805934990E+01               0
GRID*               2956               05.0000000000E+012.3533425215E+01+
*       -3.658453043E+01               0
GRID*               2957               02.5000000004E+01-2.353342551E+01+
*       -3.658453019E+01               0
GRID*               2958               02.5000000001E+01-3.957410781E+01+
*       -1.805934978E+01               0
GRID*               2959               02.5000000000E+01-4.305785747E+01+
*       6.1863427962E+00               0
GRID*               2960               02.5000000000E+01-3.288662977E+01+
*       2.8473138909E+01               0
GRID*               2961               02.5000000000E+01-1.226804071E+01+
*       4.1734221920E+01               0
GRID*               2962               02.5000000003E+011.2268040918E+01+
*       4.1734221832E+01               0
GRID*               2963               02.5000000003E+013.2886629947E+01+
*       2.8473138661E+01               0
GRID*               2964               02.5000000000E+014.3057857473E+01+
*       6.1863427812E+00               0
GRID*               2965               02.5000000000E+013.9574107768E+01+
*       -1.805934990E+01               0
GRID*               2966               02.5000000000E+012.3533425214E+01+
*       -3.658453043E+01               0
GRID*               2967               08.6250000000E+02-2.353342521E+01+
*       -3.658453043E+01               0
GRID*               2968               08.6250000000E+02-3.288662977E+01+
*       -2.847313891E+01               0
GRID*               2969               08.7500000000E+02-3.288662977E+01+
*       -2.847313891E+01               0
GRID*               2970               08.5000000000E+02-3.288662977E+01+
*       -2.847313891E+01               0
GRID*               2971               08.6250000000E+02-3.957410777E+01+
*       -1.805934990E+01               0
GRID*               2972               08.6250000000E+02-4.305785747E+01+
*       -6.186342796E+00               0
GRID*               2973               08.7500000000E+02-4.262238876E+01+
*       -6.123882987E+00               0
GRID*               2974               08.5000000000E+02-4.218692005E+01+
*       -6.061423178E+00               0
GRID*               2975               08.6250000000E+02-4.305785747E+01+
*       6.1863427813E+00               0
GRID*               2976               08.6250000000E+02-3.837270974E+01+
*       1.7512142985E+01               0
GRID*               2977               08.7500000000E+02-3.857294275E+01+
*       1.7603344117E+01               0
GRID*               2978               08.5000000000E+02-3.837270974E+01+
*       1.7512142984E+01               0
GRID*               2979               08.6250000000E+02-3.288662995E+01+
*       2.8473138659E+01               0
GRID*               2980               08.6250000000E+02-2.353342551E+01+
*       3.6584530185E+01               0
GRID*               2981               08.7500000000E+02-2.353342551E+01+
*       3.6584530188E+01               0
GRID*               2982               08.5000000000E+02-2.353342551E+01+
*       3.6584530186E+01               0
GRID*               2983               08.6250000000E+02-1.226804092E+01+
*       4.1734221832E+01               0
GRID*               2984               08.6250000000E+02-4.438029260E-08+
*       4.2727472071E+01               0
GRID*               2985               08.7500000000E+02-2.558317213E-08+
*       4.3058555469E+01               0
GRID*               2986               08.5000000000E+02-2.526660097E-08+
*       4.3058555469E+01               0
GRID*               2987               08.6250000000E+021.2268040715E+01+
*       4.1734221920E+01               0
GRID*               2988               08.6250000000E+022.3533425214E+01+
*       3.6584530426E+01               0
GRID*               2989               08.7500000000E+022.3294402721E+01+
*       3.6214317923E+01               0
GRID*               2990               08.5000000000E+022.3533425215E+01+
*       3.6584530425E+01               0
GRID*               2991               08.6250000000E+023.2886629770E+01+
*       2.8473138909E+01               0
GRID*               2992               08.6250000000E+023.8873292204E+01+
*       1.7740145943E+01               0
GRID*               2993               08.7500000000E+023.9173641731E+01+
*       1.7876947640E+01               0
GRID*               2994               08.5000000000E+023.9173641731E+01+
*       1.7876947640E+01               0
GRID*               2995               08.6250000000E+024.3057857472E+01+
*       6.1863427961E+00               0
GRID*               2996               08.6250000000E+024.3057857473E+01+
*       -6.186342781E+00               0
GRID*               2997               08.7500000000E+024.3057857473E+01+
*       -6.186342781E+00               0
GRID*               2998               08.5000000000E+024.3057857473E+01+
*       -6.186342781E+00               0
GRID*               2999               08.6250000000E+023.9574107813E+01+
*       -1.805934978E+01               0
GRID*               3000               08.6250000000E+023.1886982483E+01+
*       -2.760973965E+01               0
GRID*               3001               08.7500000000E+023.2220198304E+01+
*       -2.789753932E+01               0
GRID*               3002               08.5000000000E+023.2053590395E+01+
*       -2.775363949E+01               0
GRID*               3003               08.6250000000E+022.3533425512E+01+
*       -3.658453019E+01               0
GRID*               3004               08.3750000000E+02-2.353342522E+01+
*       -3.658453042E+01               0
GRID*               3005               08.3750000000E+02-3.288662977E+01+
*       -2.847313891E+01               0
GRID*               3006               08.2500000000E+02-3.288662977E+01+
*       -2.847313891E+01               0
GRID*               3007               08.3750000000E+02-3.957410777E+01+
*       -1.805934990E+01               0
GRID*               3008               08.3750000000E+02-4.196918569E+01+
*       -6.030193273E+00               0
GRID*               3009               08.2500000000E+02-4.262238876E+01+
*       -6.123882987E+00               0
GRID*               3010               08.3750000000E+02-4.305785747E+01+
*       6.1863427816E+00               0
GRID*               3011               08.3750000000E+02-3.957410781E+01+
*       1.8059349779E+01               0
GRID*               3012               08.2500000000E+02-3.877317576E+01+
*       1.7694545252E+01               0
GRID*               3013               08.3750000000E+02-3.288662995E+01+
*       2.8473138661E+01               0
GRID*               3014               08.3750000000E+02-2.353342551E+01+
*       3.6584530188E+01               0
GRID*               3015               08.2500000000E+02-2.353342551E+01+
*       3.6584530191E+01               0
GRID*               3016               08.3750000000E+02-1.226804091E+01+
*       4.1734221834E+01               0
GRID*               3017               08.3750000000E+02-5.788278145E-11+
*       4.3500000000E+01               0
GRID*               3018               08.2500000000E+02-6.463803774E-11+
*       4.3500000000E+01               0
GRID*               3019               08.3750000000E+021.2268040716E+01+
*       4.1734221919E+01               0
GRID*               3020               08.3750000000E+022.3533425216E+01+
*       3.6584530424E+01               0
GRID*               3021               08.2500000000E+022.3533425218E+01+
*       3.6584530423E+01               0
GRID*               3022               08.3750000000E+023.2886629772E+01+
*       2.8473138907E+01               0
GRID*               3023               08.3750000000E+023.9574107768E+01+
*       1.8059349902E+01               0
GRID*               3024               08.2500000000E+023.9574107769E+01+
*       1.8059349901E+01               0
GRID*               3025               08.3750000000E+024.3057857472E+01+
*       6.1863427960E+00               0
GRID*               3026               08.3750000000E+024.3057857473E+01+
*       -6.186342782E+00               0
GRID*               3027               08.2500000000E+024.3057857473E+01+
*       -6.186342782E+00               0
GRID*               3028               08.3750000000E+023.9574107812E+01+
*       -1.805934978E+01               0
GRID*               3029               08.3750000000E+023.2053590394E+01+
*       -2.775363949E+01               0
GRID*               3030               08.2500000000E+023.2220198302E+01+
*       -2.789753932E+01               0
GRID*               3031               08.3750000000E+022.3533425509E+01+
*       -3.658453019E+01               0
GRID*               3032               08.1250000000E+02-2.353342522E+01+
*       -3.658453042E+01               0
GRID*               3033               08.1250000000E+02-3.288662977E+01+
*       -2.847313890E+01               0
GRID*               3034               08.0000000000E+02-3.288662977E+01+
*       -2.847313890E+01               0
GRID*               3035               08.1250000000E+02-3.957410777E+01+
*       -1.805934990E+01               0
GRID*               3036               08.1250000000E+02-4.305785747E+01+
*       -6.186342796E+00               0
GRID*               3037               08.0000000000E+02-4.262238876E+01+
*       -6.123882987E+00               0
GRID*               3038               08.1250000000E+02-4.305785747E+01+
*       6.1863427821E+00               0
GRID*               3039               08.1250000000E+02-3.837270973E+01+
*       1.7512142988E+01               0
GRID*               3040               08.0000000000E+02-3.877317576E+01+
*       1.7694545256E+01               0
GRID*               3041               08.1250000000E+02-3.288662994E+01+
*       2.8473138667E+01               0
GRID*               3042               08.1250000000E+02-2.353342550E+01+
*       3.6584530194E+01               0
GRID*               3043               08.0000000000E+02-2.353342550E+01+
*       3.6584530198E+01               0
GRID*               3044               08.1250000000E+02-1.226804091E+01+
*       4.1734221837E+01               0
GRID*               3045               08.1250000000E+02-5.474727039E-11+
*       4.3500000000E+01               0
GRID*               3046               08.0000000000E+02-6.144563233E-11+
*       4.3500000000E+01               0
GRID*               3047               08.1250000000E+021.2268040718E+01+
*       4.1734221918E+01               0
GRID*               3048               08.1250000000E+022.3533425219E+01+
*       3.6584530422E+01               0
GRID*               3049               08.0000000000E+022.3533425221E+01+
*       3.6584530421E+01               0
GRID*               3050               08.1250000000E+023.2886629773E+01+
*       2.8473138905E+01               0
GRID*               3051               08.1250000000E+023.8773175696E+01+
*       1.7694545375E+01               0
GRID*               3052               08.0000000000E+023.8773175696E+01+
*       1.7694545375E+01               0
GRID*               3053               08.1250000000E+024.3057857472E+01+
*       6.1863427959E+00               0
GRID*               3054               08.1250000000E+024.3057857473E+01+
*       -6.186342782E+00               0
GRID*               3055               08.0000000000E+024.3057857473E+01+
*       -6.186342782E+00               0
GRID*               3056               08.1250000000E+023.9574107811E+01+
*       -1.805934978E+01               0
GRID*               3057               08.1250000000E+023.2886629942E+01+
*       -2.847313867E+01               0
GRID*               3058               08.0000000000E+023.2886629940E+01+
*       -2.847313867E+01               0
GRID*               3059               08.1250000000E+022.3533425502E+01+
*       -3.658453019E+01               0
GRID*               3060               07.8750000000E+02-2.353342522E+01+
*       -3.658453042E+01               0
GRID*               3061               07.8750000000E+02-3.288662978E+01+
*       -2.847313890E+01               0
GRID*               3062               07.7500000000E+02-3.288662978E+01+
*       -2.847313890E+01               0
GRID*               3063               07.8750000000E+02-3.957410777E+01+
*       -1.805934990E+01               0
GRID*               3064               07.8750000000E+02-4.229578722E+01+
*       -6.077038129E+00               0
GRID*               3065               07.7500000000E+02-4.262238876E+01+
*       -6.123882986E+00               0
GRID*               3066               07.8750000000E+02-4.305785747E+01+
*       6.1863427826E+00               0
GRID*               3067               07.8750000000E+02-3.957410781E+01+
*       1.8059349787E+01               0
GRID*               3068               07.7500000000E+02-3.957410781E+01+
*       1.8059349789E+01               0
GRID*               3069               07.8750000000E+02-3.288662994E+01+
*       2.8473138675E+01               0
GRID*               3070               07.8750000000E+02-2.353342549E+01+
*       3.6584530202E+01               0
GRID*               3071               07.7500000000E+02-2.353342549E+01+
*       3.6584530206E+01               0
GRID*               3072               07.8750000000E+02-1.226804090E+01+
*       4.1734221839E+01               0
GRID*               3073               07.8750000000E+02-5.155486497E-11+
*       4.3500000000E+01               0
GRID*               3074               07.7500000000E+02-5.828230625E-11+
*       4.3500000000E+01               0
GRID*               3075               07.8750000000E+021.2268040720E+01+
*       4.1734221917E+01               0
GRID*               3076               07.8750000000E+022.3533425223E+01+
*       3.6584530419E+01               0
GRID*               3077               07.7500000000E+022.3533425225E+01+
*       3.6584530417E+01               0
GRID*               3078               07.8750000000E+023.2886629775E+01+
*       2.8473138901E+01               0
GRID*               3079               07.8750000000E+023.9173641733E+01+
*       1.7876947636E+01               0
GRID*               3080               07.7500000000E+023.8873292206E+01+
*       1.7740145939E+01               0
GRID*               3081               07.8750000000E+024.3057857472E+01+
*       6.1863427957E+00               0
GRID*               3082               07.8750000000E+024.3057857473E+01+
*       -6.186342783E+00               0
GRID*               3083               07.7500000000E+024.3057857473E+01+
*       -6.186342783E+00               0
GRID*               3084               07.8750000000E+023.9574107810E+01+
*       -1.805934979E+01               0
GRID*               3085               07.8750000000E+023.2553414116E+01+
*       -2.818533900E+01               0
GRID*               3086               07.7500000000E+023.2553414112E+01+
*       -2.818533901E+01               0
GRID*               3087               07.8750000000E+022.3533425492E+01+
*       -3.658453020E+01               0
GRID*               3088               07.6250000000E+02-2.353342523E+01+
*       -3.658453042E+01               0
GRID*               3089               07.6250000000E+02-3.288662978E+01+
*       -2.847313890E+01               0
GRID*               3090               07.5000000000E+02-3.288662978E+01+
*       -2.847313890E+01               0
GRID*               3091               07.6250000000E+02-3.957410777E+01+
*       -1.805934990E+01               0
GRID*               3092               07.6250000000E+02-4.262238876E+01+
*       -6.123882986E+00               0
GRID*               3093               07.5000000000E+02-4.262238876E+01+
*       -6.123882986E+00               0
GRID*               3094               07.6250000000E+02-4.305785747E+01+
*       6.1863427831E+00               0
GRID*               3095               07.6250000000E+02-3.957410781E+01+
*       1.8059349791E+01               0
GRID*               3096               07.5000000000E+02-3.917364178E+01+
*       1.7876947529E+01               0
GRID*               3097               07.6250000000E+02-3.288662993E+01+
*       2.8473138683E+01               0
GRID*               3098               07.6250000000E+02-2.353342548E+01+
*       3.6584530210E+01               0
GRID*               3099               07.5000000000E+02-2.353342548E+01+
*       3.6584530214E+01               0
GRID*               3100               07.6250000000E+02-1.226804090E+01+
*       4.1734221842E+01               0
GRID*               3101               07.6250000000E+02-4.836372388E-11+
*       4.3500000000E+01               0
GRID*               3102               07.5000000000E+02-5.508990083E-11+
*       4.3500000000E+01               0
GRID*               3103               07.6250000000E+021.2268040723E+01+
*       4.1734221916E+01               0
GRID*               3104               07.6250000000E+022.3533425227E+01+
*       3.6584530415E+01               0
GRID*               3105               07.5000000000E+022.3533425230E+01+
*       3.6584530413E+01               0
GRID*               3106               07.6250000000E+023.2886629778E+01+
*       2.8473138898E+01               0
GRID*               3107               07.6250000000E+023.9173641734E+01+
*       1.7876947634E+01               0
GRID*               3108               07.5000000000E+023.8773175698E+01+
*       1.7694545371E+01               0
GRID*               3109               07.6250000000E+024.3057857472E+01+
*       6.1863427955E+00               0
GRID*               3110               07.6250000000E+024.3057857473E+01+
*       -6.186342783E+00               0
GRID*               3111               07.5000000000E+024.3057857473E+01+
*       -6.186342783E+00               0
GRID*               3112               07.6250000000E+023.9574107808E+01+
*       -1.805934979E+01               0
GRID*               3113               07.6250000000E+023.2053590379E+01+
*       -2.775363951E+01               0
GRID*               3114               07.5000000000E+023.2220198285E+01+
*       -2.789753935E+01               0
GRID*               3115               07.6250000000E+022.3533425482E+01+
*       -3.658453021E+01               0
GRID*               3116               07.3750000000E+02-2.353342523E+01+
*       -3.658453041E+01               0
GRID*               3117               07.3750000000E+02-3.288662978E+01+
*       -2.847313889E+01               0
GRID*               3118               07.2500000000E+02-3.288662978E+01+
*       -2.847313889E+01               0
GRID*               3119               07.3750000000E+02-3.957410777E+01+
*       -1.805934990E+01               0
GRID*               3120               07.3750000000E+02-4.305785747E+01+
*       -6.186342795E+00               0
GRID*               3121               07.2500000000E+02-4.262238876E+01+
*       -6.123882985E+00               0
GRID*               3122               07.3750000000E+02-4.305785747E+01+
*       6.1863427837E+00               0
GRID*               3123               07.3750000000E+02-3.887329226E+01+
*       1.7740145832E+01               0
GRID*               3124               07.2500000000E+02-3.917364178E+01+
*       1.7876947533E+01               0
GRID*               3125               07.3750000000E+02-3.288662992E+01+
*       2.8473138692E+01               0
GRID*               3126               07.3750000000E+02-2.353342547E+01+
*       3.6584530219E+01               0
GRID*               3127               07.2500000000E+02-2.353342547E+01+
*       3.6584530223E+01               0
GRID*               3128               07.3750000000E+02-1.226804089E+01+
*       4.1734221846E+01               0
GRID*               3129               07.3750000000E+02-4.522821281E-11+
*       4.3500000000E+01               0
GRID*               3130               07.2500000000E+02-5.192657475E-11+
*       4.3500000000E+01               0
GRID*               3131               07.3750000000E+021.2268040727E+01+
*       4.1734221914E+01               0
GRID*               3132               07.3750000000E+022.3533425233E+01+
*       3.6584530411E+01               0
GRID*               3133               07.2500000000E+022.3533425236E+01+
*       3.6584530409E+01               0
GRID*               3134               07.3750000000E+023.2886629781E+01+
*       2.8473138893E+01               0
GRID*               3135               07.3750000000E+023.8372709663E+01+
*       1.7512143106E+01               0
GRID*               3136               07.2500000000E+023.8773175699E+01+
*       1.7694545368E+01               0
GRID*               3137               07.3750000000E+024.3057857472E+01+
*       6.1863427953E+00               0
GRID*               3138               07.3750000000E+024.3057857473E+01+
*       -6.186342784E+00               0
GRID*               3139               07.2500000000E+024.2622388764E+01+
*       -6.123882963E+00               0
GRID*               3140               07.3750000000E+023.9574107807E+01+
*       -1.805934980E+01               0
GRID*               3141               07.3750000000E+023.2886629924E+01+
*       -2.847313869E+01               0
GRID*               3142               07.2500000000E+023.2886629921E+01+
*       -2.847313870E+01               0
GRID*               3143               07.3750000000E+022.3533425471E+01+
*       -3.658453022E+01               0
GRID*               3144               07.1250000000E+02-2.353342524E+01+
*       -3.658453041E+01               0
GRID*               3145               07.1250000000E+02-3.288662979E+01+
*       -2.847313889E+01               0
GRID*               3146               07.0000000000E+02-3.288662979E+01+
*       -2.847313889E+01               0
GRID*               3147               07.1250000000E+02-3.957410777E+01+
*       -1.805934989E+01               0
GRID*               3148               07.1250000000E+02-4.229578723E+01+
*       -6.077038127E+00               0
GRID*               3149               07.0000000000E+02-4.262238876E+01+
*       -6.123882984E+00               0
GRID*               3150               07.1250000000E+02-4.305785747E+01+
*       6.1863427842E+00               0
GRID*               3151               07.1250000000E+02-3.957410780E+01+
*       1.8059349800E+01               0
GRID*               3152               07.0000000000E+02-3.877317575E+01+
*       1.7694545274E+01               0
GRID*               3153               07.1250000000E+02-3.288662992E+01+
*       2.8473138702E+01               0
GRID*               3154               07.1250000000E+02-2.353342546E+01+
*       3.6584530228E+01               0
GRID*               3155               07.0000000000E+02-2.353342545E+01+
*       3.6584530232E+01               0
GRID*               3156               07.1250000000E+02-1.226804088E+01+
*       4.1734221849E+01               0
GRID*               3157               07.1250000000E+02-4.206362241E-11+
*       4.3500000000E+01               0
GRID*               3158               07.0000000000E+02-4.878979937E-11+
*       4.3500000000E+01               0
GRID*               3159               07.1250000000E+021.2268040731E+01+
*       4.1734221913E+01               0
GRID*               3160               07.1250000000E+022.3533425239E+01+
*       3.6584530406E+01               0
GRID*               3161               07.0000000000E+022.3533425242E+01+
*       3.6584530404E+01               0
GRID*               3162               07.1250000000E+023.2886629785E+01+
*       2.8473138888E+01               0
GRID*               3163               07.1250000000E+023.9574107772E+01+
*       1.8059349893E+01               0
GRID*               3164               07.0000000000E+023.9173641736E+01+
*       1.7876947628E+01               0
GRID*               3165               07.1250000000E+024.3057857472E+01+
*       6.1863427950E+00               0
GRID*               3166               07.1250000000E+024.2622388764E+01+
*       -6.123882964E+00               0
GRID*               3167               07.0000000000E+024.3057857473E+01+
*       -6.186342784E+00               0
GRID*               3168               07.1250000000E+023.9574107805E+01+
*       -1.805934980E+01               0
GRID*               3169               07.1250000000E+023.2886629918E+01+
*       -2.847313870E+01               0
GRID*               3170               07.0000000000E+023.2220198272E+01+
*       -2.789753936E+01               0
GRID*               3171               07.1250000000E+022.3533425460E+01+
*       -3.658453023E+01               0
GRID*               3172               06.8750000000E+02-2.353342525E+01+
*       -3.658453040E+01               0
GRID*               3173               06.8750000000E+02-3.288662979E+01+
*       -2.847313888E+01               0
GRID*               3174               06.7500000000E+02-3.288662979E+01+
*       -2.847313888E+01               0
GRID*               3175               06.8750000000E+02-3.957410777E+01+
*       -1.805934989E+01               0
GRID*               3176               06.8750000000E+02-4.305785747E+01+
*       -6.186342795E+00               0
GRID*               3177               06.7500000000E+02-4.305785747E+01+
*       -6.186342794E+00               0
GRID*               3178               06.8750000000E+02-4.305785747E+01+
*       6.1863427848E+00               0
GRID*               3179               06.8750000000E+02-3.837270972E+01+
*       1.7512143011E+01               0
GRID*               3180               06.7500000000E+02-3.877317575E+01+
*       1.7694545279E+01               0
GRID*               3181               06.8750000000E+02-3.288662991E+01+
*       2.8473138711E+01               0
GRID*               3182               06.8750000000E+02-2.353342545E+01+
*       3.6584530237E+01               0
GRID*               3183               06.7500000000E+02-2.353342544E+01+
*       3.6584530242E+01               0
GRID*               3184               06.8750000000E+02-1.226804087E+01+
*       4.1734221852E+01               0
GRID*               3185               06.8750000000E+02-3.887248132E-11+
*       4.3500000000E+01               0
GRID*               3186               06.7500000000E+02-4.559865827E-11+
*       4.3500000000E+01               0
GRID*               3187               06.8750000000E+021.2268040736E+01+
*       4.1734221911E+01               0
GRID*               3188               06.8750000000E+022.3533425245E+01+
*       3.6584530401E+01               0
GRID*               3189               06.7500000000E+022.3533425249E+01+
*       3.6584530398E+01               0
GRID*               3190               06.8750000000E+023.2886629789E+01+
*       2.8473138882E+01               0
GRID*               3191               06.8750000000E+023.8873292211E+01+
*       1.7740145929E+01               0
GRID*               3192               06.7500000000E+023.9173641738E+01+
*       1.7876947625E+01               0
GRID*               3193               06.8750000000E+024.3057857472E+01+
*       6.1863427946E+00               0
GRID*               3194               06.8750000000E+024.3057857473E+01+
*       -6.186342785E+00               0
GRID*               3195               06.7500000000E+024.3057857472E+01+
*       -6.186342785E+00               0
GRID*               3196               06.8750000000E+023.9574107803E+01+
*       -1.805934980E+01               0
GRID*               3197               06.8750000000E+023.2053590359E+01+
*       -2.775363953E+01               0
GRID*               3198               06.7500000000E+023.2553414086E+01+
*       -2.818533904E+01               0
GRID*               3199               06.8750000000E+022.3533425449E+01+
*       -3.658453024E+01               0
GRID*               3200               06.6250000000E+02-2.353342525E+01+
*       -3.658453039E+01               0
GRID*               3201               06.6250000000E+02-3.288662979E+01+
*       -2.847313888E+01               0
GRID*               3202               06.5000000000E+02-3.255341398E+01+
*       -2.818533919E+01               0
GRID*               3203               06.6250000000E+02-3.957410777E+01+
*       -1.805934989E+01               0
GRID*               3204               06.6250000000E+02-4.305785747E+01+
*       -6.186342794E+00               0
GRID*               3205               06.5000000000E+02-4.305785747E+01+
*       -6.186342794E+00               0
GRID*               3206               06.6250000000E+02-4.305785747E+01+
*       6.1863427854E+00               0
GRID*               3207               06.6250000000E+02-3.957410780E+01+
*       1.8059349810E+01               0
GRID*               3208               06.5000000000E+02-3.957410780E+01+
*       1.8059349812E+01               0
GRID*               3209               06.6250000000E+02-3.288662990E+01+
*       2.8473138721E+01               0
GRID*               3210               06.6250000000E+02-2.353342544E+01+
*       3.6584530246E+01               0
GRID*               3211               06.5000000000E+02-2.353342543E+01+
*       3.6584530251E+01               0
GRID*               3212               06.6250000000E+02-1.226804086E+01+
*       4.1734221855E+01               0
GRID*               3213               06.6250000000E+02-3.570789092E-11+
*       4.3500000000E+01               0
GRID*               3214               06.5000000000E+02-4.249222655E-11+
*       4.3500000000E+01               0
GRID*               3215               06.6250000000E+021.2268040741E+01+
*       4.1734221909E+01               0
GRID*               3216               06.6250000000E+022.3533425253E+01+
*       3.6584530395E+01               0
GRID*               3217               06.5000000000E+022.3533425257E+01+
*       3.6584530392E+01               0
GRID*               3218               06.6250000000E+023.2886629794E+01+
*       2.8473138876E+01               0
GRID*               3219               06.6250000000E+023.9574107774E+01+
*       1.8059349887E+01               0
GRID*               3220               06.5000000000E+023.9574107774E+01+
*       1.8059349885E+01               0
GRID*               3221               06.6250000000E+024.3057857472E+01+
*       6.1863427943E+00               0
GRID*               3222               06.6250000000E+024.3057857472E+01+
*       -6.186342785E+00               0
GRID*               3223               06.5000000000E+024.3057857472E+01+
*       -6.186342786E+00               0
GRID*               3224               06.6250000000E+023.9574107801E+01+
*       -1.805934981E+01               0
GRID*               3225               06.6250000000E+023.2220198263E+01+
*       -2.789753937E+01               0
GRID*               3226               06.5000000000E+023.2220198258E+01+
*       -2.789753938E+01               0
GRID*               3227               06.6250000000E+022.3533425437E+01+
*       -3.658453025E+01               0
GRID*               3228               06.3750000000E+02-2.353342526E+01+
*       -3.658453039E+01               0
GRID*               3229               06.3750000000E+02-3.230350211E+01+
*       -2.796948942E+01               0
GRID*               3230               06.2500000000E+02-3.255341398E+01+
*       -2.818533918E+01               0
GRID*               3231               06.3750000000E+02-3.957410778E+01+
*       -1.805934988E+01               0
GRID*               3232               06.3750000000E+02-4.305785747E+01+
*       -6.186342794E+00               0
GRID*               3233               06.2500000000E+02-4.305785747E+01+
*       -6.186342794E+00               0
GRID*               3234               06.3750000000E+02-4.305785747E+01+
*       6.1863427859E+00               0
GRID*               3235               06.3750000000E+02-3.957410780E+01+
*       1.8059349815E+01               0
GRID*               3236               06.2500000000E+02-3.887329225E+01+
*       1.7740145855E+01               0
GRID*               3237               06.3750000000E+02-3.288662990E+01+
*       2.8473138731E+01               0
GRID*               3238               06.3750000000E+02-2.353342543E+01+
*       3.6584530256E+01               0
GRID*               3239               06.2500000000E+02-2.353342542E+01+
*       3.6584530261E+01               0
GRID*               3240               06.3750000000E+02-1.226804086E+01+
*       4.1734221859E+01               0
GRID*               3241               06.3750000000E+02-3.260145919E-11+
*       4.3500000000E+01               0
GRID*               3242               06.2500000000E+02-3.929855681E-11+
*       4.3500000000E+01               0
GRID*               3243               06.3750000000E+021.2268040746E+01+
*       4.1734221906E+01               0
GRID*               3244               06.3750000000E+022.3533425261E+01+
*       3.6584530388E+01               0
GRID*               3245               06.2500000000E+022.3533425265E+01+
*       3.6584530385E+01               0
GRID*               3246               06.3750000000E+023.2886629798E+01+
*       2.8473138869E+01               0
GRID*               3247               06.3750000000E+023.9574107775E+01+
*       1.8059349883E+01               0
GRID*               3248               06.2500000000E+023.9574107776E+01+
*       1.8059349882E+01               0
GRID*               3249               06.3750000000E+024.3057857472E+01+
*       6.1863427939E+00               0
GRID*               3250               06.3750000000E+024.3057857472E+01+
*       -6.186342786E+00               0
GRID*               3251               06.2500000000E+024.3057857472E+01+
*       -6.186342786E+00               0
GRID*               3252               06.3750000000E+023.9574107800E+01+
*       -1.805934981E+01               0
GRID*               3253               06.3750000000E+023.2886629897E+01+
*       -2.847313873E+01               0
GRID*               3254               06.2500000000E+023.2886629893E+01+
*       -2.847313874E+01               0
GRID*               3255               06.3750000000E+022.3533425425E+01+
*       -3.658453026E+01               0
GRID*               3256               06.1250000000E+02-2.353342527E+01+
*       -3.658453038E+01               0
GRID*               3257               06.1250000000E+02-3.288662980E+01+
*       -2.847313886E+01               0
GRID*               3258               06.0000000000E+02-3.288662981E+01+
*       -2.847313886E+01               0
GRID*               3259               06.1250000000E+02-3.957410778E+01+
*       -1.805934988E+01               0
GRID*               3260               06.1250000000E+02-4.305785747E+01+
*       -6.186342793E+00               0
GRID*               3261               06.0000000000E+02-4.218692005E+01+
*       -6.061423169E+00               0
GRID*               3262               06.1250000000E+02-4.305785747E+01+
*       6.1863427865E+00               0
GRID*               3263               06.1250000000E+02-3.857294273E+01+
*       1.7603344158E+01               0
GRID*               3264               06.0000000000E+02-3.877317574E+01+
*       1.7694545294E+01               0
GRID*               3265               06.1250000000E+02-3.288662989E+01+
*       2.8473138741E+01               0
GRID*               3266               06.1250000000E+02-2.353342541E+01+
*       3.6584530266E+01               0
GRID*               3267               06.0000000000E+02-2.353342541E+01+
*       3.6584530271E+01               0
GRID*               3268               06.1250000000E+02-1.226804085E+01+
*       4.1734221862E+01               0
GRID*               3269               06.1250000000E+02-2.940905378E-11+
*       4.3500000000E+01               0
GRID*               3270               06.0000000000E+02-3.613523073E-11+
*       4.3500000000E+01               0
GRID*               3271               06.1250000000E+021.2268040752E+01+
*       4.1734221904E+01               0
GRID*               3272               06.1250000000E+022.3533425270E+01+
*       3.6584530381E+01               0
GRID*               3273               06.0000000000E+022.3533425274E+01+
*       3.6584530378E+01               0
GRID*               3274               06.1250000000E+023.2886629804E+01+
*       2.8473138862E+01               0
GRID*               3275               06.1250000000E+023.9574107776E+01+
*       1.8059349880E+01               0
GRID*               3276               06.0000000000E+023.9574107777E+01+
*       1.8059349878E+01               0
GRID*               3277               06.1250000000E+024.3057857472E+01+
*       6.1863427935E+00               0
GRID*               3278               06.1250000000E+024.3057857472E+01+
*       -6.186342787E+00               0
GRID*               3279               06.0000000000E+024.3057857472E+01+
*       -6.186342787E+00               0
GRID*               3280               06.1250000000E+023.9574107798E+01+
*       -1.805934982E+01               0
GRID*               3281               06.1250000000E+023.2886629890E+01+
*       -2.847313874E+01               0
GRID*               3282               06.0000000000E+023.2553414065E+01+
*       -2.818533907E+01               0
GRID*               3283               06.1250000000E+022.3533425413E+01+
*       -3.658453027E+01               0
GRID*               3284               05.8750000000E+02-2.353342528E+01+
*       -3.658453037E+01               0
GRID*               3285               05.8750000000E+02-3.288662981E+01+
*       -2.847313885E+01               0
GRID*               3286               05.7500000000E+02-3.222019817E+01+
*       -2.789753949E+01               0
GRID*               3287               05.8750000000E+02-3.957410778E+01+
*       -1.805934988E+01               0
GRID*               3288               05.8750000000E+02-4.175145134E+01+
*       -5.998963356E+00               0
GRID*               3289               05.7500000000E+02-4.218692005E+01+
*       -6.061423168E+00               0
GRID*               3290               05.8750000000E+02-4.305785747E+01+
*       6.1863427871E+00               0
GRID*               3291               05.8750000000E+02-3.917364177E+01+
*       1.7876947560E+01               0
GRID*               3292               05.7500000000E+02-3.917364177E+01+
*       1.7876947563E+01               0
GRID*               3293               05.8750000000E+02-3.288662988E+01+
*       2.8473138751E+01               0
GRID*               3294               05.8750000000E+02-2.353342540E+01+
*       3.6584530275E+01               0
GRID*               3295               05.7500000000E+02-2.353342540E+01+
*       3.6584530280E+01               0
GRID*               3296               05.8750000000E+02-1.226804084E+01+
*       4.1734221866E+01               0
GRID*               3297               05.8750000000E+02-2.621664836E-11+
*       4.3500000000E+01               0
GRID*               3298               05.7500000000E+02-3.294408964E-11+
*       4.3500000000E+01               0
GRID*               3299               05.8750000000E+021.2268040758E+01+
*       4.1734221901E+01               0
GRID*               3300               05.8750000000E+022.3533425279E+01+
*       3.6584530374E+01               0
GRID*               3301               05.7500000000E+022.3533425283E+01+
*       3.6584530370E+01               0
GRID*               3302               05.8750000000E+023.2886629809E+01+
*       2.8473138854E+01               0
GRID*               3303               05.8750000000E+023.9574107778E+01+
*       1.8059349876E+01               0
GRID*               3304               05.7500000000E+023.9574107778E+01+
*       1.8059349874E+01               0
GRID*               3305               05.8750000000E+024.3057857472E+01+
*       6.1863427931E+00               0
GRID*               3306               05.8750000000E+024.3057857472E+01+
*       -6.186342787E+00               0
GRID*               3307               05.7500000000E+024.2186920053E+01+
*       -6.061423152E+00               0
GRID*               3308               05.8750000000E+023.9574107796E+01+
*       -1.805934982E+01               0
GRID*               3309               05.8750000000E+023.2303502197E+01+
*       -2.796948932E+01               0
GRID*               3310               05.7500000000E+023.2553414058E+01+
*       -2.818533908E+01               0
GRID*               3311               05.8750000000E+022.3533425401E+01+
*       -3.658453028E+01               0
GRID*               3312               05.6250000000E+02-2.353342529E+01+
*       -3.658453037E+01               0
GRID*               3313               05.6250000000E+02-3.205359027E+01+
*       -2.775363964E+01               0
GRID*               3314               05.5000000000E+02-3.255341400E+01+
*       -2.818533916E+01               0
GRID*               3315               05.6250000000E+02-3.957410778E+01+
*       -1.805934987E+01               0
GRID*               3316               05.6250000000E+02-4.218692005E+01+
*       -6.061423167E+00               0
GRID*               3317               05.5000000000E+02-4.218692005E+01+
*       -6.061423167E+00               0
GRID*               3318               05.6250000000E+02-4.305785747E+01+
*       6.1863427877E+00               0
GRID*               3319               05.6250000000E+02-3.957410779E+01+
*       1.8059349830E+01               0
GRID*               3320               05.5000000000E+02-3.957410779E+01+
*       1.8059349832E+01               0
GRID*               3321               05.6250000000E+02-3.288662988E+01+
*       2.8473138761E+01               0
GRID*               3322               05.6250000000E+02-2.353342539E+01+
*       3.6584530285E+01               0
GRID*               3323               05.5000000000E+02-2.353342538E+01+
*       3.6584530290E+01               0
GRID*               3324               05.6250000000E+02-1.226804083E+01+
*       4.1734221869E+01               0
GRID*               3325               05.6250000000E+02-2.308240162E-11+
*       4.3500000000E+01               0
GRID*               3326               05.5000000000E+02-2.977949924E-11+
*       4.3500000000E+01               0
GRID*               3327               05.6250000000E+021.2268040764E+01+
*       4.1734221898E+01               0
GRID*               3328               05.6250000000E+022.3533425288E+01+
*       3.6584530366E+01               0
GRID*               3329               05.5000000000E+022.3533425293E+01+
*       3.6584530362E+01               0
GRID*               3330               05.6250000000E+023.2886629815E+01+
*       2.8473138846E+01               0
GRID*               3331               05.6250000000E+023.9574107779E+01+
*       1.8059349872E+01               0
GRID*               3332               05.5000000000E+023.9574107780E+01+
*       1.8059349870E+01               0
GRID*               3333               05.6250000000E+024.3057857472E+01+
*       6.1863427926E+00               0
GRID*               3334               05.6250000000E+024.1969185698E+01+
*       -6.030193244E+00               0
GRID*               3335               05.5000000000E+024.1969185698E+01+
*       -6.030193245E+00               0
GRID*               3336               05.6250000000E+023.9574107794E+01+
*       -1.805934983E+01               0
GRID*               3337               05.6250000000E+023.2886629875E+01+
*       -2.847313876E+01               0
GRID*               3338               05.5000000000E+023.2553414051E+01+
*       -2.818533909E+01               0
GRID*               3339               05.6250000000E+022.3533425389E+01+
*       -3.658453029E+01               0
GRID*               3340               05.3750000000E+02-2.353342530E+01+
*       -3.658453036E+01               0
GRID*               3341               05.3750000000E+02-3.288662982E+01+
*       -2.847313884E+01               0
GRID*               3342               05.2500000000E+02-3.288662982E+01+
*       -2.847313883E+01               0
GRID*               3343               05.3750000000E+02-3.957410778E+01+
*       -1.805934987E+01               0
GRID*               3344               05.3750000000E+02-4.305785747E+01+
*       -6.186342792E+00               0
GRID*               3345               05.2500000000E+02-4.305785747E+01+
*       -6.186342792E+00               0
GRID*               3346               05.3750000000E+02-4.305785747E+01+
*       6.1863427883E+00               0
GRID*               3347               05.3750000000E+02-3.957410779E+01+
*       1.8059349835E+01               0
GRID*               3348               05.2500000000E+02-3.877317573E+01+
*       1.7694545310E+01               0
GRID*               3349               05.3750000000E+02-3.288662987E+01+
*       2.8473138771E+01               0
GRID*               3350               05.3750000000E+02-2.353342538E+01+
*       3.6584530295E+01               0
GRID*               3351               05.2500000000E+02-2.353342537E+01+
*       3.6584530300E+01               0
GRID*               3352               05.3750000000E+02-1.226804082E+01+
*       4.1734221873E+01               0
GRID*               3353               05.3750000000E+02-1.988873188E-11+
*       4.3500000000E+01               0
GRID*               3354               05.2500000000E+02-2.658709382E-11+
*       4.3500000000E+01               0
GRID*               3355               05.3750000000E+021.2268040771E+01+
*       4.1734221895E+01               0
GRID*               3356               05.3750000000E+022.3533425298E+01+
*       3.6584530358E+01               0
GRID*               3357               05.2500000000E+022.3533425303E+01+
*       3.6584530354E+01               0
GRID*               3358               05.3750000000E+023.2886629821E+01+
*       2.8473138838E+01               0
GRID*               3359               05.3750000000E+023.9574107781E+01+
*       1.8059349868E+01               0
GRID*               3360               05.2500000000E+023.9574107781E+01+
*       1.8059349866E+01               0
GRID*               3361               05.3750000000E+024.3057857472E+01+
*       6.1863427921E+00               0
GRID*               3362               05.3750000000E+024.3057857472E+01+
*       -6.186342788E+00               0
GRID*               3363               05.2500000000E+024.3057857472E+01+
*       -6.186342789E+00               0
GRID*               3364               05.3750000000E+023.9574107792E+01+
*       -1.805934983E+01               0
GRID*               3365               05.3750000000E+023.2053590318E+01+
*       -2.775363958E+01               0
GRID*               3366               05.2500000000E+023.2220198223E+01+
*       -2.789753942E+01               0
GRID*               3367               05.3750000000E+022.3533425377E+01+
*       -3.658453029E+01               0
GRID*               3368               05.1250000000E+02-2.353342531E+01+
*       -3.658453035E+01               0
GRID*               3369               05.1250000000E+02-3.288662983E+01+
*       -2.847313883E+01               0
GRID*               3370               05.0000000000E+02-3.288662983E+01+
*       -2.847313882E+01               0
GRID*               3371               05.1250000000E+02-3.957410778E+01+
*       -1.805934986E+01               0
GRID*               3372               05.1250000000E+02-4.305785747E+01+
*       -6.186342792E+00               0
GRID*               3373               05.0000000000E+02-4.262238876E+01+
*       -6.123882978E+00               0
GRID*               3374               05.1250000000E+02-4.305785747E+01+
*       6.1863427889E+00               0
GRID*               3375               05.1250000000E+02-3.817247668E+01+
*       1.7420941915E+01               0
GRID*               3376               05.0000000000E+02-3.837270970E+01+
*       1.7512143051E+01               0
GRID*               3377               05.1250000000E+02-3.288662986E+01+
*       2.8473138781E+01               0
GRID*               3378               05.1250000000E+02-2.353342537E+01+
*       3.6584530304E+01               0
GRID*               3379               05.0000000000E+02-2.353342536E+01+
*       3.6584530309E+01               0
GRID*               3380               05.1250000000E+02-1.226804082E+01+
*       4.1734221876E+01               0
GRID*               3381               05.1250000000E+02-1.672540580E-11+
*       4.3500000000E+01               0
GRID*               3382               05.0000000000E+02-2.348066210E-11+
*       4.3500000000E+01               0
GRID*               3383               05.1250000000E+021.2268040778E+01+
*       4.1734221892E+01               0
GRID*               3384               05.1250000000E+022.3533425309E+01+
*       3.6584530350E+01               0
GRID*               3385               05.0000000000E+022.3533425314E+01+
*       3.6584530346E+01               0
GRID*               3386               05.1250000000E+023.2886629827E+01+
*       2.8473138829E+01               0
GRID*               3387               05.1250000000E+023.9574107782E+01+
*       1.8059349863E+01               0
GRID*               3388               05.0000000000E+023.9574107783E+01+
*       1.8059349861E+01               0
GRID*               3389               05.1250000000E+024.3057857472E+01+
*       6.1863427916E+00               0
GRID*               3390               05.1250000000E+024.3057857472E+01+
*       -6.186342789E+00               0
GRID*               3391               05.0000000000E+024.1751451341E+01+
*       -5.998963341E+00               0
GRID*               3392               05.1250000000E+023.9574107791E+01+
*       -1.805934984E+01               0
GRID*               3393               05.1250000000E+023.2553414041E+01+
*       -2.818533910E+01               0
GRID*               3394               05.0000000000E+023.2553414037E+01+
*       -2.818533911E+01               0
GRID*               3395               05.1250000000E+022.3533425365E+01+
*       -3.658453030E+01               0
GRID*               3396               04.8750000000E+02-2.353342532E+01+
*       -3.658453034E+01               0
GRID*               3397               04.8750000000E+02-3.288662983E+01+
*       -2.847313882E+01               0
GRID*               3398               04.7500000000E+02-3.288662984E+01+
*       -2.847313882E+01               0
GRID*               3399               04.8750000000E+02-3.957410778E+01+
*       -1.805934986E+01               0
GRID*               3400               04.8750000000E+02-4.229578723E+01+
*       -6.077038116E+00               0
GRID*               3401               04.7500000000E+02-4.262238876E+01+
*       -6.123882976E+00               0
GRID*               3402               04.8750000000E+02-4.305785747E+01+
*       6.1863427894E+00               0
GRID*               3403               04.8750000000E+02-3.957410779E+01+
*       1.8059349845E+01               0
GRID*               3404               04.7500000000E+02-3.957410779E+01+
*       1.8059349847E+01               0
GRID*               3405               04.8750000000E+02-3.288662985E+01+
*       2.8473138791E+01               0
GRID*               3406               04.8750000000E+02-2.353342535E+01+
*       3.6584530314E+01               0
GRID*               3407               04.7500000000E+02-2.353342535E+01+
*       3.6584530318E+01               0
GRID*               3408               04.8750000000E+02-1.226804081E+01+
*       4.1734221880E+01               0
GRID*               3409               04.8750000000E+02-1.356207972E-11+
*       4.3500000000E+01               0
GRID*               3410               04.7500000000E+02-2.025917734E-11+
*       4.3500000000E+01               0
GRID*               3411               04.8750000000E+021.2268040785E+01+
*       4.1734221889E+01               0
GRID*               3412               04.8750000000E+022.3533425319E+01+
*       3.6584530341E+01               0
GRID*               3413               04.7500000000E+022.3533425325E+01+
*       3.6584530337E+01               0
GRID*               3414               04.8750000000E+023.2886629833E+01+
*       2.8473138820E+01               0
GRID*               3415               04.8750000000E+023.9574107784E+01+
*       1.8059349859E+01               0
GRID*               3416               04.7500000000E+023.9574107785E+01+
*       1.8059349857E+01               0
GRID*               3417               04.8750000000E+024.3057857472E+01+
*       6.1863427911E+00               0
GRID*               3418               04.8750000000E+024.1642584164E+01+
*       -5.983348388E+00               0
GRID*               3419               04.7500000000E+024.2622388762E+01+
*       -6.123882974E+00               0
GRID*               3420               04.8750000000E+023.9574107789E+01+
*       -1.805934984E+01               0
GRID*               3421               04.8750000000E+023.2886629854E+01+
*       -2.847313879E+01               0
GRID*               3422               04.7500000000E+023.2220198209E+01+
*       -2.789753944E+01               0
GRID*               3423               04.8750000000E+022.3533425354E+01+
*       -3.658453031E+01               0
GRID*               3424               04.6250000000E+02-2.353342533E+01+
*       -3.658453033E+01               0
GRID*               3425               04.6250000000E+02-3.288662984E+01+
*       -2.847313881E+01               0
GRID*               3426               04.5000000000E+02-3.288662984E+01+
*       -2.847313881E+01               0
GRID*               3427               04.6250000000E+02-3.957410779E+01+
*       -1.805934985E+01               0
GRID*               3428               04.6250000000E+02-4.305785747E+01+
*       -6.186342791E+00               0
GRID*               3429               04.5000000000E+02-4.305785747E+01+
*       -6.186342790E+00               0
GRID*               3430               04.6250000000E+02-4.305785747E+01+
*       6.1863427900E+00               0
GRID*               3431               04.6250000000E+02-3.957410779E+01+
*       1.8059349850E+01               0
GRID*               3432               04.5000000000E+02-3.957410779E+01+
*       1.8059349852E+01               0
GRID*               3433               04.6250000000E+02-3.288662985E+01+
*       2.8473138801E+01               0
GRID*               3434               04.6250000000E+02-2.353342534E+01+
*       3.6584530323E+01               0
GRID*               3435               04.5000000000E+02-2.353342534E+01+
*       3.6584530328E+01               0
GRID*               3436               04.6250000000E+02-1.226804080E+01+
*       4.1734221883E+01               0
GRID*               3437               04.6250000000E+02-1.039748933E-11+
*       4.3500000000E+01               0
GRID*               3438               04.5000000000E+02-1.715274562E-11+
*       4.3500000000E+01               0
GRID*               3439               04.6250000000E+021.2268040793E+01+
*       4.1734221886E+01               0
GRID*               3440               04.6250000000E+022.3533425331E+01+
*       3.6584530332E+01               0
GRID*               3441               04.5000000000E+022.3533425336E+01+
*       3.6584530328E+01               0
GRID*               3442               04.6250000000E+023.2886629840E+01+
*       2.8473138811E+01               0
GRID*               3443               04.6250000000E+023.9574107785E+01+
*       1.8059349854E+01               0
GRID*               3444               04.5000000000E+023.9574107786E+01+
*       1.8059349852E+01               0
GRID*               3445               04.6250000000E+024.3057857472E+01+
*       6.1863427905E+00               0
GRID*               3446               04.6250000000E+024.3057857472E+01+
*       -6.186342790E+00               0
GRID*               3447               04.5000000000E+024.2186920051E+01+
*       -6.061423161E+00               0
GRID*               3448               04.6250000000E+023.9574107787E+01+
*       -1.805934985E+01               0
GRID*               3449               04.6250000000E+023.1886982387E+01+
*       -2.760973976E+01               0
GRID*               3450               04.5000000000E+023.2220198202E+01+
*       -2.789753945E+01               0
GRID*               3451               04.6250000000E+022.3533425342E+01+
*       -3.658453032E+01               0
GRID*               3452               04.3750000000E+02-2.353342534E+01+
*       -3.658453032E+01               0
GRID*               3453               04.3750000000E+02-3.288662985E+01+
*       -2.847313880E+01               0
GRID*               3454               04.2500000000E+02-3.288662985E+01+
*       -2.847313880E+01               0
GRID*               3455               04.3750000000E+02-3.957410779E+01+
*       -1.805934985E+01               0
GRID*               3456               04.3750000000E+02-4.305785747E+01+
*       -6.186342790E+00               0
GRID*               3457               04.2500000000E+02-4.305785747E+01+
*       -6.186342790E+00               0
GRID*               3458               04.3750000000E+02-4.305785747E+01+
*       6.1863427905E+00               0
GRID*               3459               04.3750000000E+02-3.877317572E+01+
*       1.7694545326E+01               0
GRID*               3460               04.2500000000E+02-3.877317572E+01+
*       1.7694545330E+01               0
GRID*               3461               04.3750000000E+02-3.288662984E+01+
*       2.8473138811E+01               0
GRID*               3462               04.3750000000E+02-2.353342533E+01+
*       3.6584530332E+01               0
GRID*               3463               04.2500000000E+02-2.353342533E+01+
*       3.6584530337E+01               0
GRID*               3464               04.3750000000E+02-1.226804079E+01+
*       4.1734221886E+01               0
GRID*               3465               04.3750000000E+02-7.234795406E-12+
*       4.3500000000E+01               0
GRID*               3466               04.2500000000E+02-1.390407801E-11+
*       4.3500000000E+01               0
GRID*               3467               04.3750000000E+021.2268040800E+01+
*       4.1734221883E+01               0
GRID*               3468               04.3750000000E+022.3533425342E+01+
*       3.6584530323E+01               0
GRID*               3469               04.2500000000E+022.3533425348E+01+
*       3.6584530318E+01               0
GRID*               3470               04.3750000000E+023.2886629847E+01+
*       2.8473138801E+01               0
GRID*               3471               04.3750000000E+023.9574107787E+01+
*       1.8059349850E+01               0
GRID*               3472               04.2500000000E+023.9574107788E+01+
*       1.8059349847E+01               0
GRID*               3473               04.3750000000E+024.3057857472E+01+
*       6.1863427900E+00               0
GRID*               3474               04.3750000000E+024.1969185695E+01+
*       -6.030193253E+00               0
GRID*               3475               04.2500000000E+024.2622388761E+01+
*       -6.123882976E+00               0
GRID*               3476               04.3750000000E+023.9574107785E+01+
*       -1.805934985E+01               0
GRID*               3477               04.3750000000E+023.2553414020E+01+
*       -2.818533913E+01               0
GRID*               3478               04.2500000000E+023.2303502151E+01+
*       -2.796948938E+01               0
GRID*               3479               04.3750000000E+022.3533425331E+01+
*       -3.658453033E+01               0
GRID*               3480               04.1250000000E+02-2.353342535E+01+
*       -3.658453031E+01               0
GRID*               3481               04.1250000000E+02-3.288662985E+01+
*       -2.847313879E+01               0
GRID*               3482               04.0000000000E+02-3.288662986E+01+
*       -2.847313879E+01               0
GRID*               3483               04.1250000000E+02-3.957410779E+01+
*       -1.805934984E+01               0
GRID*               3484               04.1250000000E+02-4.305785747E+01+
*       -6.186342789E+00               0
GRID*               3485               04.0000000000E+02-4.262238876E+01+
*       -6.123882973E+00               0
GRID*               3486               04.1250000000E+02-4.305785747E+01+
*       6.1863427911E+00               0
GRID*               3487               04.1250000000E+02-3.877317572E+01+
*       1.7694545331E+01               0
GRID*               3488               04.0000000000E+02-3.877317572E+01+
*       1.7694545335E+01               0
GRID*               3489               04.1250000000E+02-3.288662983E+01+
*       2.8473138820E+01               0
GRID*               3490               04.1250000000E+02-2.353342532E+01+
*       3.6584530341E+01               0
GRID*               3491               04.0000000000E+02-2.353342531E+01+
*       3.6584530346E+01               0
GRID*               3492               04.1250000000E+02-1.226804079E+01+
*       4.1734221889E+01               0
GRID*               3493               04.1250000000E+02-4.013310654E-12+
*       4.3500000000E+01               0
GRID*               3494               04.0000000000E+02-1.076793479E-11+
*       4.3500000000E+01               0
GRID*               3495               04.1250000000E+021.2268040808E+01+
*       4.1734221880E+01               0
GRID*               3496               04.1250000000E+022.3533425354E+01+
*       3.6584530314E+01               0
GRID*               3497               04.0000000000E+022.3533425359E+01+
*       3.6584530309E+01               0
GRID*               3498               04.1250000000E+023.2886629854E+01+
*       2.8473138791E+01               0
GRID*               3499               04.1250000000E+023.9574107789E+01+
*       1.8059349845E+01               0
GRID*               3500               04.0000000000E+023.9574107790E+01+
*       1.8059349842E+01               0
GRID*               3501               04.1250000000E+024.3057857472E+01+
*       6.1863427894E+00               0
GRID*               3502               04.1250000000E+024.3057857472E+01+
*       -6.186342791E+00               0
GRID*               3503               04.0000000000E+024.3057857472E+01+
*       -6.186342791E+00               0
GRID*               3504               04.1250000000E+023.9574107784E+01+
*       -1.805934986E+01               0
GRID*               3505               04.1250000000E+023.2303502149E+01+
*       -2.796948938E+01               0
GRID*               3506               04.0000000000E+023.2553414010E+01+
*       -2.818533914E+01               0
GRID*               3507               04.1250000000E+022.3533425320E+01+
*       -3.658453034E+01               0
GRID*               3508               03.8750000000E+02-2.353342537E+01+
*       -3.658453030E+01               0
GRID*               3509               03.8750000000E+02-3.288662986E+01+
*       -2.847313878E+01               0
GRID*               3510               03.7500000000E+02-3.288662986E+01+
*       -2.847313878E+01               0
GRID*               3511               03.8750000000E+02-3.957410779E+01+
*       -1.805934984E+01               0
GRID*               3512               03.8750000000E+02-4.262238876E+01+
*       -6.123882972E+00               0
GRID*               3513               03.7500000000E+02-4.175145134E+01+
*       -5.998963339E+00               0
GRID*               3514               03.8750000000E+02-4.305785747E+01+
*       6.1863427916E+00               0
GRID*               3515               03.8750000000E+02-3.957410778E+01+
*       1.8059349863E+01               0
GRID*               3516               03.7500000000E+02-3.957410778E+01+
*       1.8059349866E+01               0
GRID*               3517               03.8750000000E+02-3.288662983E+01+
*       2.8473138829E+01               0
GRID*               3518               03.8750000000E+02-2.353342531E+01+
*       3.6584530350E+01               0
GRID*               3519               03.7500000000E+02-2.353342530E+01+
*       3.6584530354E+01               0
GRID*               3520               03.8750000000E+02-1.226804078E+01+
*       4.1734221892E+01               0
GRID*               3521               03.8750000000E+02-8.784317513E-13+
*       4.3500000000E+01               0
GRID*               3522               03.7500000000E+02-7.604608707E-12+
*       4.3500000000E+01               0
GRID*               3523               03.8750000000E+021.2268040816E+01+
*       4.1734221876E+01               0
GRID*               3524               03.8750000000E+022.3533425365E+01+
*       3.6584530304E+01               0
GRID*               3525               03.7500000000E+022.3533425371E+01+
*       3.6584530300E+01               0
GRID*               3526               03.8750000000E+023.2886629861E+01+
*       2.8473138781E+01               0
GRID*               3527               03.8750000000E+023.9574107791E+01+
*       1.8059349840E+01               0
GRID*               3528               03.7500000000E+023.9574107792E+01+
*       1.8059349837E+01               0
GRID*               3529               03.8750000000E+024.3057857472E+01+
*       6.1863427889E+00               0
GRID*               3530               03.8750000000E+024.3057857472E+01+
*       -6.186342792E+00               0
GRID*               3531               03.7500000000E+024.3057857472E+01+
*       -6.186342792E+00               0
GRID*               3532               03.8750000000E+023.9574107782E+01+
*       -1.805934986E+01               0
GRID*               3533               03.8750000000E+023.2886629827E+01+
*       -2.847313883E+01               0
GRID*               3534               03.7500000000E+023.2886629824E+01+
*       -2.847313883E+01               0
GRID*               3535               03.8750000000E+022.3533425309E+01+
*       -3.658453035E+01               0
GRID*               3536               03.6250000000E+02-2.353342538E+01+
*       -3.658453029E+01               0
GRID*               3537               03.6250000000E+02-3.288662987E+01+
*       -2.847313877E+01               0
GRID*               3538               03.5000000000E+02-3.288662987E+01+
*       -2.847313877E+01               0
GRID*               3539               03.6250000000E+02-3.957410779E+01+
*       -1.805934983E+01               0
GRID*               3540               03.6250000000E+02-4.164258417E+01+
*       -5.983348383E+00               0
GRID*               3541               03.5000000000E+02-4.262238876E+01+
*       -6.123882971E+00               0
GRID*               3542               03.6250000000E+02-4.305785747E+01+
*       6.1863427921E+00               0
GRID*               3543               03.6250000000E+02-3.957410778E+01+
*       1.8059349868E+01               0
GRID*               3544               03.5000000000E+02-3.957410778E+01+
*       1.8059349870E+01               0
GRID*               3545               03.6250000000E+02-3.288662982E+01+
*       2.8473138838E+01               0
GRID*               3546               03.6250000000E+02-2.353342530E+01+
*       3.6584530358E+01               0
GRID*               3547               03.5000000000E+02-2.353342529E+01+
*       3.6584530362E+01               0
GRID*               3548               03.6250000000E+02-1.226804077E+01+
*       4.1734221895E+01               0
GRID*               3549               03.6250000000E+022.2564471513E-12+
*       4.3500000000E+01               0
GRID*               3550               03.5000000000E+02-4.441282627E-12+
*       4.3500000000E+01               0
GRID*               3551               03.6250000000E+021.2268040824E+01+
*       4.1734221873E+01               0
GRID*               3552               03.6250000000E+022.3533425377E+01+
*       3.6584530295E+01               0
GRID*               3553               03.5000000000E+022.3533425383E+01+
*       3.6584530290E+01               0
GRID*               3554               03.6250000000E+023.2886629868E+01+
*       2.8473138771E+01               0
GRID*               3555               03.6250000000E+023.9574107792E+01+
*       1.8059349835E+01               0
GRID*               3556               03.5000000000E+023.9574107793E+01+
*       1.8059349832E+01               0
GRID*               3557               03.6250000000E+024.3057857472E+01+
*       6.1863427883E+00               0
GRID*               3558               03.6250000000E+024.3057857472E+01+
*       -6.186342792E+00               0
GRID*               3559               03.5000000000E+024.3057857472E+01+
*       -6.186342792E+00               0
GRID*               3560               03.6250000000E+023.9574107781E+01+
*       -1.805934987E+01               0
GRID*               3561               03.6250000000E+023.2886629821E+01+
*       -2.847313884E+01               0
GRID*               3562               03.5000000000E+023.2553413997E+01+
*       -2.818533916E+01               0
GRID*               3563               03.6250000000E+022.3533425298E+01+
*       -3.658453036E+01               0
GRID*               3564               03.3750000000E+02-2.353342539E+01+
*       -3.658453029E+01               0
GRID*               3565               03.3750000000E+02-3.288662988E+01+
*       -2.847313876E+01               0
GRID*               3566               03.2500000000E+02-3.288662988E+01+
*       -2.847313876E+01               0
GRID*               3567               03.3750000000E+02-3.957410779E+01+
*       -1.805934983E+01               0
GRID*               3568               03.3750000000E+02-4.305785747E+01+
*       -6.186342788E+00               0
GRID*               3569               03.2500000000E+02-4.218692005E+01+
*       -6.061423152E+00               0
GRID*               3570               03.3750000000E+02-4.305785747E+01+
*       6.1863427926E+00               0
GRID*               3571               03.3750000000E+02-3.957410778E+01+
*       1.8059349872E+01               0
GRID*               3572               03.2500000000E+02-3.957410778E+01+
*       1.8059349874E+01               0
GRID*               3573               03.3750000000E+02-3.288662981E+01+
*       2.8473138846E+01               0
GRID*               3574               03.3750000000E+02-2.353342529E+01+
*       3.6584530366E+01               0
GRID*               3575               03.2500000000E+02-2.353342528E+01+
*       3.6584530370E+01               0
GRID*               3576               03.3750000000E+02-1.226804076E+01+
*       4.1734221898E+01               0
GRID*               3577               03.3750000000E+025.4494847268E-12+
*       4.3500000000E+01               0
GRID*               3578               03.2500000000E+02-1.276692229E-12+
*       4.3500000000E+01               0
GRID*               3579               03.3750000000E+021.2268040832E+01+
*       4.1734221869E+01               0
GRID*               3580               03.3750000000E+022.3533425389E+01+
*       3.6584530285E+01               0
GRID*               3581               03.2500000000E+022.3533425395E+01+
*       3.6584530280E+01               0
GRID*               3582               03.3750000000E+023.2886629875E+01+
*       2.8473138761E+01               0
GRID*               3583               03.3750000000E+023.9574107794E+01+
*       1.8059349830E+01               0
GRID*               3584               03.2500000000E+023.8773175735E+01+
*       1.7694545300E+01               0
GRID*               3585               03.3750000000E+024.3057857472E+01+
*       6.1863427877E+00               0
GRID*               3586               03.3750000000E+024.3057857472E+01+
*       -6.186342793E+00               0
GRID*               3587               03.2500000000E+024.3057857472E+01+
*       -6.186342793E+00               0
GRID*               3588               03.3750000000E+023.9574107779E+01+
*       -1.805934987E+01               0
GRID*               3589               03.3750000000E+023.2303502130E+01+
*       -2.796948940E+01               0
GRID*               3590               03.2500000000E+023.2553413992E+01+
*       -2.818533917E+01               0
GRID*               3591               03.3750000000E+022.3533425288E+01+
*       -3.658453037E+01               0
GRID*               3592               03.1250000000E+02-2.353342540E+01+
*       -3.658453028E+01               0
GRID*               3593               03.1250000000E+02-3.288662988E+01+
*       -2.847313875E+01               0
GRID*               3594               03.0000000000E+02-3.288662989E+01+
*       -2.847313875E+01               0
GRID*               3595               03.1250000000E+02-3.957410780E+01+
*       -1.805934982E+01               0
GRID*               3596               03.1250000000E+02-4.218692005E+01+
*       -6.061423151E+00               0
GRID*               3597               03.0000000000E+02-4.175145134E+01+
*       -5.998963333E+00               0
GRID*               3598               03.1250000000E+02-4.305785747E+01+
*       6.1863427931E+00               0
GRID*               3599               03.1250000000E+02-3.957410778E+01+
*       1.8059349876E+01               0
GRID*               3600               03.0000000000E+02-3.957410778E+01+
*       1.8059349878E+01               0
GRID*               3601               03.1250000000E+02-3.288662981E+01+
*       2.8473138854E+01               0
GRID*               3602               03.1250000000E+02-2.353342528E+01+
*       3.6584530374E+01               0
GRID*               3603               03.0000000000E+02-2.353342527E+01+
*       3.6584530378E+01               0
GRID*               3604               03.1250000000E+02-1.226804076E+01+
*       4.1734221901E+01               0
GRID*               3605               03.1250000000E+028.6121786468E-12+
*       4.3500000000E+01               0
GRID*               3606               03.0000000000E+021.8866338506E-12+
*       4.3500000000E+01               0
GRID*               3607               03.1250000000E+021.2268040840E+01+
*       4.1734221866E+01               0
GRID*               3608               03.1250000000E+022.3533425401E+01+
*       3.6584530275E+01               0
GRID*               3609               03.0000000000E+022.3533425407E+01+
*       3.6584530271E+01               0
GRID*               3610               03.1250000000E+023.2886629882E+01+
*       2.8473138751E+01               0
GRID*               3611               03.1250000000E+023.8773175738E+01+
*       1.7694545296E+01               0
GRID*               3612               03.0000000000E+023.8773175738E+01+
*       1.7694545294E+01               0
GRID*               3613               03.1250000000E+024.3057857472E+01+
*       6.1863427871E+00               0
GRID*               3614               03.1250000000E+024.3057857472E+01+
*       -6.186342793E+00               0
GRID*               3615               03.0000000000E+024.3057857472E+01+
*       -6.186342793E+00               0
GRID*               3616               03.1250000000E+023.9574107778E+01+
*       -1.805934988E+01               0
GRID*               3617               03.1250000000E+023.2886629809E+01+
*       -2.847313885E+01               0
GRID*               3618               03.0000000000E+023.2886629806E+01+
*       -2.847313886E+01               0
GRID*               3619               03.1250000000E+022.3533425279E+01+
*       -3.658453037E+01               0
GRID*               3620               02.8750000000E+02-2.353342541E+01+
*       -3.658453027E+01               0
GRID*               3621               02.8750000000E+02-3.288662989E+01+
*       -2.847313874E+01               0
GRID*               3622               02.7500000000E+02-3.288662989E+01+
*       -2.847313874E+01               0
GRID*               3623               02.8750000000E+02-3.957410780E+01+
*       -1.805934982E+01               0
GRID*               3624               02.8750000000E+02-4.175145134E+01+
*       -5.998963331E+00               0
GRID*               3625               02.7500000000E+02-4.305785747E+01+
*       -6.186342786E+00               0
GRID*               3626               02.8750000000E+02-4.305785747E+01+
*       6.1863427935E+00               0
GRID*               3627               02.8750000000E+02-3.957410778E+01+
*       1.8059349880E+01               0
GRID*               3628               02.7500000000E+02-3.957410778E+01+
*       1.8059349882E+01               0
GRID*               3629               02.8750000000E+02-3.288662980E+01+
*       2.8473138862E+01               0
GRID*               3630               02.8750000000E+02-2.353342527E+01+
*       3.6584530381E+01               0
GRID*               3631               02.7500000000E+02-2.353342527E+01+
*       3.6584530385E+01               0
GRID*               3632               02.8750000000E+02-1.226804075E+01+
*       4.1734221904E+01               0
GRID*               3633               02.8750000000E+021.1777401205E-11+
*       4.3500000000E+01               0
GRID*               3634               02.7500000000E+025.0215127532E-12+
*       4.3500000000E+01               0
GRID*               3635               02.8750000000E+021.2268040848E+01+
*       4.1734221862E+01               0
GRID*               3636               02.8750000000E+022.3533425413E+01+
*       3.6584530266E+01               0
GRID*               3637               02.7500000000E+022.3533425419E+01+
*       3.6584530261E+01               0
GRID*               3638               02.8750000000E+023.2886629890E+01+
*       2.8473138741E+01               0
GRID*               3639               02.8750000000E+023.8773175740E+01+
*       1.7694545291E+01               0
GRID*               3640               02.7500000000E+023.8773175741E+01+
*       1.7694545289E+01               0
GRID*               3641               02.8750000000E+024.3057857472E+01+
*       6.1863427865E+00               0
GRID*               3642               02.8750000000E+024.3057857472E+01+
*       -6.186342793E+00               0
GRID*               3643               02.7500000000E+024.3057857472E+01+
*       -6.186342794E+00               0
GRID*               3644               02.8750000000E+023.9574107776E+01+
*       -1.805934988E+01               0
GRID*               3645               02.8750000000E+023.2886629804E+01+
*       -2.847313886E+01               0
GRID*               3646               02.7500000000E+023.2886629801E+01+
*       -2.847313887E+01               0
GRID*               3647               02.8750000000E+022.3533425270E+01+
*       -3.658453038E+01               0
GRID*               3648               02.6250000000E+02-2.353342543E+01+
*       -3.658453026E+01               0
GRID*               3649               02.6250000000E+02-3.288662990E+01+
*       -2.847313873E+01               0
GRID*               3650               02.5000000000E+02-3.288662990E+01+
*       -2.847313873E+01               0
GRID*               3651               02.6250000000E+02-3.957410780E+01+
*       -1.805934981E+01               0
GRID*               3652               02.6250000000E+02-4.305785747E+01+
*       -6.186342786E+00               0
GRID*               3653               02.5000000000E+02-4.305785747E+01+
*       -6.186342786E+00               0
GRID*               3654               02.6250000000E+02-4.305785747E+01+
*       6.1863427939E+00               0
GRID*               3655               02.6250000000E+02-3.957410778E+01+
*       1.8059349883E+01               0
GRID*               3656               02.5000000000E+02-3.917364174E+01+
*       1.7876947622E+01               0
GRID*               3657               02.6250000000E+02-3.288662980E+01+
*       2.8473138869E+01               0
GRID*               3658               02.6250000000E+02-2.353342526E+01+
*       3.6584530388E+01               0
GRID*               3659               02.5000000000E+02-2.353342526E+01+
*       3.6584530392E+01               0
GRID*               3660               02.6250000000E+02-1.226804075E+01+
*       4.1734221906E+01               0
GRID*               3661               02.6250000000E+021.4940727284E-11+
*       4.3500000000E+01               0
GRID*               3662               02.5000000000E+028.2714446826E-12+
*       4.3500000000E+01               0
GRID*               3663               02.6250000000E+021.2268040856E+01+
*       4.1734221859E+01               0
GRID*               3664               02.6250000000E+022.3533425425E+01+
*       3.6584530256E+01               0
GRID*               3665               02.5000000000E+022.3533425431E+01+
*       3.6584530251E+01               0
GRID*               3666               02.6250000000E+023.2886629897E+01+
*       2.8473138731E+01               0
GRID*               3667               02.6250000000E+023.8773175743E+01+
*       1.7694545285E+01               0
GRID*               3668               02.5000000000E+023.9173641772E+01+
*       1.7876947548E+01               0
GRID*               3669               02.6250000000E+024.3057857472E+01+
*       6.1863427859E+00               0
GRID*               3670               02.6250000000E+024.3057857472E+01+
*       -6.186342794E+00               0
GRID*               3671               02.5000000000E+024.3057857472E+01+
*       -6.186342794E+00               0
GRID*               3672               02.6250000000E+023.9574107775E+01+
*       -1.805934988E+01               0
GRID*               3673               02.6250000000E+023.2886629798E+01+
*       -2.847313887E+01               0
GRID*               3674               02.5000000000E+023.2886629796E+01+
*       -2.847313887E+01               0
GRID*               3675               02.6250000000E+022.3533425261E+01+
*       -3.658453039E+01               0
GRID*               3676               02.3750000000E+02-2.353342544E+01+
*       -3.658453025E+01               0
GRID*               3677               02.3750000000E+02-3.288662990E+01+
*       -2.847313872E+01               0
GRID*               3678               02.2500000000E+02-3.288662991E+01+
*       -2.847313872E+01               0
GRID*               3679               02.3750000000E+02-3.957410780E+01+
*       -1.805934981E+01               0
GRID*               3680               02.3750000000E+02-4.305785747E+01+
*       -6.186342785E+00               0
GRID*               3681               02.2500000000E+02-4.305785747E+01+
*       -6.186342785E+00               0
GRID*               3682               02.3750000000E+02-4.305785747E+01+
*       6.1863427943E+00               0
GRID*               3683               02.3750000000E+02-3.917364174E+01+
*       1.7876947623E+01               0
GRID*               3684               02.2500000000E+02-3.877317570E+01+
*       1.7694545363E+01               0
GRID*               3685               02.3750000000E+02-3.288662979E+01+
*       2.8473138876E+01               0
GRID*               3686               02.3750000000E+02-2.353342525E+01+
*       3.6584530395E+01               0
GRID*               3687               02.2500000000E+02-2.353342525E+01+
*       3.6584530398E+01               0
GRID*               3688               02.3750000000E+02-1.226804074E+01+
*       4.1734221909E+01               0
GRID*               3689               02.3750000000E+021.8161579877E-11+
*       4.3500000000E+01               0
GRID*               3690               02.2500000000E+021.1405059266E-11+
*       4.3500000000E+01               0
GRID*               3691               02.3750000000E+021.2268040864E+01+
*       4.1734221855E+01               0
GRID*               3692               02.3750000000E+022.3533425437E+01+
*       3.6584530247E+01               0
GRID*               3693               02.2500000000E+022.3533425443E+01+
*       3.6584530242E+01               0
GRID*               3694               02.3750000000E+023.2886629904E+01+
*       2.8473138721E+01               0
GRID*               3695               02.3750000000E+023.9173641774E+01+
*       1.7876947545E+01               0
GRID*               3696               02.2500000000E+023.9574107802E+01+
*       1.8059349807E+01               0
GRID*               3697               02.3750000000E+024.3057857472E+01+
*       6.1863427854E+00               0
GRID*               3698               02.3750000000E+024.3057857472E+01+
*       -6.186342794E+00               0
GRID*               3699               02.2500000000E+024.2622388760E+01+
*       -6.123882984E+00               0
GRID*               3700               02.3750000000E+023.9574107774E+01+
*       -1.805934989E+01               0
GRID*               3701               02.3750000000E+023.2886629794E+01+
*       -2.847313888E+01               0
GRID*               3702               02.2500000000E+023.2886629791E+01+
*       -2.847313888E+01               0
GRID*               3703               02.3750000000E+022.3533425253E+01+
*       -3.658453039E+01               0
GRID*               3704               02.1250000000E+02-2.353342545E+01+
*       -3.658453024E+01               0
GRID*               3705               02.1250000000E+02-3.288662991E+01+
*       -2.847313871E+01               0
GRID*               3706               02.0000000000E+02-3.288662991E+01+
*       -2.847313871E+01               0
GRID*               3707               02.1250000000E+02-3.957410780E+01+
*       -1.805934980E+01               0
GRID*               3708               02.1250000000E+02-4.305785747E+01+
*       -6.186342785E+00               0
GRID*               3709               02.0000000000E+02-4.305785747E+01+
*       -6.186342785E+00               0
GRID*               3710               02.1250000000E+02-4.305785747E+01+
*       6.1863427946E+00               0
GRID*               3711               02.1250000000E+02-3.877317570E+01+
*       1.7694545363E+01               0
GRID*               3712               02.0000000000E+02-3.877317570E+01+
*       1.7694545366E+01               0
GRID*               3713               02.1250000000E+02-3.288662979E+01+
*       2.8473138882E+01               0
GRID*               3714               02.1250000000E+02-2.353342525E+01+
*       3.6584530401E+01               0
GRID*               3715               02.0000000000E+02-2.353342524E+01+
*       3.6584530404E+01               0
GRID*               3716               02.1250000000E+02-1.226804074E+01+
*       4.1734221911E+01               0
GRID*               3717               02.1250000000E+022.1268959842E-11+
*       4.3500000000E+01               0
GRID*               3718               02.0000000000E+021.4570281824E-11+
*       4.3500000000E+01               0
GRID*               3719               02.1250000000E+021.2268040872E+01+
*       4.1734221852E+01               0
GRID*               3720               02.1250000000E+022.3533425449E+01+
*       3.6584530237E+01               0
GRID*               3721               02.0000000000E+022.3533425455E+01+
*       3.6584530232E+01               0
GRID*               3722               02.1250000000E+023.2886629911E+01+
*       2.8473138711E+01               0
GRID*               3723               02.1250000000E+023.9574107803E+01+
*       1.8059349805E+01               0
GRID*               3724               02.0000000000E+023.9574107804E+01+
*       1.8059349803E+01               0
GRID*               3725               02.1250000000E+024.3057857473E+01+
*       6.1863427848E+00               0
GRID*               3726               02.1250000000E+024.2622388760E+01+
*       -6.123882984E+00               0
GRID*               3727               02.0000000000E+024.3057857472E+01+
*       -6.186342795E+00               0
GRID*               3728               02.1250000000E+023.9574107773E+01+
*       -1.805934989E+01               0
GRID*               3729               02.1250000000E+023.2886629789E+01+
*       -2.847313888E+01               0
GRID*               3730               02.0000000000E+023.2886629787E+01+
*       -2.847313889E+01               0
GRID*               3731               02.1250000000E+022.3533425246E+01+
*       -3.658453040E+01               0
GRID*               3732               01.8750000000E+02-2.353342546E+01+
*       -3.658453023E+01               0
GRID*               3733               01.8750000000E+02-3.288662992E+01+
*       -2.847313870E+01               0
GRID*               3734               01.7500000000E+02-3.288662992E+01+
*       -2.847313870E+01               0
GRID*               3735               01.8750000000E+02-3.957410780E+01+
*       -1.805934980E+01               0
GRID*               3736               01.8750000000E+02-4.305785747E+01+
*       -6.186342784E+00               0
GRID*               3737               01.7500000000E+02-4.305785747E+01+
*       -6.186342784E+00               0
GRID*               3738               01.8750000000E+02-4.305785747E+01+
*       6.1863427950E+00               0
GRID*               3739               01.8750000000E+02-3.877317570E+01+
*       1.7694545366E+01               0
GRID*               3740               01.7500000000E+02-3.957410777E+01+
*       1.8059349894E+01               0
GRID*               3741               01.8750000000E+02-3.288662979E+01+
*       2.8473138888E+01               0
GRID*               3742               01.8750000000E+02-2.353342524E+01+
*       3.6584530406E+01               0
GRID*               3743               01.7500000000E+02-2.353342524E+01+
*       3.6584530409E+01               0
GRID*               3744               01.8750000000E+02-1.226804073E+01+
*       4.1734221913E+01               0
GRID*               3745               01.8750000000E+022.4431337682E-11+
*       4.3500000000E+01               0
GRID*               3746               01.7500000000E+021.7733923983E-11+
*       4.3500000000E+01               0
GRID*               3747               01.8750000000E+021.2268040880E+01+
*       4.1734221849E+01               0
GRID*               3748               01.8750000000E+022.3533425460E+01+
*       3.6584530228E+01               0
GRID*               3749               01.7500000000E+022.3533425466E+01+
*       3.6584530223E+01               0
GRID*               3750               01.8750000000E+023.2886629918E+01+
*       2.8473138702E+01               0
GRID*               3751               01.8750000000E+023.9574107805E+01+
*       1.8059349800E+01               0
GRID*               3752               01.7500000000E+023.9173641779E+01+
*       1.7876947533E+01               0
GRID*               3753               01.8750000000E+024.3057857473E+01+
*       6.1863427842E+00               0
GRID*               3754               01.8750000000E+024.3057857472E+01+
*       -6.186342795E+00               0
GRID*               3755               01.7500000000E+024.2622388759E+01+
*       -6.123882985E+00               0
GRID*               3756               01.8750000000E+023.9574107772E+01+
*       -1.805934989E+01               0
GRID*               3757               01.8750000000E+023.2886629785E+01+
*       -2.847313889E+01               0
GRID*               3758               01.7500000000E+023.2886629783E+01+
*       -2.847313889E+01               0
GRID*               3759               01.8750000000E+022.3533425239E+01+
*       -3.658453041E+01               0
GRID*               3760               01.6250000000E+02-2.353342547E+01+
*       -3.658453022E+01               0
GRID*               3761               01.6250000000E+02-3.288662992E+01+
*       -2.847313869E+01               0
GRID*               3762               01.5000000000E+02-3.288662993E+01+
*       -2.847313869E+01               0
GRID*               3763               01.6250000000E+02-3.957410781E+01+
*       -1.805934980E+01               0
GRID*               3764               01.6250000000E+02-4.305785747E+01+
*       -6.186342784E+00               0
GRID*               3765               01.5000000000E+02-4.305785747E+01+
*       -6.186342783E+00               0
GRID*               3766               01.6250000000E+02-4.305785747E+01+
*       6.1863427953E+00               0
GRID*               3767               01.6250000000E+02-3.957410777E+01+
*       1.8059349895E+01               0
GRID*               3768               01.5000000000E+02-3.957410777E+01+
*       1.8059349896E+01               0
GRID*               3769               01.6250000000E+02-3.288662978E+01+
*       2.8473138893E+01               0
GRID*               3770               01.6250000000E+02-2.353342523E+01+
*       3.6584530411E+01               0
GRID*               3771               01.5000000000E+02-2.353342523E+01+
*       3.6584530413E+01               0
GRID*               3772               01.6250000000E+02-1.226804073E+01+
*       4.1734221914E+01               0
GRID*               3773               01.6250000000E+021.9866351655E-08+
*       4.3058555470E+01               0
GRID*               3774               01.5000000000E+022.0797252935E-08+
*       4.3058555470E+01               0
GRID*               3775               01.6250000000E+021.2268040888E+01+
*       4.1734221846E+01               0
GRID*               3776               01.6250000000E+022.3533425471E+01+
*       3.6584530219E+01               0
GRID*               3777               01.5000000000E+022.3533425477E+01+
*       3.6584530214E+01               0
GRID*               3778               01.6250000000E+023.2886629924E+01+
*       2.8473138692E+01               0
GRID*               3779               01.6250000000E+023.8873292260E+01+
*       1.7740145832E+01               0
GRID*               3780               01.5000000000E+023.8873292260E+01+
*       1.7740145830E+01               0
GRID*               3781               01.6250000000E+024.3057857473E+01+
*       6.1863427837E+00               0
GRID*               3782               01.6250000000E+024.1642584156E+01+
*       -5.983348413E+00               0
GRID*               3783               01.5000000000E+024.1533716978E+01+
*       -5.967733461E+00               0
GRID*               3784               01.6250000000E+023.9574107771E+01+
*       -1.805934989E+01               0
GRID*               3785               01.6250000000E+023.2886629781E+01+
*       -2.847313889E+01               0
GRID*               3786               01.5000000000E+023.2886629780E+01+
*       -2.847313890E+01               0
GRID*               3787               01.6250000000E+022.3533425233E+01+
*       -3.658453041E+01               0
GRID*               3788               01.3750000000E+02-2.353342548E+01+
*       -3.658453021E+01               0
GRID*               3789               01.3750000000E+02-3.288662993E+01+
*       -2.847313868E+01               0
GRID*               3790               01.2500000000E+02-3.288662993E+01+
*       -2.847313868E+01               0
GRID*               3791               01.3750000000E+02-3.957410781E+01+
*       -1.805934979E+01               0
GRID*               3792               01.3750000000E+02-4.305785747E+01+
*       -6.186342783E+00               0
GRID*               3793               01.2500000000E+02-4.305785747E+01+
*       -6.186342783E+00               0
GRID*               3794               01.3750000000E+02-4.305785747E+01+
*       6.1863427955E+00               0
GRID*               3795               01.3750000000E+02-3.957410777E+01+
*       1.8059349897E+01               0
GRID*               3796               01.2500000000E+02-3.957410777E+01+
*       1.8059349898E+01               0
GRID*               3797               01.3750000000E+02-3.288662978E+01+
*       2.8473138898E+01               0
GRID*               3798               01.3750000000E+02-2.353342523E+01+
*       3.6584530415E+01               0
GRID*               3799               01.2500000000E+02-2.353342523E+01+
*       3.6584530417E+01               0
GRID*               3800               01.3750000000E+02-1.226804072E+01+
*       4.1734221916E+01               0
GRID*               3801               01.3750000000E+023.0759254160E-11+
*       4.3500000000E+01               0
GRID*               3802               01.2500000000E+022.4061840461E-11+
*       4.3500000000E+01               0
GRID*               3803               01.3750000000E+021.2268040895E+01+
*       4.1734221842E+01               0
GRID*               3804               01.3750000000E+022.3533425482E+01+
*       3.6584530210E+01               0
GRID*               3805               01.2500000000E+022.3533425487E+01+
*       3.6584530206E+01               0
GRID*               3806               01.3750000000E+023.2886629931E+01+
*       2.8473138683E+01               0
GRID*               3807               01.3750000000E+023.8873292262E+01+
*       1.7740145827E+01               0
GRID*               3808               01.2500000000E+023.9173641783E+01+
*       1.7876947524E+01               0
GRID*               3809               01.3750000000E+024.3057857473E+01+
*       6.1863427831E+00               0
GRID*               3810               01.3750000000E+024.2622388759E+01+
*       -6.123882986E+00               0
GRID*               3811               01.2500000000E+024.2622388759E+01+
*       -6.123882986E+00               0
GRID*               3812               01.3750000000E+023.9574107770E+01+
*       -1.805934990E+01               0
GRID*               3813               01.3750000000E+023.2886629778E+01+
*       -2.847313890E+01               0
GRID*               3814               01.2500000000E+023.2886629777E+01+
*       -2.847313890E+01               0
GRID*               3815               01.3750000000E+022.3533425227E+01+
*       -3.658453042E+01               0
GRID*               3816               01.1250000000E+02-2.353342549E+01+
*       -3.658453020E+01               0
GRID*               3817               01.1250000000E+02-3.288662994E+01+
*       -2.847313867E+01               0
GRID*               3818               01.0000000000E+02-3.288662994E+01+
*       -2.847313867E+01               0
GRID*               3819               01.1250000000E+02-3.957410781E+01+
*       -1.805934979E+01               0
GRID*               3820               01.1250000000E+02-4.305785747E+01+
*       -6.186342783E+00               0
GRID*               3821               01.0000000000E+02-4.305785747E+01+
*       -6.186342782E+00               0
GRID*               3822               01.1250000000E+02-4.305785747E+01+
*       6.1863427957E+00               0
GRID*               3823               01.1250000000E+02-3.957410777E+01+
*       1.8059349899E+01               0
GRID*               3824               01.0000000000E+02-3.957410777E+01+
*       1.8059349900E+01               0
GRID*               3825               01.1250000000E+02-3.288662978E+01+
*       2.8473138901E+01               0
GRID*               3826               01.1250000000E+02-2.353342522E+01+
*       3.6584530419E+01               0
GRID*               3827               01.0000000000E+02-2.353342522E+01+
*       3.6584530421E+01               0
GRID*               3828               01.1250000000E+02-1.226804072E+01+
*       4.1734221917E+01               0
GRID*               3829               01.1250000000E+023.3950711337E-11+
*       4.3500000000E+01               0
GRID*               3830               01.0000000000E+022.7224218302E-11+
*       4.3500000000E+01               0
GRID*               3831               01.1250000000E+021.2268040902E+01+
*       4.1734221839E+01               0
GRID*               3832               01.1250000000E+022.3533425492E+01+
*       3.6584530202E+01               0
GRID*               3833               01.0000000000E+022.3533425497E+01+
*       3.6584530198E+01               0
GRID*               3834               01.1250000000E+023.2886629937E+01+
*       2.8473138675E+01               0
GRID*               3835               01.1250000000E+023.9173641784E+01+
*       1.7876947522E+01               0
GRID*               3836               01.0000000000E+023.9173641784E+01+
*       1.7876947520E+01               0
GRID*               3837               01.1250000000E+024.3057857473E+01+
*       6.1863427826E+00               0
GRID*               3838               01.1250000000E+024.3057857472E+01+
*       -6.186342796E+00               0
GRID*               3839               01.0000000000E+024.3057857472E+01+
*       -6.186342796E+00               0
GRID*               3840               01.1250000000E+023.9574107769E+01+
*       -1.805934990E+01               0
GRID*               3841               01.1250000000E+023.2886629776E+01+
*       -2.847313890E+01               0
GRID*               3842               01.0000000000E+023.2886629774E+01+
*       -2.847313890E+01               0
GRID*               3843               01.1250000000E+022.3533425223E+01+
*       -3.658453042E+01               0
GRID*               3844               08.7500000004E+01-2.353342550E+01+
*       -3.658453019E+01               0
GRID*               3845               08.7500000002E+01-3.288662994E+01+
*       -2.847313867E+01               0
GRID*               3846               07.5000000003E+01-3.288662994E+01+
*       -2.847313866E+01               0
GRID*               3847               08.7500000001E+01-3.957410781E+01+
*       -1.805934978E+01               0
GRID*               3848               08.7500000000E+01-4.305785747E+01+
*       -6.186342782E+00               0
GRID*               3849               07.5000000000E+01-4.305785747E+01+
*       -6.186342782E+00               0
GRID*               3850               08.7500000000E+01-4.305785747E+01+
*       6.1863427959E+00               0
GRID*               3851               08.7500000000E+01-3.917364173E+01+
*       1.7876947638E+01               0
GRID*               3852               07.5000000000E+01-3.917364173E+01+
*       1.7876947639E+01               0
GRID*               3853               08.7500000000E+01-3.288662977E+01+
*       2.8473138905E+01               0
GRID*               3854               08.7500000000E+01-2.353342522E+01+
*       3.6584530422E+01               0
GRID*               3855               07.5000000000E+01-2.329440272E+01+
*       3.6214317921E+01               0
GRID*               3856               08.7500000000E+01-1.226804072E+01+
*       4.1734221918E+01               0
GRID*               3857               08.7500000000E+013.7116249975E-11+
*       4.3500000000E+01               0
GRID*               3858               07.5000000000E+013.0417729997E-11+
*       4.3500000000E+01               0
GRID*               3859               08.7500000002E+011.2268040909E+01+
*       4.1734221837E+01               0
GRID*               3860               08.7500000004E+012.3533425502E+01+
*       3.6584530194E+01               0
GRID*               3861               07.5000000004E+012.3533425506E+01+
*       3.6584530191E+01               0
GRID*               3862               08.7500000003E+013.2886629942E+01+
*       2.8473138667E+01               0
GRID*               3863               08.7500000001E+013.9574107811E+01+
*       1.8059349783E+01               0
GRID*               3864               07.5000000001E+013.9574107812E+01+
*       1.8059349781E+01               0
GRID*               3865               08.7500000000E+014.3057857473E+01+
*       6.1863427821E+00               0
GRID*               3866               08.7500000000E+014.3057857472E+01+
*       -6.186342796E+00               0
GRID*               3867               07.5000000000E+014.3057857472E+01+
*       -6.186342796E+00               0
GRID*               3868               08.7500000000E+013.9574107769E+01+
*       -1.805934990E+01               0
GRID*               3869               08.7500000000E+013.2886629773E+01+
*       -2.847313890E+01               0
GRID*               3870               07.5000000000E+013.2886629772E+01+
*       -2.847313891E+01               0
GRID*               3871               08.7500000000E+012.3533425219E+01+
*       -3.658453042E+01               0
GRID*               3872               06.2500000004E+01-2.353342551E+01+
*       -3.658453019E+01               0
GRID*               3873               06.2500000003E+01-3.288662995E+01+
*       -2.847313866E+01               0
GRID*               3874               05.0000000003E+01-3.288662995E+01+
*       -2.847313866E+01               0
GRID*               3875               06.2500000001E+01-3.957410781E+01+
*       -1.805934978E+01               0
GRID*               3876               06.2500000000E+01-4.305785747E+01+
*       -6.186342782E+00               0
GRID*               3877               05.0000000000E+01-4.305785747E+01+
*       -6.186342781E+00               0
GRID*               3878               06.2500000000E+01-4.305785747E+01+
*       6.1863427960E+00               0
GRID*               3879               06.2500000000E+01-3.957410777E+01+
*       1.8059349902E+01               0
GRID*               3880               05.0000000000E+01-3.957410777E+01+
*       1.8059349902E+01               0
GRID*               3881               06.2500000000E+01-3.288662977E+01+
*       2.8473138907E+01               0
GRID*               3882               06.2500000000E+01-2.329440272E+01+
*       3.6214317922E+01               0
GRID*               3883               05.0000000000E+01-2.353342522E+01+
*       3.6584530425E+01               0
GRID*               3884               06.2500000000E+01-1.226804072E+01+
*       4.1734221919E+01               0
GRID*               3885               06.2500000000E+014.0308023231E-11+
*       4.3500000000E+01               0
GRID*               3886               05.0000000000E+013.3609266193E-11+
*       4.3500000000E+01               0
GRID*               3887               06.2500000003E+011.2268040915E+01+
*       4.1734221834E+01               0
GRID*               3888               06.2500000004E+012.3533425509E+01+
*       3.6584530188E+01               0
GRID*               3889               05.0000000004E+012.3533425512E+01+
*       3.6584530186E+01               0
GRID*               3890               06.2500000003E+013.2886629947E+01+
*       2.8473138661E+01               0
GRID*               3891               06.2500000001E+013.9173641787E+01+
*       1.7876947514E+01               0
GRID*               3892               05.0000000001E+013.8873292268E+01+
*       1.7740145815E+01               0
GRID*               3893               06.2500000000E+014.3057857473E+01+
*       6.1863427816E+00               0
GRID*               3894               06.2500000000E+014.3057857472E+01+
*       -6.186342796E+00               0
GRID*               3895               05.0000000000E+014.3057857472E+01+
*       -6.186342796E+00               0
GRID*               3896               06.2500000000E+013.9574107768E+01+
*       -1.805934990E+01               0
GRID*               3897               06.2500000000E+013.2886629772E+01+
*       -2.847313891E+01               0
GRID*               3898               05.0000000000E+013.2886629771E+01+
*       -2.847313891E+01               0
GRID*               3899               06.2500000000E+012.3533425216E+01+
*       -3.658453042E+01               0
GRID*               3900               03.7500000004E+01-2.353342551E+01+
*       -3.658453019E+01               0
GRID*               3901               03.7500000003E+01-3.288662995E+01+
*       -2.847313866E+01               0
GRID*               3902               02.5000000003E+01-3.288662995E+01+
*       -2.847313866E+01               0
GRID*               3903               03.7500000001E+01-3.957410781E+01+
*       -1.805934978E+01               0
GRID*               3904               03.7500000000E+01-4.305785747E+01+
*       -6.186342781E+00               0
GRID*               3905               02.5000000000E+01-4.305785747E+01+
*       -6.186342781E+00               0
GRID*               3906               03.7500000000E+01-4.305785747E+01+
*       6.1863427961E+00               0
GRID*               3907               03.7500000000E+01-3.957410777E+01+
*       1.8059349903E+01               0
GRID*               3908               02.5000000000E+01-3.917364173E+01+
*       1.7876947640E+01               0
GRID*               3909               03.7500000000E+01-3.288662977E+01+
*       2.8473138909E+01               0
GRID*               3910               03.7500000000E+01-2.353342521E+01+
*       3.6584530426E+01               0
GRID*               3911               02.5000000000E+01-2.353342521E+01+
*       3.6584530426E+01               0
GRID*               3912               03.7500000000E+01-1.226804071E+01+
*       4.1734221920E+01               0
GRID*               3913               03.7500000000E+014.3500981787E-11+
*       4.3500000000E+01               0
GRID*               3914               02.5000000000E+013.6772947863E-11+
*       4.3500000000E+01               0
GRID*               3915               03.7500000003E+011.2268040919E+01+
*       4.1734221832E+01               0
GRID*               3916               03.7500000004E+012.3533425513E+01+
*       3.6584530185E+01               0
GRID*               3917               02.5000000004E+012.3533425510E+01+
*       3.6584530188E+01               0
GRID*               3918               03.7500000003E+013.2886629949E+01+
*       2.8473138658E+01               0
GRID*               3919               03.7500000001E+013.9173641787E+01+
*       1.7876947513E+01               0
GRID*               3920               02.5000000001E+013.9173641787E+01+
*       1.7876947514E+01               0
GRID*               3921               03.7500000000E+014.3057857473E+01+
*       6.1863427813E+00               0
GRID*               3922               03.7500000000E+014.3057857472E+01+
*       -6.186342796E+00               0
GRID*               3923               02.5000000000E+014.3057857472E+01+
*       -6.186342796E+00               0
GRID*               3924               03.7500000000E+013.9574107768E+01+
*       -1.805934990E+01               0
GRID*               3925               03.7500000000E+013.2886629770E+01+
*       -2.847313891E+01               0
GRID*               3926               02.5000000000E+013.2886629770E+01+
*       -2.847313891E+01               0
GRID*               3927               03.7500000000E+012.3533425214E+01+
*       -3.658453043E+01               0
GRID*               3928               08.8750000000E+02-1.226804071E+01+
*       -4.173422192E+01               0
GRID*               3929               08.7500000000E+02-1.226804071E+01+
*       -4.173422192E+01               0
GRID*               3930               08.8750000000E+02-2.353342521E+01+
*       -3.658453043E+01               0
GRID*               3931               08.6250000000E+02-1.226804071E+01+
*       -4.173422192E+01               0
GRID*               3932               08.5000000000E+02-1.226804072E+01+
*       -4.173422192E+01               0
GRID*               3933               08.3750000000E+02-1.226804072E+01+
*       -4.173422192E+01               0
GRID*               3934               08.2500000000E+02-1.214270869E+01+
*       -4.131123274E+01               0
GRID*               3935               08.1250000000E+02-1.204870967E+01+
*       -4.099399086E+01               0
GRID*               3936               08.0000000000E+02-1.214270869E+01+
*       -4.131123274E+01               0
GRID*               3937               07.8750000000E+02-1.226804072E+01+
*       -4.173422192E+01               0
GRID*               3938               07.7500000000E+02-1.214270869E+01+
*       -4.131123274E+01               0
GRID*               3939               07.6250000000E+02-1.204870968E+01+
*       -4.099399086E+01               0
GRID*               3940               07.5000000000E+02-1.214270870E+01+
*       -4.131123274E+01               0
GRID*               3941               07.3750000000E+02-1.226804073E+01+
*       -4.173422191E+01               0
GRID*               3942               07.2500000000E+02-1.226804073E+01+
*       -4.173422191E+01               0
GRID*               3943               07.1250000000E+02-1.226804073E+01+
*       -4.173422191E+01               0
GRID*               3944               07.0000000000E+02-1.226804073E+01+
*       -4.173422191E+01               0
GRID*               3945               06.8750000000E+02-1.226804074E+01+
*       -4.173422191E+01               0
GRID*               3946               06.7500000000E+02-1.226804074E+01+
*       -4.173422191E+01               0
GRID*               3947               06.6250000000E+02-1.226804074E+01+
*       -4.173422191E+01               0
GRID*               3948               06.5000000000E+02-1.226804074E+01+
*       -4.173422191E+01               0
GRID*               3949               06.3750000000E+02-1.214270872E+01+
*       -4.131123273E+01               0
GRID*               3950               06.2500000000E+02-1.214270872E+01+
*       -4.131123273E+01               0
GRID*               3951               06.1250000000E+02-1.226804075E+01+
*       -4.173422190E+01               0
GRID*               3952               06.0000000000E+02-1.226804075E+01+
*       -4.173422190E+01               0
GRID*               3953               05.8750000000E+02-1.226804076E+01+
*       -4.173422190E+01               0
GRID*               3954               05.7500000000E+02-1.226804076E+01+
*       -4.173422190E+01               0
GRID*               3955               05.6250000000E+02-1.226804076E+01+
*       -4.173422190E+01               0
GRID*               3956               05.5000000000E+02-1.226804077E+01+
*       -4.173422190E+01               0
GRID*               3957               05.3750000000E+02-1.226804077E+01+
*       -4.173422190E+01               0
GRID*               3958               05.2500000000E+02-1.226804077E+01+
*       -4.173422189E+01               0
GRID*               3959               05.1250000000E+02-1.226804078E+01+
*       -4.173422189E+01               0
GRID*               3960               05.0000000000E+02-1.226804078E+01+
*       -4.173422189E+01               0
GRID*               3961               04.8750000000E+02-1.226804079E+01+
*       -4.173422189E+01               0
GRID*               3962               04.7500000000E+02-1.226804079E+01+
*       -4.173422189E+01               0
GRID*               3963               04.6250000000E+02-1.226804079E+01+
*       -4.173422189E+01               0
GRID*               3964               04.5000000000E+02-1.226804080E+01+
*       -4.173422188E+01               0
GRID*               3965               04.3750000000E+02-1.226804080E+01+
*       -4.173422188E+01               0
GRID*               3966               04.2500000000E+02-1.226804080E+01+
*       -4.173422188E+01               0
GRID*               3967               04.1250000000E+02-1.226804081E+01+
*       -4.173422188E+01               0
GRID*               3968               04.0000000000E+02-1.226804081E+01+
*       -4.173422188E+01               0
GRID*               3969               03.8750000000E+02-1.226804082E+01+
*       -4.173422188E+01               0
GRID*               3970               03.7500000000E+02-1.226804082E+01+
*       -4.173422187E+01               0
GRID*               3971               03.6250000000E+02-1.226804082E+01+
*       -4.173422187E+01               0
GRID*               3972               03.5000000000E+02-1.226804083E+01+
*       -4.173422187E+01               0
GRID*               3973               03.3750000000E+02-1.226804083E+01+
*       -4.173422187E+01               0
GRID*               3974               03.2500000000E+02-1.226804084E+01+
*       -4.173422187E+01               0
GRID*               3975               03.1250000000E+02-1.226804084E+01+
*       -4.173422187E+01               0
GRID*               3976               03.0000000000E+02-1.226804084E+01+
*       -4.173422186E+01               0
GRID*               3977               02.8750000000E+02-1.226804085E+01+
*       -4.173422186E+01               0
GRID*               3978               02.7500000000E+02-1.214270882E+01+
*       -4.131123268E+01               0
GRID*               3979               02.6250000000E+02-1.204870979E+01+
*       -4.099399079E+01               0
GRID*               3980               02.5000000000E+02-1.214270882E+01+
*       -4.131123267E+01               0
GRID*               3981               02.3750000000E+02-1.226804086E+01+
*       -4.173422186E+01               0
GRID*               3982               02.2500000000E+02-1.226804087E+01+
*       -4.173422185E+01               0
GRID*               3983               02.1250000000E+02-1.226804087E+01+
*       -4.173422185E+01               0
GRID*               3984               02.0000000000E+02-1.201737680E+01+
*       -4.088824348E+01               0
GRID*               3985               01.8750000000E+02-1.195471078E+01+
*       -4.067674889E+01               0
GRID*               3986               01.7500000000E+02-1.204870982E+01+
*       -4.099399078E+01               0
GRID*               3987               01.6250000000E+02-1.226804089E+01+
*       -4.173422185E+01               0
GRID*               3988               01.5000000000E+02-1.226804089E+01+
*       -4.173422184E+01               0
GRID*               3989               01.3750000000E+02-1.226804090E+01+
*       -4.173422184E+01               0
GRID*               3990               01.2500000000E+02-1.226804090E+01+
*       -4.173422184E+01               0
GRID*               3991               01.1250000000E+02-1.226804090E+01+
*       -4.173422184E+01               0
GRID*               3992               01.0000000000E+02-1.226804091E+01+
*       -4.173422184E+01               0
GRID*               3993               08.7500000002E+01-1.226804091E+01+
*       -4.173422184E+01               0
GRID*               3994               07.5000000002E+01-1.226804091E+01+
*       -4.173422184E+01               0
GRID*               3995               06.2500000002E+01-1.226804091E+01+
*       -4.173422183E+01               0
GRID*               3996               05.0000000002E+01-1.226804092E+01+
*       -4.173422183E+01               0
GRID*               3997               03.7500000002E+01-1.226804092E+01+
*       -4.173422183E+01               0
GRID*               3998               02.5000000002E+01-1.226804092E+01+
*       -4.173422183E+01               0
GRID*               3999               01.2500000002E+01-1.226804091E+01+
*       -4.173422184E+01               0
GRID*               4000               01.2500000004E+01-2.353342549E+01+
*       -3.658453020E+01               0
GRID*               4001               01.2500000002E+01-3.288662993E+01+
*       -2.847313868E+01               0
GRID*               4002               01.2500000001E+01-3.957410781E+01+
*       -1.805934978E+01               0
GRID*               4003               01.2500000000E+01-4.305785747E+01+
*       -6.186342781E+00               0
GRID*               4004               01.2500000000E+01-4.305785747E+01+
*       6.1863427950E+00               0
GRID*               4005               01.2500000000E+01-3.917364173E+01+
*       1.7876947639E+01               0
GRID*               4006               01.2500000000E+01-3.288662977E+01+
*       2.8473138909E+01               0
GRID*               4007               01.2500000000E+01-2.353342521E+01+
*       3.6584530427E+01               0
GRID*               4008               01.2500000000E+01-1.226804071E+01+
*       4.1734221920E+01               0
GRID*               4009               01.2500000000E+014.6663675707E-11+
*       4.3500000000E+01               0
GRID*               4010               01.2500000002E+011.2268040911E+01+
*       4.1734221835E+01               0
GRID*               4011               01.2500000004E+012.3533425491E+01+
*       3.6584530203E+01               0
GRID*               4012               01.2500000002E+013.2886629925E+01+
*       2.8473138693E+01               0
GRID*               4013               01.2500000001E+013.8873292245E+01+
*       1.7740145853E+01               0
GRID*               4014               01.2500000000E+014.3057857473E+01+
*       6.1863427820E+00               0
GRID*               4015               01.2500000000E+014.3057857472E+01+
*       -6.186342796E+00               0
GRID*               4016               01.2500000000E+013.9574107768E+01+
*       -1.805934990E+01               0
GRID*               4017               01.2500000000E+013.2886629770E+01+
*       -2.847313891E+01               0
GRID*               4018               01.2500000000E+012.3533425213E+01+
*       -3.658453043E+01               0
GRID*               4019               01.2500000001E+011.2268040714E+01+
*       -4.173422192E+01               0
GRID*               4020               02.5000000001E+011.2268040714E+01+
*       -4.173422192E+01               0
GRID*               4021               03.7500000001E+011.2268040715E+01+
*       -4.173422192E+01               0
GRID*               4022               05.0000000001E+011.2268040715E+01+
*       -4.173422192E+01               0
GRID*               4023               06.2500000001E+011.2268040716E+01+
*       -4.173422192E+01               0
GRID*               4024               07.5000000000E+011.2142708690E+01+
*       -4.131123274E+01               0
GRID*               4025               08.7500000000E+011.2048709670E+01+
*       -4.099399086E+01               0
GRID*               4026               01.0000000000E+021.2142708692E+01+
*       -4.131123274E+01               0
GRID*               4027               01.1250000000E+021.2268040720E+01+
*       -4.173422192E+01               0
GRID*               4028               01.2500000000E+021.2268040722E+01+
*       -4.173422192E+01               0
GRID*               4029               01.3750000000E+021.2268040724E+01+
*       -4.173422192E+01               0
GRID*               4030               01.5000000000E+021.2268040725E+01+
*       -4.173422192E+01               0
GRID*               4031               01.6250000000E+021.2268040727E+01+
*       -4.173422191E+01               0
GRID*               4032               01.7500000000E+021.2268040729E+01+
*       -4.173422191E+01               0
GRID*               4033               01.8750000000E+021.2268040731E+01+
*       -4.173422191E+01               0
GRID*               4034               02.0000000000E+021.2268040733E+01+
*       -4.173422191E+01               0
GRID*               4035               02.1250000000E+021.2268040736E+01+
*       -4.173422191E+01               0
GRID*               4036               02.2500000000E+021.2268040738E+01+
*       -4.173422191E+01               0
GRID*               4037               02.3750000000E+021.2268040741E+01+
*       -4.173422191E+01               0
GRID*               4038               02.5000000000E+021.2268040743E+01+
*       -4.173422191E+01               0
GRID*               4039               02.6250000000E+021.2268040746E+01+
*       -4.173422191E+01               0
GRID*               4040               02.7500000000E+021.2268040749E+01+
*       -4.173422190E+01               0
GRID*               4041               02.8750000000E+021.2268040752E+01+
*       -4.173422190E+01               0
GRID*               4042               03.0000000000E+021.2268040755E+01+
*       -4.173422190E+01               0
GRID*               4043               03.1250000000E+021.2268040758E+01+
*       -4.173422190E+01               0
GRID*               4044               03.2500000000E+021.2268040761E+01+
*       -4.173422190E+01               0
GRID*               4045               03.3750000000E+021.2268040764E+01+
*       -4.173422190E+01               0
GRID*               4046               03.5000000000E+021.2268040768E+01+
*       -4.173422190E+01               0
GRID*               4047               03.6250000000E+021.2268040771E+01+
*       -4.173422190E+01               0
GRID*               4048               03.7500000000E+021.2268040775E+01+
*       -4.173422189E+01               0
GRID*               4049               03.8750000000E+021.2268040778E+01+
*       -4.173422189E+01               0
GRID*               4050               04.0000000000E+021.2268040782E+01+
*       -4.173422189E+01               0
GRID*               4051               04.1250000000E+021.2268040785E+01+
*       -4.173422189E+01               0
GRID*               4052               04.2500000000E+021.2268040789E+01+
*       -4.173422189E+01               0
GRID*               4053               04.3750000000E+021.2268040793E+01+
*       -4.173422189E+01               0
GRID*               4054               04.5000000000E+021.2268040797E+01+
*       -4.173422188E+01               0
GRID*               4055               04.6250000000E+021.2268040800E+01+
*       -4.173422188E+01               0
GRID*               4056               04.7500000000E+021.2268040804E+01+
*       -4.173422188E+01               0
GRID*               4057               04.8750000000E+021.2268040808E+01+
*       -4.173422188E+01               0
GRID*               4058               05.0000000000E+021.2268040812E+01+
*       -4.173422188E+01               0
GRID*               4059               05.1250000000E+021.2268040816E+01+
*       -4.173422188E+01               0
GRID*               4060               05.2500000000E+021.2268040820E+01+
*       -4.173422187E+01               0
GRID*               4061               05.3750000000E+021.2268040824E+01+
*       -4.173422187E+01               0
GRID*               4062               05.5000000000E+021.2142708794E+01+
*       -4.131123269E+01               0
GRID*               4063               05.6250000000E+021.2048709771E+01+
*       -4.099399080E+01               0
GRID*               4064               05.7500000000E+021.2142708802E+01+
*       -4.131123269E+01               0
GRID*               4065               05.8750000000E+021.2268040840E+01+
*       -4.173422187E+01               0
GRID*               4066               06.0000000000E+021.2268040844E+01+
*       -4.173422186E+01               0
GRID*               4067               06.1250000000E+021.2268040848E+01+
*       -4.173422186E+01               0
GRID*               4068               06.2500000000E+021.2268040852E+01+
*       -4.173422186E+01               0
GRID*               4069               06.3750000000E+021.2268040856E+01+
*       -4.173422186E+01               0
GRID*               4070               06.5000000000E+021.2268040860E+01+
*       -4.173422186E+01               0
GRID*               4071               06.6250000000E+021.2268040864E+01+
*       -4.173422186E+01               0
GRID*               4072               06.7500000000E+021.2268040868E+01+
*       -4.173422185E+01               0
GRID*               4073               06.8750000000E+021.2268040872E+01+
*       -4.173422185E+01               0
GRID*               4074               07.0000000000E+021.2268040876E+01+
*       -4.173422185E+01               0
GRID*               4075               07.1250000000E+021.2268040880E+01+
*       -4.173422185E+01               0
GRID*               4076               07.2500000000E+021.2268040884E+01+
*       -4.173422185E+01               0
GRID*               4077               07.3750000000E+021.2268040888E+01+
*       -4.173422185E+01               0
GRID*               4078               07.5000000000E+021.2268040891E+01+
*       -4.173422184E+01               0
GRID*               4079               07.6250000000E+021.2268040895E+01+
*       -4.173422184E+01               0
GRID*               4080               07.7500000000E+021.2268040899E+01+
*       -4.173422184E+01               0
GRID*               4081               07.8750000000E+021.2268040902E+01+
*       -4.173422184E+01               0
GRID*               4082               08.0000000000E+021.2268040905E+01+
*       -4.173422184E+01               0
GRID*               4083               08.1250000000E+021.2268040909E+01+
*       -4.173422184E+01               0
GRID*               4084               08.2500000000E+021.2268040912E+01+
*       -4.173422184E+01               0
GRID*               4085               08.3750000000E+021.2268040915E+01+
*       -4.173422183E+01               0
GRID*               4086               08.5000000000E+021.2268040917E+01+
*       -4.173422183E+01               0
GRID*               4087               08.6250000000E+021.2268040919E+01+
*       -4.173422183E+01               0
GRID*               4088               08.7500000000E+021.2142708878E+01+
*       -4.131123265E+01               0
GRID*               4089               08.8750000000E+022.3533425480E+01+
*       -3.658453022E+01               0
GRID*               4090               08.8750000000E+021.2048709843E+01+
*       -4.099399076E+01               0
GRID*               4091               08.8750000000E+023.9574107811E+01+
*       -1.805934978E+01               0
GRID*               4092               08.8750000000E+023.2886629934E+01+
*       -2.847313868E+01               0
GRID*               4093               08.8750000000E+024.3057857472E+01+
*       6.1863427962E+00               0
GRID*               4094               08.8750000000E+024.3057857473E+01+
*       -6.186342781E+00               0
GRID*               4095               08.8750000000E+023.2886629780E+01+
*       2.8473138898E+01               0
GRID*               4096               08.8750000000E+023.9574107768E+01+
*       1.8059349903E+01               0
GRID*               4097               08.8750000000E+021.2268040741E+01+
*       4.1734221912E+01               0
GRID*               4098               08.8750000000E+022.3115135868E+01+
*       3.5936658526E+01               0
GRID*               4099               08.8750000000E+02-1.226804091E+01+
*       4.1734221835E+01               0
GRID*               4100               08.8750000000E+02-6.423851295E-11+
*       4.3500000000E+01               0
GRID*               4101               08.8750000000E+02-3.288662993E+01+
*       2.8473138678E+01               0
GRID*               4102               08.8750000000E+02-2.353342549E+01+
*       3.6584530203E+01               0
GRID*               4103               08.8750000000E+02-4.305785747E+01+
*       6.1863427820E+00               0
GRID*               4104               08.8750000000E+02-3.957410781E+01+
*       1.8059349784E+01               0
GRID*               4105               08.8750000000E+02-3.957410777E+01+
*       -1.805934990E+01               0
GRID*               4106               08.8750000000E+02-4.262238876E+01+
*       -6.123882987E+00               0
GRID*               4107               08.8750000000E+02-3.288662977E+01+
*       -2.847313891E+01               0
GRID*               4108               02.4999999763E+01-2.330969543E+01+
*       -4.423394947E+01               0
GRID*               4109               02.4999999347E+01-4.119600907E+01+
*       -2.833451196E+01               0
GRID*               4110               02.4999999081E+01-4.964478255E+01+
*       -5.944264681E+00               0
GRID*               4111               02.4999998504E+01-4.672078352E+01+
*       1.7807643945E+01               0
GRID*               4112               02.4999998160E+01-3.309377129E+01+
*       3.7480268577E+01               0
GRID*               4113               02.4999998427E+01-1.188516577E+01+
*       4.8566842746E+01               0
GRID*               4114               02.4999999933E+011.2046495644E+01+
*       4.8527081755E+01               0
GRID*               4115               02.4999999546E+013.3218139338E+01+
*       3.7370108275E+01               0
GRID*               4116               02.4999999155E+014.6779709109E+01+
*       1.7652298193E+01               0
GRID*               4117               02.4999998862E+014.9624752116E+01+
*       -6.109200496E+00               0
GRID*               4118               02.4999998298E+014.1101617092E+01+
*       -2.847123718E+01               0
GRID*               4119               02.4999998156E+012.3162579859E+01+
*       -4.431114895E+01               0
GRID*               4120               04.9999999423E+01-2.338319778E+01+
*       -4.419514892E+01               0
GRID*               4121               04.9999998111E+01-4.124302906E+01+
*       -2.826603910E+01               0
GRID*               4122               04.9999996845E+01-4.965458135E+01+
*       -5.861856767E+00               0
GRID*               4123               04.9999995039E+01-4.669119002E+01+
*       1.7885092120E+01               0
GRID*               4124               04.9999994028E+01-3.303161870E+01+
*       3.7535064023E+01               0
GRID*               4125               04.9999996481E+01-1.180453126E+01+
*       4.8586510710E+01               0
GRID*               4126               04.9999999865E+011.2127160182E+01+
*       4.8506992787E+01               0
GRID*               4127               04.9999998792E+013.3280203328E+01+
*       3.7314859636E+01               0
GRID*               4128               04.9999997392E+014.6808960931E+01+
*       1.7574594410E+01               0
GRID*               4129               04.9999996047E+014.9614548089E+01+
*       -6.191518638E+00               0
GRID*               4130               04.9999994384E+014.1054369592E+01+
*       -2.853932731E+01               0
GRID*               4131               04.9999994316E+012.3089109334E+01+
*       -4.434948876E+01               0
GRID*               4132               07.4999999014E+01-2.345662857E+01+
*       -4.415622883E+01               0
GRID*               4133               07.4999996415E+01-4.128991337E+01+
*       -2.819751667E+01               0
GRID*               4134               07.4999993568E+01-4.966423365E+01+
*       -5.779505665E+00               0
GRID*               4135               07.4999990148E+01-4.666150715E+01+
*       1.7962395927E+01               0
GRID*               4136               07.4999988731E+01-3.296944251E+01+
*       3.7589703851E+01               0
GRID*               4137               07.4999997283E+01-1.172367715E+01+
*       4.8606068569E+01               0
GRID*               4138               07.4999999803E+011.2207790469E+01+
*       4.8486769311E+01               0
GRID*               4139               07.4999997811E+013.3342159764E+01+
*       3.7259519797E+01               0
GRID*               4140               07.4999994896E+014.6838062795E+01+
*       1.7496892493E+01               0
GRID*               4141               07.4999991944E+014.9604219148E+01+
*       -6.273729656E+00               0
GRID*               4142               07.4999989027E+014.1007072381E+01+
*       -2.860725581E+01               0
GRID*               4143               07.4999990241E+012.3015593161E+01+
*       -4.438769830E+01               0
GRID*               4144               09.9999998571E+01-2.352999052E+01+
*       -4.411718807E+01               0
GRID*               4145               09.9999994371E+01-4.133666708E+01+
*       -2.812893803E+01               0
GRID*               4146               09.9999989504E+01-4.967374173E+01+
*       -5.697194072E+00               0
GRID*               4147               09.9999984318E+01-4.663172173E+01+
*       1.8039587116E+01               0
GRID*               4148               09.9999983264E+01-3.290718757E+01+
*       3.7644230378E+01               0
GRID*               4149               01.0000000241E+02-1.164249439E+01+
*       4.8625530676E+01               0
GRID*               4150               09.9999999755E+011.2288387380E+01+
*       4.8466411212E+01               0
GRID*               4151               09.9999996668E+013.3404012890E+01+
*       3.7204085504E+01               0
GRID*               4152               09.9999991839E+014.6867019390E+01+
*       1.7419181126E+01               0
GRID*               4153               09.9999986906E+014.9593762090E+01+
*       -6.355857871E+00               0
GRID*               4154               09.9999982918E+014.0959695970E+01+
*       -2.867506112E+01               0
GRID*               4155               09.9999987412E+012.2941935919E+01+
*       -4.442581709E+01               0
GRID*               4156               01.2499999812E+02-2.360328589E+01+
*       -4.407802570E+01               0
GRID*               4157               01.2499999208E+02-4.138329472E+01+
*       -2.806029728E+01               0
GRID*               4158               01.2499998488E+02-4.968310765E+01+
*       -5.614906308E+00               0
GRID*               4159               01.2499997800E+02-4.660182186E+01+
*       1.8116694487E+01               0
GRID*               4160               01.2499997850E+02-3.284480517E+01+
*       3.7698680976E+01               0
GRID*               4161               01.2500000723E+02-1.156130040E+01+
*       4.8644855246E+01               0
GRID*               4162               01.2499999973E+021.2368951439E+01+
*       4.8445918421E+01               0
GRID*               4163               01.2499999542E+023.3465766419E+01+
*       3.7148553905E+01               0
GRID*               4164               01.2499998837E+024.6895834937E+01+
*       1.7341450114E+01               0
GRID*               4165               01.2499998126E+024.9583174008E+01+
*       -6.437925380E+00               0
GRID*               4166               01.2499997668E+024.0912213821E+01+
*       -2.874277783E+01               0
GRID*               4167               01.2499998708E+022.2868056871E+01+
*       -4.446387857E+01               0
GRID*               4168               01.4999999770E+02-2.367651654E+01+
*       -4.403874096E+01               0
GRID*               4169               01.4999998963E+02-4.142980030E+01+
*       -2.799158918E+01               0
GRID*               4170               01.4999997991E+02-4.969233329E+01+
*       -5.532628193E+00               0
GRID*               4171               01.4999997159E+02-4.657179668E+01+
*       1.8193744207E+01               0
GRID*               4172               01.4999997523E+02-3.278225207E+01+
*       3.7753088829E+01               0
GRID*               4173               01.5000001111E+02-1.148013832E+01+
*       4.8664036597E+01               0
GRID*               4174               01.4999999973E+021.2449482832E+01+
*       4.8425290913E+01               0
GRID*               4175               01.4999999413E+023.3527423575E+01+
*       3.7092922528E+01               0
GRID*               4176               01.4999998464E+024.6924513226E+01+
*       1.7263690310E+01               0
GRID*               4177               01.4999997529E+024.9572452259E+01+
*       -6.519952257E+00               0
GRID*               4178               01.4999997088E+024.0864601971E+01+
*       -2.881043716E+01               0
GRID*               4179               01.4999999033E+022.2793887104E+01+
*       -4.450191130E+01               0
GRID*               4180               01.7499999731E+02-2.374968392E+01+
*       -4.399933324E+01               0
GRID*               4181               01.7499998711E+02-4.147618738E+01+
*       -2.792280913E+01               0
GRID*               4182               01.7499997477E+02-4.970142033E+01+
*       -5.450346918E+00               0
GRID*               4183               01.7499996546E+02-4.654163632E+01+
*       1.8270760112E+01               0
GRID*               4184               01.7499997414E+02-3.271948960E+01+
*       3.7807483606E+01               0
GRID*               4185               01.7500001441E+02-1.139898398E+01+
*       4.8683077914E+01               0
GRID*               4186               01.7499999975E+021.2529981432E+01+
*       4.8404528706E+01               0
GRID*               4187               01.7499999285E+023.3588987118E+01+
*       3.7037189254E+01               0
GRID*               4188               01.7499998077E+024.6953057645E+01+
*       1.7185893537E+01               0
GRID*               4189               01.7499996927E+024.9561594439E+01+
*       -6.601956749E+00               0
GRID*               4190               01.7499996602E+024.0816838682E+01+
*       -2.887806744E+01               0
GRID*               4191               01.7499999806E+022.2719367146E+01+
*       -4.453993990E+01               0
GRID*               4192               01.9999999699E+02-2.382278915E+01+
*       -4.395980208E+01               0
GRID*               4193               01.9999998459E+02-4.152245903E+01+
*       -2.785395309E+01               0
GRID*               4194               01.9999996964E+02-4.971037029E+01+
*       -5.368050933E+00               0
GRID*               4195               01.9999995996E+02-4.651133176E+01+
*       1.8347763998E+01               0
GRID*               4196               01.9999997586E+02-3.265648287E+01+
*       3.7861892081E+01               0
GRID*               4197               02.0000001730E+02-1.131782627E+01+
*       4.8701980656E+01               0
GRID*               4198               01.9999999979E+021.2610446817E+01+
*       4.8383631855E+01               0
GRID*               4199               01.9999999160E+023.3650459382E+01+
*       3.6981352293E+01               0
GRID*               4200               01.9999997686E+024.6981471207E+01+
*       1.7108052518E+01               0
GRID*               4201               01.9999996344E+024.9550598363E+01+
*       -6.683955465E+00               0
GRID*               4202               01.9999996258E+024.0768904112E+01+
*       -2.894569453E+01               0
GRID*               4203               02.0000000842E+022.2644617017E+01+
*       -4.457791466E+01               0
GRID*               4204               02.2499999675E+02-2.389583297E+01+
*       -4.392014717E+01               0
GRID*               4205               02.2499998213E+02-4.156861794E+01+
*       -2.778501758E+01               0
GRID*               4206               02.2499996467E+02-4.971918454E+01+
*       -5.285729831E+00               0
GRID*               4207               02.2499995539E+02-4.648087469E+01+
*       1.8424775906E+01               0
GRID*               4208               02.2499998098E+02-3.259320001E+01+
*       3.7916338707E+01               0
GRID*               4209               02.2500001985E+02-1.123665992E+01+
*       4.8720745519E+01               0
GRID*               4210               02.2499999985E+021.2690878289E+01+
*       4.8362600452E+01               0
GRID*               4211               02.2499999043E+023.3711842301E+01+
*       3.6925410161E+01               0
GRID*               4212               02.2499997303E+024.7009756583E+01+
*       1.7030160807E+01               0
GRID*               4213               02.2499995803E+024.9539462035E+01+
*       -6.765963560E+00               0
GRID*               4214               02.2499996098E+024.0720779989E+01+
*       -2.901334225E+01               0
GRID*               4215               02.2500001690E+022.2569923300E+01+
*       -4.461571686E+01               0
GRID*               4216               02.4999999659E+02-2.396881585E+01+
*       -4.388036833E+01               0
GRID*               4217               02.4999997978E+02-4.161466638E+01+
*       -2.771599961E+01               0
GRID*               4218               02.4999996000E+02-4.972786431E+01+
*       -5.203374237E+00               0
GRID*               4219               02.4999995205E+02-4.645025742E+01+
*       1.8501814413E+01               0
GRID*               4220               02.4999999003E+02-3.252961143E+01+
*       3.7970846179E+01               0
GRID*               4221               02.5000002212E+02-1.115548249E+01+
*       4.8739372825E+01               0
GRID*               4222               02.4999999992E+021.2771274890E+01+
*       4.8341434622E+01               0
GRID*               4223               02.4999998937E+023.3773137439E+01+
*       3.6869361658E+01               0
GRID*               4224               02.4999996935E+024.7037916125E+01+
*       1.6952212725E+01               0
GRID*               4225               02.4999995323E+024.9528183627E+01+
*       -6.847994922E+00               0
GRID*               4226               02.4999996163E+024.0672449296E+01+
*       -2.908103278E+01               0
GRID*               4227               02.5000002387E+022.2495263779E+01+
*       -4.465335572E+01               0
GRID*               4228               02.7499999652E+02-2.404173796E+01+
*       -4.384046547E+01               0
GRID*               4229               02.7499997759E+02-4.166060629E+01+
*       -2.764689669E+01               0
GRID*               4230               02.7499995575E+02-4.973641072E+01+
*       -5.120975690E+00               0
GRID*               4231               02.7499995020E+02-4.641947273E+01+
*       1.8578896926E+01               0
GRID*               4232               02.7500000332E+02-3.246570037E+01+
*       3.8025427377E+01               0
GRID*               4233               02.7500002410E+02-1.107429306E+01+
*       4.8757862692E+01               0
GRID*               4234               02.7499999997E+021.2851635412E+01+
*       4.8320134525E+01               0
GRID*               4235               02.7499998843E+023.3834346015E+01+
*       3.6813205848E+01               0
GRID*               4236               02.7499996591E+024.7065951896E+01+
*       1.6874203293E+01               0
GRID*               4237               02.7499994925E+024.9516761452E+01+
*       -6.930062361E+00               0
GRID*               4238               02.7499996491E+024.0623895945E+01+
*       -2.914878707E+01               0
GRID*               4239               02.7500002961E+022.2420619619E+01+
*       -4.469083903E+01               0
GRID*               4240               02.9999999653E+02-2.411459919E+01+
*       -4.380043864E+01               0
GRID*               4241               02.9999997560E+02-4.170643927E+01+
*       -2.757770672E+01               0
GRID*               4242               02.9999995204E+02-4.974482477E+01+
*       -5.038526537E+00               0
GRID*               4243               02.9999995011E+02-4.638851378E+01+
*       1.8656039993E+01               0
GRID*               4244               03.0000001611E+02-3.240172621E+01+
*       3.8079883253E+01               0
GRID*               4245               03.0000002582E+02-1.099309157E+01+
*       4.8776215131E+01               0
GRID*               4246               03.0000000000E+021.2931958410E+01+
*       4.8298700352E+01               0
GRID*               4247               02.9999998765E+023.3895468933E+01+
*       3.6756942039E+01               0
GRID*               4248               02.9999996278E+024.7093865693E+01+
*       1.6796128173E+01               0
GRID*               4249               02.9999994625E+024.9505193940E+01+
*       -7.012177808E+00               0
GRID*               4250               02.9999997118E+024.0575104436E+01+
*       -2.921662534E+01               0
GRID*               4251               03.0000003434E+022.2345978752E+01+
*       -4.472817179E+01               0
GRID*               4252               03.2499999664E+02-2.418739921E+01+
*       -4.376028799E+01               0
GRID*               4253               03.2499997384E+02-4.175216659E+01+
*       -2.750842803E+01               0
GRID*               4254               03.2499994897E+02-4.975310739E+01+
*       -4.956019805E+00               0
GRID*               4255               03.2499995203E+02-4.635737391E+01+
*       1.8733259643E+01               0
GRID*               4256               03.2500002659E+02-3.233778939E+01+
*       3.8134136762E+01               0
GRID*               4257               03.2500002726E+02-1.091187840E+01+
*       4.8794430090E+01               0
GRID*               4258               03.2500000006E+021.3012247377E+01+
*       4.8277130621E+01               0
GRID*               4259               03.2499998702E+023.3956506803E+01+
*       3.6700569760E+01               0
GRID*               4260               03.2499996001E+024.7121659074E+01+
*       1.6717983599E+01               0
GRID*               4261               03.2499994440E+024.9493479609E+01+
*       -7.094352521E+00               0
GRID*               4262               03.2499998082E+024.0526059486E+01+
*       -2.928456750E+01               0
GRID*               4263               03.2500003817E+022.2271333198E+01+
*       -4.476535731E+01               0
GRID*               4264               03.4999999683E+02-2.426013746E+01+
*       -4.372001374E+01               0
GRID*               4265               03.4999997234E+02-4.179778927E+01+
*       -2.743905931E+01               0
GRID*               4266               03.4999994665E+02-4.976125942E+01+
*       -4.873449081E+00               0
GRID*               4267               03.4999995621E+02-4.632604656E+01+
*       1.8810571760E+01               0
GRID*               4268               03.5000003510E+02-3.227387134E+01+
*       3.8188202139E+01               0
GRID*               4269               03.5000002842E+02-1.083065419E+01+
*       4.8812507485E+01               0
GRID*               4270               03.5000000024E+021.3092508017E+01+
*       4.8255423434E+01               0
GRID*               4271               03.4999998657E+023.4017459966E+01+
*       3.6644088752E+01               0
GRID*               4272               03.4999995766E+024.7149333388E+01+
*       1.6639766322E+01               0
GRID*               4273               03.4999994387E+024.9481617033E+01+
*       -7.176597324E+00               0
GRID*               4274               03.4999999420E+024.0476745617E+01+
*       -2.935263372E+01               0
GRID*               4275               03.5000004120E+022.2196677522E+01+
*       -4.480239783E+01               0
GRID*               4276               03.7499999709E+02-2.433281316E+01+
*       -4.367961621E+01               0
GRID*               4277               03.7499997112E+02-4.184330806E+01+
*       -2.736959957E+01               0
GRID*               4278               03.7499994515E+02-4.976928164E+01+
*       -4.790808371E+00               0
GRID*               4279               03.7499996290E+02-4.629452502E+01+
*       1.8887992530E+01               0
GRID*               4280               03.7500004188E+02-3.220995854E+01+
*       3.8242089764E+01               0
GRID*               4281               03.7500002929E+02-1.074941967E+01+
*       4.8830447221E+01               0
GRID*               4282               03.7500000052E+021.3172738175E+01+
*       4.8233579689E+01               0
GRID*               4283               03.7499998629E+023.4078328519E+01+
*       3.6587498940E+01               0
GRID*               4284               03.7499995578E+024.7176889795E+01+
*       1.6561473536E+01               0
GRID*               4285               03.7499994481E+024.9469604811E+01+
*       -7.258922868E+00               0
GRID*               4286               03.7500001014E+024.0427211753E+01+
*       -2.942076024E+01               0
GRID*               4287               03.7500004349E+022.2122007898E+01+
*       -4.483929495E+01               0
GRID*               4288               03.9999999741E+02-2.440542538E+01+
*       -4.363909579E+01               0
GRID*               4289               03.9999997019E+02-4.188872347E+01+
*       -2.730004815E+01               0
GRID*               4290               03.9999994456E+02-4.977717481E+01+
*       -4.708091940E+00               0
GRID*               4291               03.9999997237E+02-4.626280225E+01+
*       1.8965538955E+01               0
GRID*               4292               04.0000004714E+02-3.214604080E+01+
*       3.8295807452E+01               0
GRID*               4293               04.0000002987E+02-1.066817556E+01+
*       4.8848249203E+01               0
GRID*               4294               04.0000000086E+021.3252935801E+01+
*       4.8211600236E+01               0
GRID*               4295               03.9999998618E+023.4139112332E+01+
*       3.6530800423E+01               0
GRID*               4296               03.9999995441E+024.7204329301E+01+
*       1.6483102814E+01               0
GRID*               4297               03.9999994738E+024.9457441521E+01+
*       -7.341339946E+00               0
GRID*               4298               04.0000002354E+024.0377673186E+01+
*       -2.948866648E+01               0
GRID*               4299               04.0000004508E+022.2047321513E+01+
*       -4.487604983E+01               0
GRID*               4300               04.2499999778E+02-2.447797297E+01+
*       -4.359845296E+01               0
GRID*               4301               04.2499996956E+02-4.193403582E+01+
*       -2.723040464E+01               0
GRID*               4302               04.2499994498E+02-4.978493968E+01+
*       -4.625294131E+00               0
GRID*               4303               04.2499998493E+02-4.623087059E+01+
*       1.9043229503E+01               0
GRID*               4304               04.2500005102E+02-3.208211018E+01+
*       3.8349361294E+01               0
GRID*               4305               04.2500003015E+02-1.058692251E+01+
*       4.8865913345E+01               0
GRID*               4306               04.2500000124E+021.3333099009E+01+
*       4.8189485855E+01               0
GRID*               4307               04.2499998624E+023.4199811072E+01+
*       3.6473993457E+01               0
GRID*               4308               04.2499995357E+024.7231652787E+01+
*       1.6404652031E+01               0
GRID*               4309               04.2499995175E+024.9445125676E+01+
*       -7.423859864E+00               0
GRID*               4310               04.2500003428E+024.0328135690E+01+
*       -2.955634491E+01               0
GRID*               4311               04.2500004602E+022.1972616173E+01+
*       -4.491266337E+01               0
GRID*               4312               04.4999999818E+02-2.455045467E+01+
*       -4.355768824E+01               0
GRID*               4313               04.4999996924E+02-4.197924521E+01+
*       -2.716066890E+01               0
GRID*               4314               04.4999994649E+02-4.979257702E+01+
*       -4.542409144E+00               0
GRID*               4315               04.5000000087E+02-4.619872169E+01+
*       1.9121084323E+01               0
GRID*               4316               04.5000005363E+02-3.201816025E+01+
*       3.8402756229E+01               0
GRID*               4317               04.5000003012E+02-1.050566102E+01+
*       4.8883439581E+01               0
GRID*               4318               04.5000000163E+021.3413226061E+01+
*       4.8167237267E+01               0
GRID*               4319               04.4999998647E+023.4260424223E+01+
*       3.6417078437E+01               0
GRID*               4320               04.4999995331E+024.7258861042E+01+
*       1.6326119277E+01               0
GRID*               4321               04.4999995810E+024.9432655656E+01+
*       -7.506494915E+00               0
GRID*               4322               04.5000004262E+024.0278587380E+01+
*       -2.962381103E+01               0
GRID*               4323               04.5000004633E+022.1897890024E+01+
*       -4.494913635E+01               0
GRID*               4324               04.7499999859E+02-2.462286903E+01+
*       -4.351680223E+01               0
GRID*               4325               04.7499996923E+02-4.202435161E+01+
*       -2.709084097E+01               0
GRID*               4326               04.7499994918E+02-4.980008763E+01+
*       -4.459430753E+00               0
GRID*               4327               04.7500001648E+02-4.616645440E+01+
*       1.9198864828E+01               0
GRID*               4328               04.7500005509E+02-3.195418555E+01+
*       3.8455996445E+01               0
GRID*               4329               04.7500002979E+02-1.042439143E+01+
*       4.8900827866E+01               0
GRID*               4330               04.7500000203E+021.3493315355E+01+
*       4.8144855135E+01               0
GRID*               4331               04.7499998686E+023.4320951104E+01+
*       3.6360055888E+01               0
GRID*               4332               04.7499995366E+024.7285954810E+01+
*       1.6247502762E+01               0
GRID*               4333               04.7499996665E+024.9420029634E+01+
*       -7.589258981E+00               0
GRID*               4334               04.7500004882E+024.0229018464E+01+
*       -2.969107759E+01               0
GRID*               4335               04.7500004605E+022.1823141357E+01+
*       -4.498546948E+01               0
GRID*               4336               04.9999999899E+02-2.469521448E+01+
*       -4.347579558E+01               0
GRID*               4337               04.9999996953E+02-4.206935483E+01+
*       -2.702092109E+01               0
GRID*               4338               04.9999995316E+02-4.980747244E+01+
*       -4.376351946E+00               0
GRID*               4339               05.0000002873E+02-4.613414861E+01+
*       1.9276378125E+01               0
GRID*               4340               05.0000005548E+02-3.189018122E+01+
*       3.8509085665E+01               0
GRID*               4341               05.0000002916E+02-1.034311385E+01+
*       4.8918078187E+01               0
GRID*               4342               05.0000000239E+021.3573365434E+01+
*       4.8122340063E+01               0
GRID*               4343               04.9999998739E+023.4381390887E+01+
*       3.6302926443E+01               0
GRID*               4344               04.9999995464E+024.7312934835E+01+
*       1.6168800687E+01               0
GRID*               4345               04.9999997763E+024.9407245467E+01+
*       -7.672168338E+00               0
GRID*               4346               05.0000005307E+024.0179420579E+01+
*       -2.975815549E+01               0
GRID*               4347               05.0000004520E+022.1748368455E+01+
*       -4.502166345E+01               0
GRID*               4348               05.2499999936E+02-2.476748933E+01+
*       -4.343466899E+01               0
GRID*               4349               05.2499997014E+02-4.211425459E+01+
*       -2.695090966E+01               0
GRID*               4350               05.2499995855E+02-4.981473255E+01+
*       -4.293164444E+00               0
GRID*               4351               05.2500003795E+02-4.610179585E+01+
*       1.9353644654E+01               0
GRID*               4352               05.2500005488E+02-3.182614274E+01+
*       3.8562027369E+01               0
GRID*               4353               05.2500002822E+02-1.026182810E+01+
*       4.8935190565E+01               0
GRID*               4354               05.2500000271E+021.3653374989E+01+
*       4.8099692592E+01               0
GRID*               4355               05.2499998805E+023.4441742614E+01+
*       3.6245690838E+01               0
GRID*               4356               05.2499995629E+024.7339801928E+01+
*       1.6090011096E+01               0
GRID*               4357               05.2499999134E+024.9394300554E+01+
*       -7.755242745E+00               0
GRID*               4358               05.2500005555E+024.0129786316E+01+
*       -2.982505439E+01               0
GRID*               4359               05.2500004383E+022.1673569479E+01+
*       -4.505771904E+01               0
GRID*               4360               05.4999999967E+02-2.483969171E+01+
*       -4.339342323E+01               0
GRID*               4361               05.4999997104E+02-4.215905050E+01+
*       -2.688080714E+01               0
GRID*               4362               05.4999996551E+02-4.982186929E+01+
*       -4.209858031E+00               0
GRID*               4363               05.5000004442E+02-4.606938859E+01+
*       1.9430682620E+01               0
GRID*               4364               05.5000005339E+02-3.176206567E+01+
*       3.8614824954E+01               0
GRID*               4365               05.5000002700E+02-1.018053374E+01+
*       4.8952165062E+01               0
GRID*               4366               05.5000000298E+021.3733342869E+01+
*       4.8076913200E+01               0
GRID*               4367               05.4999998882E+023.4502005215E+01+
*       3.6188349893E+01               0
GRID*               4368               05.4999995865E+024.7366557051E+01+
*       1.6011131664E+01               0
GRID*               4369               05.5000000733E+024.9381198854E+01+
*       -7.838452130E+00               0
GRID*               4370               05.5000005643E+024.0080108851E+01+
*       -2.989178318E+01               0
GRID*               4371               05.5000004195E+022.1598742364E+01+
*       -4.509363711E+01               0
GRID*               4372               05.7499999989E+02-2.491181962E+01+
*       -4.335205914E+01               0
GRID*               4373               05.7499997224E+02-4.220374216E+01+
*       -2.681061408E+01               0
GRID*               4374               05.7499997423E+02-4.982888440E+01+
*       -4.126419596E+00               0
GRID*               4375               05.7500004842E+02-4.603691987E+01+
*       1.9507508803E+01               0
GRID*               4376               05.7500005109E+02-3.169794552E+01+
*       3.8667481873E+01               0
GRID*               4377               05.7500002550E+02-1.009922994E+01+
*       4.8969001782E+01               0
GRID*               4378               05.7500000317E+021.3813268096E+01+
*       4.8054002292E+01               0
GRID*               4379               05.7499998969E+023.4562177525E+01+
*       3.6130904504E+01               0
GRID*               4380               05.7499996177E+024.7393201438E+01+
*       1.5932159415E+01               0
GRID*               4381               05.7500002036E+024.9367987744E+01+
*       -7.921436633E+00               0
GRID*               4382               05.7500005587E+024.0030381663E+01+
*       -2.995835037E+01               0
GRID*               4383               05.7500003962E+022.1523884746E+01+
*       -4.512941862E+01               0
GRID*               4384               06.0000000000E+02-2.498387089E+01+
*       -4.331057761E+01               0
GRID*               4385               05.9999997372E+02-4.224832917E+01+
*       -2.674033101E+01               0
GRID*               4386               05.9999998498E+02-4.983578016E+01+
*       -4.042831726E+00               0
GRID*               4387               06.0000005019E+02-4.600438307E+01+
*       1.9584139183E+01               0
GRID*               4388               06.0000004806E+02-3.163377756E+01+
*       3.8720001744E+01               0
GRID*               4389               06.0000002375E+02-1.001791553E+01+
*       4.8985700884E+01               0
GRID*               4390               06.0000000329E+021.3893149876E+01+
*       4.8030960197E+01               0
GRID*               4391               05.9999999063E+023.4622258294E+01+
*       3.6073355628E+01               0
GRID*               4392               05.9999996571E+024.7419736760E+01+
*       1.5853090311E+01               0
GRID*               4393               06.0000002969E+024.9354673739E+01+
*       -8.004146751E+00               0
GRID*               4394               06.0000005401E+023.9980598307E+01+
*       -3.002476434E+01               0
GRID*               4395               06.0000003688E+022.1448993877E+01+
*       -4.516506473E+01               0
GRID*               4396               06.2500000001E+02-2.505584700E+01+
*       -4.326897779E+01               0
GRID*               4397               06.2499997548E+02-4.229281117E+01+
*       -2.666995837E+01               0
GRID*               4398               06.2499999809E+02-4.984255973E+01+
*       -3.959070552E+00               0
GRID*               4399               06.2500004998E+02-4.597177169E+01+
*       1.9660589463E+01               0
GRID*               4400               06.2500004439E+02-3.156955675E+01+
*       3.8772388444E+01               0
GRID*               4401               06.2500002177E+02-9.936588905E+00+
*       4.9002262576E+01               0
GRID*               4402               06.2500000332E+021.3972987619E+01+
*       4.8007787159E+01               0
GRID*               4403               06.2499999163E+023.4682246209E+01+
*       3.6015704274E+01               0
GRID*               4404               06.2499997058E+024.7446165390E+01+
*       1.5773918627E+01               0
GRID*               4405               06.2500003570E+024.9341253555E+01+
*       -8.086607442E+00               0
GRID*               4406               06.2500005102E+023.9930752227E+01+
*       -3.009103365E+01               0
GRID*               4407               06.2500003377E+022.1374066567E+01+
*       -4.520057674E+01               0
GRID*               4408               06.5000000006E+02-2.512775485E+01+
*       -4.322725654E+01               0
GRID*               4409               06.4999997753E+02-4.233718799E+01+
*       -2.659949639E+01               0
GRID*               4410               06.5000001113E+02-4.984920096E+01+
*       -3.875304176E+00               0
GRID*               4411               06.5000004804E+02-4.593907917E+01+
*       1.9736875494E+01               0
GRID*               4412               06.5000004020E+02-3.150527759E+01+
*       3.8824646192E+01               0
GRID*               4413               06.5000001960E+02-9.855248013E+00+
*       4.9018687130E+01               0
GRID*               4414               06.5000000326E+021.4052780955E+01+
*       4.7984483331E+01               0
GRID*               4415               06.4999999267E+023.4742139903E+01+
*       3.5957951489E+01               0
GRID*               4416               06.4999997651E+024.7472490799E+01+
*       1.5694635982E+01               0
GRID*               4417               06.5000003875E+024.9327723946E+01+
*       -8.168843360E+00               0
GRID*               4418               06.5000004706E+023.9880836596E+01+
*       -3.015716720E+01               0
GRID*               4419               06.5000003036E+022.1299099111E+01+
*       -4.523595620E+01               0
GRID*               4420               06.7500000012E+02-2.519959354E+01+
*       -4.318541462E+01               0
GRID*               4421               06.7499997986E+02-4.238145979E+01+
*       -2.652894488E+01               0
GRID*               4422               06.7500001983E+02-4.985566561E+01+
*       -3.791823107E+00               0
GRID*               4423               06.7500004463E+02-4.590629871E+01+
*       1.9813013652E+01               0
GRID*               4424               06.7500003558E+02-3.144093403E+01+
*       3.8876779630E+01               0
GRID*               4425               06.7500001727E+02-9.773890300E+00+
*       4.9034974881E+01               0
GRID*               4426               06.7500000312E+021.4132529757E+01+
*       4.7961048767E+01               0
GRID*               4427               06.7499999372E+023.4801937971E+01+
*       3.5900098354E+01               0
GRID*               4428               06.7499998369E+024.7498718226E+01+
*       1.5615229729E+01               0
GRID*               4429               06.7500003920E+024.9314081618E+01+
*       -8.250879521E+00               0
GRID*               4430               06.7500004229E+023.9830844173E+01+
*       -3.022317441E+01               0
GRID*               4431               06.7500002672E+022.1224087236E+01+
*       -4.527120488E+01               0
GRID*               4432               07.0000000018E+02-2.527136210E+01+
*       -4.314345280E+01               0
GRID*               4433               06.9999998250E+02-4.242562726E+01+
*       -2.645830293E+01               0
GRID*               4434               07.0000002465E+02-4.986195767E+01+
*       -3.708597105E+00               0
GRID*               4435               07.0000004001E+02-4.587342318E+01+
*       1.9889021171E+01               0
GRID*               4436               07.0000003066E+02-3.137651937E+01+
*       3.8928793887E+01               0
GRID*               4437               07.0000001483E+02-9.692512679E+00+
*       4.9051126236E+01               0
GRID*               4438               07.0000000289E+021.4212234158E+01+
*       4.7937483410E+01               0
GRID*               4439               06.9999999476E+023.4861638980E+01+
*       3.5842145966E+01               0
GRID*               4440               06.9999999245E+024.7524855832E+01+
*       1.5535680165E+01               0
GRID*               4441               07.0000003744E+024.9300323152E+01+
*       -8.332741899E+00               0
GRID*               4442               07.0000003692E+023.9780767179E+01+
*       -3.028906543E+01               0
GRID*               4443               07.0000002292E+022.1149026028E+01+
*       -4.530632480E+01               0
GRID*               4444               07.2500000023E+02-2.534305970E+01+
*       -4.310137169E+01               0
GRID*               4445               07.2499998550E+02-4.246969211E+01+
*       -2.638756830E+01               0
GRID*               4446               07.2500002612E+02-4.986808196E+01+
*       -3.625589476E+00               0
GRID*               4447               07.2500003448E+02-4.584044496E+01+
*       1.9964916452E+01               0
GRID*               4448               07.2500002558E+02-3.131202622E+01+
*       3.8980694656E+01               0
GRID*               4449               07.2500001234E+02-9.611111481E+00+
*       4.9067141678E+01               0
GRID*               4450               07.2500000259E+021.4291894576E+01+
*       4.7913787088E+01               0
GRID*               4451               07.2499999576E+023.4921241486E+01+
*       3.5784095434E+01               0
GRID*               4452               07.2500000297E+024.7550908510E+01+
*       1.5455975478E+01               0
GRID*               4453               07.2500003387E+024.9286444930E+01+
*       -8.414457968E+00               0
GRID*               4454               07.2500003112E+023.9730597177E+01+
*       -3.035485125E+01               0
GRID*               4455               07.2500001905E+022.1073909880E+01+
*       -4.534131830E+01               0
GRID*               4456               07.5000000026E+02-2.541468576E+01+
*       -4.305917175E+01               0
GRID*               4457               07.4999998894E+02-4.251365799E+01+
*       -2.631673625E+01               0
GRID*               4458               07.5000002482E+02-4.987404369E+01+
*       -3.542760686E+00               0
GRID*               4459               07.5000002835E+02-4.580735583E+01+
*       2.0040719348E+01               0
GRID*               4460               07.5000002048E+02-3.124744632E+01+
*       3.9032488257E+01               0
GRID*               4461               07.5000000986E+02-9.529682412E+00+
*       4.9083021773E+01               0
GRID*               4462               07.5000000223E+021.4371511735E+01+
*       4.7889959500E+01               0
GRID*               4463               07.4999999671E+023.4980744042E+01+
*       3.5725947868E+01               0
GRID*               4464               07.5000001034E+024.7576746486E+01+
*       1.5376428959E+01               0
GRID*               4465               07.5000002892E+024.9272443069E+01+
*       -8.496057232E+00               0
GRID*               4466               07.5000002513E+023.9680324952E+01+
*       -3.042054389E+01               0
GRID*               4467               07.5000001521E+022.0998732423E+01+
*       -4.537618801E+01               0
GRID*               4468               07.7500000027E+02-2.548623991E+01+
*       -4.301685326E+01               0
GRID*               4469               07.7499999301E+02-4.255753238E+01+
*       -2.624579702E+01               0
GRID*               4470               07.7500002139E+02-4.987984855E+01+
*       -3.460067474E+00               0
GRID*               4471               07.7500002194E+02-4.577414683E+01+
*       2.0116451454E+01               0
GRID*               4472               07.7500001553E+02-3.118277053E+01+
*       3.9084181710E+01               0
GRID*               4473               07.7500000746E+02-9.448220505E+00+
*       4.9098767174E+01               0
GRID*               4474               07.7500000182E+021.4451086695E+01+
*       4.7866000209E+01               0
GRID*               4475               07.7499999758E+023.5040145212E+01+
*       3.5667704370E+01               0
GRID*               4476               07.7500001331E+024.7602336251E+01+
*       1.5297121503E+01               0
GRID*               4477               07.7500002306E+024.9258313351E+01+
*       -8.577571728E+00               0
GRID*               4478               07.7500001918E+023.9629940407E+01+
*       -3.048615649E+01               0
GRID*               4479               07.7500001152E+022.0923486463E+01+
*       -4.541093691E+01               0
GRID*               4480               08.0000000025E+02-2.555772201E+01+
*       -4.297441633E+01               0
GRID*               4481               07.9999999809E+02-4.260133149E+01+
*       -2.617472948E+01               0
GRID*               4482               08.0000001652E+02-4.988550286E+01+
*       -3.377461920E+00               0
GRID*               4483               08.0000001563E+02-4.574080819E+01+
*       2.0192136389E+01               0
GRID*               4484               08.0000001090E+02-3.111798870E+01+
*       3.9135782798E+01               0
GRID*               4485               08.0000000523E+02-9.366720068E+00+
*       4.9114378630E+01               0
GRID*               4486               08.0000000139E+021.4530620870E+01+
*       4.7841908627E+01               0
GRID*               4487               07.9999999835E+023.5099443581E+01+
*       3.5609366026E+01               0
GRID*               4488               08.0000001279E+024.7627702273E+01+
*       1.5217994036E+01               0
GRID*               4489               08.0000001680E+024.9244051157E+01+
*       -8.659036546E+00               0
GRID*               4490               08.0000001352E+023.9579432446E+01+
*       -3.055170354E+01               0
GRID*               4491               08.0000000809E+022.0848163911E+01+
*       -4.544556836E+01               0
GRID*               4492               08.2500000021E+02-2.562913217E+01+
*       -4.293186087E+01               0
GRID*               4493               08.2500000310E+02-4.264500892E+01+
*       -2.610359413E+01               0
GRID*               4494               08.2500001101E+02-4.989101366E+01+
*       -3.294890463E+00               0
GRID*               4495               08.2500000982E+02-4.570732917E+01+
*       2.0267800080E+01               0
GRID*               4496               08.2500000681E+02-3.105308960E+01+
*       3.9187300144E+01               0
GRID*               4497               08.2500000325E+02-9.285174636E+00+
*       4.9129856993E+01               0
GRID*               4498               08.2500000096E+021.4610116063E+01+
*       4.7817684009E+01               0
GRID*               4499               08.2499999900E+023.5158637766E+01+
*       3.5550933897E+01               0
GRID*               4500               08.2500000984E+024.7652872867E+01+
*       1.5138978207E+01               0
GRID*               4501               08.2500001071E+024.9229651394E+01+
*       -8.740490362E+00               0
GRID*               4502               08.2500000844E+023.9528788857E+01+
*       -3.061720092E+01               0
GRID*               4503               08.2500000506E+022.0772755716E+01+
*       -4.548008609E+01               0
GRID*               4504               08.5000000016E+02-2.570047076E+01+
*       -4.288918660E+01               0
GRID*               4505               08.5000000366E+02-4.268838088E+01+
*       -2.603263047E+01               0
GRID*               4506               08.5000000573E+02-4.989638889E+01+
*       -3.212292819E+00               0
GRID*               4507               08.5000000494E+02-4.567369794E+01+
*       2.0343471060E+01               0
GRID*               4508               08.5000000346E+02-3.098806080E+01+
*       3.9238743282E+01               0
GRID*               4509               08.5000000165E+02-9.203576913E+00+
*       4.9145203223E+01               0
GRID*               4510               08.5000000056E+021.4689574492E+01+
*       4.7793325435E+01               0
GRID*               4511               08.4999999950E+023.5217726428E+01+
*       3.5492409010E+01               0
GRID*               4512               08.5000000571E+024.7677881150E+01+
*       1.5059994069E+01               0
GRID*               4513               08.5000000540E+024.9215108425E+01+
*       -8.821975994E+00               0
GRID*               4514               08.5000000426E+023.9477996201E+01+
*       -3.068266617E+01               0
GRID*               4515               08.5000000259E+022.0697251791E+01+
*       -4.551449430E+01               0
GRID*               4516               08.7500000009E+02-2.577173844E+01+
*       -4.284639301E+01               0
GRID*               4517               08.7500000161E+02-4.273152602E+01+
*       -2.596173600E+01               0
GRID*               4518               08.7500000168E+02-4.990163753E+01+
*       -3.129600782E+00               0
GRID*               4519               08.7500000149E+02-4.563990147E+01+
*       2.0419180784E+01               0
GRID*               4520               08.7500000110E+02-3.092288860E+01+
*       3.9290122735E+01               0
GRID*               4521               08.7500000052E+02-9.121918714E+00+
*       4.9160418398E+01               0
GRID*               4522               08.7500000023E+021.4768998816E+01+
*       4.7768831804E+01               0
GRID*               4523               08.7499999984E+023.5276708292E+01+
*       3.5433792344E+01               0
GRID*               4524               08.7500000185E+024.7702766190E+01+
*       1.4980947302E+01               0
GRID*               4525               08.7500000158E+024.9200415989E+01+
*       -8.903541004E+00               0
GRID*               4526               08.7500000132E+023.9427039682E+01+
*       -3.074811857E+01               0
GRID*               4527               08.7500000084E+022.0621640932E+01+
*       -4.554879761E+01               0
GRID*               4528               03.7499999604E+01-2.334645574E+01+
*       -4.421456406E+01               0
GRID*               4529               03.7499999202E+01-3.324918506E+01+
*       -3.734249514E+01               0
GRID*               4530               02.4999999546E+01-3.321813934E+01+
*       -3.737010827E+01               0
GRID*               4531               04.9999998792E+01-3.328020333E+01+
*       -3.731485964E+01               0
GRID*               4532               03.7499998794E+01-4.121953637E+01+
*       -2.830028129E+01               0
GRID*               4533               03.7499998376E+01-4.679435408E+01+
*       -1.761344531E+01               0
GRID*               4534               02.4999999155E+01-4.677970911E+01+
*       -1.765229819E+01               0
GRID*               4535               04.9999997392E+01-4.680896093E+01+
*       -1.757459441E+01               0
GRID*               4536               03.7499998110E+01-4.964970041E+01+
*       -5.903052474E+00               0
GRID*               4537               03.7499997639E+01-4.961966550E+01+
*       6.1503745704E+00               0
GRID*               4538               02.4999998862E+01-4.962475212E+01+
*       6.1092004958E+00               0
GRID*               4539               04.9999996047E+01-4.961454809E+01+
*       6.1915186382E+00               0
GRID*               4540               03.7499996982E+01-4.670599707E+01+
*       1.7846388188E+01               0
GRID*               4541               03.7499996568E+01-4.107799759E+01+
*       2.8505305017E+01               0
GRID*               4542               02.4999998298E+01-4.110161709E+01+
*       2.8471237185E+01               0
GRID*               4543               04.9999994384E+01-4.105436959E+01+
*       2.8539327311E+01               0
GRID*               4544               03.7499996306E+01-3.306269422E+01+
*       3.7507688613E+01               0
GRID*               4545               03.7499996368E+01-2.312584368E+01+
*       4.4330337887E+01               0
GRID*               4546               02.4999998156E+01-2.316257986E+01+
*       4.4311148950E+01               0
GRID*               4547               04.9999994316E+01-2.308910933E+01+
*       4.4349488764E+01               0
GRID*               4548               03.7499997282E+01-1.184486413E+01+
*       4.8576692050E+01               0
GRID*               4549               03.7500000220E+011.2471280239E-01+
*       4.9999841647E+01               0
GRID*               4550               02.5000000099E+018.3138683162E-02+
*       4.9999929605E+01               0
GRID*               4551               05.0000000385E+011.6628985765E-01+
*       4.9999718549E+01               0
GRID*               4552               03.7499999899E+011.2086832264E+01+
*       4.8517054075E+01               0
GRID*               4553               03.7499999604E+012.3346455743E+01+
*       4.4214564063E+01               0
GRID*               4554               02.4999999763E+012.3309695435E+01+
*       4.4233949473E+01               0
GRID*               4555               04.9999999423E+012.3383197784E+01+
*       4.4195148923E+01               0
GRID*               4556               03.7499999202E+013.3249185064E+01+
*       3.7342495135E+01               0
GRID*               4557               03.7499998794E+014.1219536366E+01+
*       2.8300281288E+01               0
GRID*               4558               02.4999999347E+014.1196009069E+01+
*       2.8334511964E+01               0
GRID*               4559               04.9999998111E+014.1243029062E+01+
*       2.8266039105E+01               0
GRID*               4560               03.7499998376E+014.6794354077E+01+
*       1.7613445315E+01               0
GRID*               4561               03.7499998110E+014.9649700415E+01+
*       5.9030524736E+00               0
GRID*               4562               02.4999999081E+014.9644782554E+01+
*       5.9442646806E+00               0
GRID*               4563               04.9999996845E+014.9654581349E+01+
*       5.8618567665E+00               0
GRID*               4564               03.7499997639E+014.9619665505E+01+
*       -6.150374570E+00               0
GRID*               4565               03.7499996982E+014.6705997070E+01+
*       -1.784638819E+01               0
GRID*               4566               02.4999998504E+014.6720783518E+01+
*       -1.780764394E+01               0
GRID*               4567               04.9999995039E+014.6691190023E+01+
*       -1.788509212E+01               0
GRID*               4568               03.7499996568E+014.1077997587E+01+
*       -2.850530502E+01               0
GRID*               4569               03.7499996306E+013.3062694219E+01+
*       -3.750768861E+01               0
GRID*               4570               02.4999998160E+013.3093771294E+01+
*       -3.748026858E+01               0
GRID*               4571               04.9999994028E+013.3031618701E+01+
*       -3.753506402E+01               0
GRID*               4572               03.7499996368E+012.3125843675E+01+
*       -4.433033789E+01               0
GRID*               4573               06.2499999225E+01-2.341992194E+01+
*       -4.417570389E+01               0
GRID*               4574               06.2499998326E+01-3.331119471E+01+
*       -3.728720133E+01               0
GRID*               4575               07.4999997811E+01-3.334215976E+01+
*       -3.725951980E+01               0
GRID*               4576               06.2499997314E+01-4.126648785E+01+
*       -2.823178451E+01               0
GRID*               4577               06.2499996224E+01-4.682353030E+01+
*       -1.753574395E+01               0
GRID*               4578               07.4999994896E+01-4.683806280E+01+
*       -1.749689249E+01               0
GRID*               4579               06.2499995320E+01-4.965942566E+01+
*       -5.820675235E+00               0
GRID*               4580               06.2499994133E+01-4.960939944E+01+
*       6.2326359630E+00               0
GRID*               4581               07.4999991944E+01-4.960421915E+01+
*       6.2737296561E+00               0
GRID*               4582               06.2499992740E+01-4.667636061E+01+
*       1.7923760012E+01               0
GRID*               4583               06.2499991841E+01-4.103072912E+01+
*       2.8573309267E+01               0
GRID*               4584               07.4999989027E+01-4.100707238E+01+
*       2.8607255814E+01               0
GRID*               4585               06.2499991460E+01-3.300053716E+01+
*       3.7562400620E+01               0
GRID*               4586               06.2499992209E+01-2.305236330E+01+
*       4.4368607189E+01               0
GRID*               4587               07.4999990241E+01-2.301559316E+01+
*       4.4387698303E+01               0
GRID*               4588               06.2499996380E+01-1.176414261E+01+
*       4.8596301960E+01               0
GRID*               4589               06.2500000592E+012.0786965557E-01+
*       4.9999560335E+01               0
GRID*               4590               07.5000000838E+012.4945199792E-01+
*       4.9999367032E+01               0
GRID*               4591               06.2499999833E+011.2167479544E+01+
*       4.8496897871E+01               0
GRID*               4592               06.2499999225E+012.3419921943E+01+
*       4.4175703894E+01               0
GRID*               4593               07.4999999014E+012.3456628573E+01+
*       4.4156228830E+01               0
GRID*               4594               06.2499998326E+013.3311194712E+01+
*       3.7287201330E+01               0
GRID*               4595               06.2499997314E+014.1266487846E+01+
*       2.8231784515E+01               0
GRID*               4596               07.4999996415E+014.1289913371E+01+
*       2.8197516667E+01               0
GRID*               4597               06.2499996224E+014.6823530303E+01+
*       1.7535743953E+01               0
GRID*               4598               06.2499995320E+014.9659425663E+01+
*       5.8206752351E+00               0
GRID*               4599               07.4999993568E+014.9664233648E+01+
*       5.7795056646E+00               0
GRID*               4600               06.2499994133E+014.9609399440E+01+
*       -6.232635963E+00               0
GRID*               4601               06.2499992740E+014.6676360610E+01+
*       -1.792376001E+01               0
GRID*               4602               07.4999990148E+014.6661507146E+01+
*       -1.796239593E+01               0
GRID*               4603               06.2499991841E+014.1030729117E+01+
*       -2.857330927E+01               0
GRID*               4604               06.2499991460E+013.3000537165E+01+
*       -3.756240062E+01               0
GRID*               4605               07.4999988731E+013.2969442509E+01+
*       -3.758970385E+01               0
GRID*               4606               06.2499992209E+012.3052363299E+01+
*       -4.436860719E+01               0
GRID*               4607               08.7499998795E+01-2.349331800E+01+
*       -4.413672360E+01               0
GRID*               4608               08.7499997256E+01-3.337309900E+01+
*       -3.723181464E+01               0
GRID*               4609               09.9999996668E+01-3.340401289E+01+
*       -3.720408550E+01               0
GRID*               4610               08.7499995430E+01-4.131330625E+01+
*       -2.816323476E+01               0
GRID*               4611               08.7499993428E+01-4.685255898E+01+
*       -1.745803865E+01               0
GRID*               4612               09.9999991839E+01-4.686701939E+01+
*       -1.741918113E+01               0
GRID*               4613               08.7499991619E+01-4.966900558E+01+
*       -5.738345946E+00               0
GRID*               4614               08.7499989521E+01-4.959900682E+01+
*       6.3148026833E+00               0
GRID*               4615               09.9999986906E+01-4.959376209E+01+
*       6.3558578713E+00               0
GRID*               4616               08.7499987321E+01-4.664662803E+01+
*       1.8001003733E+01               0
GRID*               4617               08.7499986026E+01-4.098339580E+01+
*       2.8641171622E+01               0
GRID*               4618               09.9999982918E+01-4.095969597E+01+
*       2.8675061124E+01               0
GRID*               4619               08.7499985962E+01-3.293832807E+01+
*       3.7616978835E+01               0
GRID*               4620               08.7499988588E+01-2.297878753E+01+
*       4.4406766823E+01               0
GRID*               4621               09.9999987412E+01-2.294193592E+01+
*       4.4425817091E+01               0
GRID*               4622               08.7499999456E+01-1.168311674E+01+
*       4.8615812922E+01               0
GRID*               4623               08.7500001122E+012.9103668203E-01+
*       4.9999138666E+01               0
GRID*               4624               01.0000000144E+023.3262350110E-01+
*       4.9998875265E+01               0
GRID*               4625               08.7499999777E+011.2248093056E+01+
*       4.8476607094E+01               0
GRID*               4626               08.7499998795E+012.3493317999E+01+
*       4.4136723596E+01               0
GRID*               4627               09.9999998571E+012.3529990518E+01+
*       4.4117188069E+01               0
GRID*               4628               08.7499997256E+013.3373098997E+01+
*       3.7231814645E+01               0
GRID*               4629               08.7499995430E+014.1313306255E+01+
*       2.8163234757E+01               0
GRID*               4630               09.9999994371E+014.1336667079E+01+
*       2.8128938027E+01               0
GRID*               4631               08.7499993428E+014.6852558977E+01+
*       1.7458038653E+01               0
GRID*               4632               08.7499991619E+014.9669005581E+01+
*       5.7383459459E+00               0
GRID*               4633               09.9999989504E+014.9673741728E+01+
*       5.6971940715E+00               0
GRID*               4634               08.7499989521E+014.9599006822E+01+
*       -6.314802683E+00               0
GRID*               4635               08.7499987321E+014.6646628030E+01+
*       -1.800100373E+01               0
GRID*               4636               09.9999984318E+014.6631721735E+01+
*       -1.803958712E+01               0
GRID*               4637               08.7499986026E+014.0983395799E+01+
*       -2.864117162E+01               0
GRID*               4638               08.7499985962E+013.2938328066E+01+
*       -3.761697883E+01               0
GRID*               4639               09.9999983264E+013.2907187569E+01+
*       -3.764423038E+01               0
GRID*               4640               08.7499988588E+012.2978787527E+01+
*       -4.440676682E+01               0
GRID*               4641               01.1249999835E+02-2.356664640E+01+
*       -4.409762214E+01               0
GRID*               4642               01.1249999606E+02-3.343490189E+01+
*       -3.717633203E+01               0
GRID*               4643               01.2499999542E+02-3.346576642E+01+
*       -3.714855390E+01               0
GRID*               4644               01.1249999325E+02-4.135999639E+01+
*       -2.809462576E+01               0
GRID*               4645               01.1249999015E+02-4.688144455E+01+
*       -1.738031867E+01               0
GRID*               4646               01.2499998837E+02-4.689583494E+01+
*       -1.734145011E+01               0
GRID*               4647               01.1249998725E+02-4.967844234E+01+
*       -5.656048131E+00               0
GRID*               4648               01.1249998414E+02-4.958848460E+01+
*       6.3968979142E+00               0
GRID*               4649               01.2499998126E+02-4.958317401E+01+
*       6.4379253801E+00               0
GRID*               4650               01.1249998119E+02-4.661678681E+01+
*       1.8078149585E+01               0
GRID*               4651               01.1249997978E+02-4.093596967E+01+
*       2.8708928526E+01               0
GRID*               4652               01.2499997668E+02-4.091221382E+01+
*       2.8742777827E+01               0
GRID*               4653               01.1249998074E+02-3.287601512E+01+
*       3.7671463004E+01               0
GRID*               4654               01.1249998686E+02-2.290502868E+01+
*       4.4444853110E+01               0
GRID*               4655               01.2499998708E+02-2.286805687E+01+
*       4.4463878575E+01               0
GRID*               4656               01.1250000498E+02-1.160189099E+01+
*       4.8635211182E+01               0
GRID*               4657               01.1250000179E+023.7421224464E-01+
*       4.9998576857E+01               0
GRID*               4658               01.2500000217E+024.1580269879E-01+
*       4.9998243469E+01               0
GRID*               4659               01.1249999974E+021.2328673497E+01+
*       4.8456181655E+01               0
GRID*               4660               01.1249999835E+022.3566646401E+01+
*       4.4097622138E+01               0
GRID*               4661               01.2499999812E+022.3603285890E+01+
*       4.4078025702E+01               0
GRID*               4662               01.1249999606E+023.3434901892E+01+
*       3.7176332030E+01               0
GRID*               4663               01.1249999325E+024.1359996394E+01+
*       2.8094625758E+01               0
GRID*               4664               01.2499999208E+024.1383294717E+01+
*       2.8060297277E+01               0
GRID*               4665               01.1249999015E+024.6881444548E+01+
*       1.7380318671E+01               0
GRID*               4666               01.1249998725E+024.9678442339E+01+
*       5.6560481312E+00               0
GRID*               4667               01.2499998488E+024.9683107654E+01+
*       5.6149063084E+00               0
GRID*               4668               01.1249998414E+024.9588484599E+01+
*       -6.396897914E+00               0
GRID*               4669               01.1249998119E+024.6616786806E+01+
*       -1.807814958E+01               0
GRID*               4670               01.2499997800E+024.6601821859E+01+
*       -1.811669449E+01               0
GRID*               4671               01.1249997978E+024.0935969667E+01+
*       -2.870892853E+01               0
GRID*               4672               01.1249998074E+023.2876015122E+01+
*       -3.767146300E+01               0
GRID*               4673               01.2499997850E+023.2844805172E+01+
*       -3.769868098E+01               0
GRID*               4674               01.1249998686E+022.2905028675E+01+
*       -4.444485311E+01               0
GRID*               4675               01.3749999790E+02-2.363990920E+01+
*       -4.405839867E+01               0
GRID*               4676               01.3749999478E+02-3.349660686E+01+
*       -3.712075083E+01               0
GRID*               4677               01.4999999413E+02-3.352742357E+01+
*       -3.709292253E+01               0
GRID*               4678               01.3749999087E+02-4.140656254E+01+
*       -2.802595195E+01               0
GRID*               4679               01.3749998653E+02-4.691019102E+01+
*       -1.730257434E+01               0
GRID*               4680               01.4999998464E+02-4.692451323E+01+
*       -1.726369031E+01               0
GRID*               4681               01.3749998243E+02-4.968773790E+01+
*       -5.573766876E+00               0
GRID*               4682               01.3749997830E+02-4.957783000E+01+
*       6.4789427165E+00               0
GRID*               4683               01.4999997529E+02-4.957245226E+01+
*       6.5199522571E+00               0
GRID*               4684               01.3749997478E+02-4.658682557E+01+
*       1.8155225012E+01               0
GRID*               4685               01.3749997369E+02-4.088842552E+01+
*       2.8776612830E+01               0
GRID*               4686               01.4999997088E+02-4.086460197E+01+
*       2.8810437155E+01               0
GRID*               4687               01.3749997663E+02-3.281355247E+01+
*       3.7725888316E+01               0
GRID*               4688               01.3749998820E+02-2.283101224E+01+
*       4.4482896911E+01               0
GRID*               4689               01.4999999033E+02-2.279388710E+01+
*       4.4501911298E+01               0
GRID*               4690               01.3750000926E+02-1.152071733E+01+
*       4.8654463566E+01               0
GRID*               4691               01.3750000257E+024.5739464676E-01+
*       4.9997875130E+01               0
GRID*               4692               01.5000000300E+024.9898786922E-01+
*       4.9997471869E+01               0
GRID*               4693               01.3749999972E+021.2409221220E+01+
*       4.8435621506E+01               0
GRID*               4694               01.3749999790E+022.3639909204E+01+
*       4.4058398669E+01               0
GRID*               4695               01.4999999770E+022.3676516537E+01+
*       4.4038740960E+01               0
GRID*               4696               01.3749999478E+023.3496606861E+01+
*       3.7120750829E+01               0
GRID*               4697               01.3749999087E+024.1406562535E+01+
*       2.8025951950E+01               0
GRID*               4698               01.4999998963E+024.1429800305E+01+
*       2.7991589181E+01               0
GRID*               4699               01.3749998653E+024.6910191018E+01+
*       1.7302574344E+01               0
GRID*               4700               01.3749998243E+024.9687737900E+01+
*       5.5737668760E+00               0
GRID*               4701               01.4999997991E+024.9692333294E+01+
*       5.5326281929E+00               0
GRID*               4702               01.3749997830E+024.9577829997E+01+
*       -6.478942717E+00               0
GRID*               4703               01.3749997478E+024.6586825570E+01+
*       -1.815522501E+01               0
GRID*               4704               01.4999997159E+024.6571796679E+01+
*       -1.819374421E+01               0
GRID*               4705               01.3749997369E+024.0888425515E+01+
*       -2.877661283E+01               0
GRID*               4706               01.3749997663E+023.2813552474E+01+
*       -3.772588832E+01               0
GRID*               4707               01.4999997523E+023.2782252072E+01+
*       -3.775308883E+01               0
GRID*               4708               01.3749998820E+022.2831012241E+01+
*       -4.448289691E+01               0
GRID*               4709               01.6249999750E+02-2.371310806E+01+
*       -4.401905250E+01               0
GRID*               4710               01.6249999349E+02-3.355821689E+01+
*       -3.706506875E+01               0
GRID*               4711               01.7499999285E+02-3.358898712E+01+
*       -3.703718925E+01               0
GRID*               4712               01.6249998838E+02-4.145300845E+01+
*       -2.795720841E+01               0
GRID*               4713               01.6249998271E+02-4.693880197E+01+
*       -1.722479702E+01               0
GRID*               4714               01.7499998077E+02-4.695305765E+01+
*       -1.718589354E+01               0
GRID*               4715               01.6249997735E+02-4.969689404E+01+
*       -5.491488700E+00               0
GRID*               4716               01.6249997227E+02-4.956704050E+01+
*       6.5609562270E+00               0
GRID*               4717               01.7499996927E+02-4.956159444E+01+
*       6.6019567491E+00               0
GRID*               4718               01.6249996847E+02-4.655673398E+01+
*       1.8232254980E+01               0
GRID*               4719               01.6249996830E+02-4.084074054E+01+
*       2.8844254257E+01               0
GRID*               4720               01.7499996602E+02-4.081683868E+01+
*       2.8878067436E+01               0
GRID*               4721               01.6249997437E+02-3.275089927E+01+
*       3.7780286118E+01               0
GRID*               4722               01.6249999358E+02-2.275667430E+01+
*       4.4520924703E+01               0
GRID*               4723               01.7499999806E+02-2.271936715E+01+
*       4.4539939898E+01               0
GRID*               4724               01.6250001282E+02-1.143956107E+01+
*       4.8673574644E+01               0
GRID*               4725               01.6250000345E+025.4058214468E-01+
*       4.9997033715E+01               0
GRID*               4726               01.7500000391E+025.8217724997E-01+
*       4.9996560698E+01               0
GRID*               4727               01.6249999973E+021.2489736251E+01+
*       4.8414926645E+01               0
GRID*               4728               01.6249999750E+022.3713108061E+01+
*       4.4019052503E+01               0
GRID*               4729               01.7499999731E+022.3749683922E+01+
*       4.3999333238E+01               0
GRID*               4730               01.6249999349E+023.3558216892E+01+
*       3.7065068747E+01               0
GRID*               4731               01.6249998838E+024.1453008453E+01+
*       2.7957208414E+01               0
GRID*               4732               01.7499998711E+024.1476187379E+01+
*       2.7922809127E+01               0
GRID*               4733               01.6249998271E+024.6938801973E+01+
*       1.7224797020E+01               0
GRID*               4734               01.6249997735E+024.9696894039E+01+
*       5.4914887002E+00               0
GRID*               4735               01.7499997477E+024.9701420332E+01+
*       5.4503469176E+00               0
GRID*               4736               01.6249997227E+024.9567040499E+01+
*       -6.560956227E+00               0
GRID*               4737               01.6249996847E+024.6556733980E+01+
*       -1.823225498E+01               0
GRID*               4738               01.7499996546E+024.6541636322E+01+
*       -1.827076011E+01               0
GRID*               4739               01.6249996830E+024.0840740537E+01+
*       -2.884425426E+01               0
GRID*               4740               01.6249997437E+023.2750899268E+01+
*       -3.778028612E+01               0
GRID*               4741               01.7499997414E+023.2719489602E+01+
*       -3.780748361E+01               0
GRID*               4742               01.6249999358E+022.2756674305E+01+
*       -4.452092470E+01               0
GRID*               4743               01.8749999714E+02-2.378624425E+01+
*       -4.397958311E+01               0
GRID*               4744               01.8749999221E+02-3.361973453E+01+
*       -3.700928383E+01               0
GRID*               4745               01.9999999160E+02-3.365045938E+01+
*       -3.698135229E+01               0
GRID*               4746               01.8749998585E+02-4.149933746E+01+
*       -2.788839084E+01               0
GRID*               4747               01.8749997881E+02-4.696728061E+01+
*       -1.714697898E+01               0
GRID*               4748               01.9999997686E+02-4.698147121E+01+
*       -1.710805252E+01               0
GRID*               4749               01.8749997219E+02-4.970591236E+01+
*       -5.409201440E+00               0
GRID*               4750               01.8749996632E+02-4.955611381E+01+
*       6.6429558499E+00               0
GRID*               4751               01.9999996344E+02-4.955059836E+01+
*       6.6839554648E+00               0
GRID*               4752               01.8749996262E+02-4.652650260E+01+
*       1.8309262267E+01               0
GRID*               4753               01.8749996409E+02-4.079289398E+01+
*       2.8911879850E+01               0
GRID*               4754               01.9999996258E+02-4.076890411E+01+
*       2.8945694531E+01               0
GRID*               4755               01.8749997461E+02-3.268801882E+01+
*       3.7834684555E+01               0
GRID*               4756               01.8750000347E+02-2.268198557E+01+
*       4.4558948621E+01               0
GRID*               4757               02.0000000842E+02-2.264461702E+01+
*       4.4577914657E+01               0
GRID*               4758               01.8750001590E+02-1.135840597E+01+
*       4.8692546551E+01               0
GRID*               4759               01.8750000439E+026.2377296059E-01+
*       4.9996052847E+01               0
GRID*               4760               02.0000000489E+026.6536905119E-01+
*       4.9995510191E+01               0
GRID*               4761               01.8749999977E+021.2570218313E+01+
*       4.8394097106E+01               0
GRID*               4762               01.8749999714E+022.3786244249E+01+
*       4.3979583112E+01               0
GRID*               4763               01.9999999699E+022.3822789145E+01+
*       4.3959802082E+01               0
GRID*               4764               01.8749999221E+023.3619734530E+01+
*       3.7009283834E+01               0
GRID*               4765               01.8749998585E+024.1499337457E+01+
*       2.7888390835E+01               0
GRID*               4766               01.9999998459E+024.1522459032E+01+
*       2.7853953087E+01               0
GRID*               4767               01.8749997881E+024.6967280609E+01+
*       1.7146978980E+01               0
GRID*               4768               01.8749997219E+024.9705912357E+01+
*       5.4092014398E+00               0
GRID*               4769               01.9999996964E+024.9710370290E+01+
*       5.3680509327E+00               0
GRID*               4770               01.8749996632E+024.9556113812E+01+
*       -6.642955850E+00               0
GRID*               4771               01.8749996262E+024.6526502601E+01+
*       -1.830926227E+01               0
GRID*               4772               01.9999995996E+024.6511331759E+01+
*       -1.834776400E+01               0
GRID*               4773               01.8749996409E+024.0792893982E+01+
*       -2.891187985E+01               0
GRID*               4774               01.8749997461E+023.2688018824E+01+
*       -3.783468456E+01               0
GRID*               4775               01.9999997586E+023.2656482871E+01+
*       -3.786189208E+01               0
GRID*               4776               01.8750000347E+022.2681985574E+01+
*       -4.455894862E+01               0
GRID*               4777               02.1249999686E+02-2.385931870E+01+
*       -4.393999011E+01               0
GRID*               4778               02.1249999100E+02-3.368116190E+01+
*       -3.695339445E+01               0
GRID*               4779               02.2499999043E+02-3.371184230E+01+
*       -3.692541016E+01               0
GRID*               4780               02.1249998335E+02-4.154555243E+01+
*       -2.781949546E+01               0
GRID*               4781               02.1249997493E+02-4.699562976E+01+
*       -1.706911337E+01               0
GRID*               4782               02.2499997303E+02-4.700975658E+01+
*       -1.703016081E+01               0
GRID*               4783               02.1249996712E+02-4.971479430E+01+
*       -5.326894130E+00               0
GRID*               4784               02.1249996067E+02-4.954504785E+01+
*       6.7249574442E+00               0
GRID*               4785               02.2499995803E+02-4.953946203E+01+
*       6.7659635595E+00               0
GRID*               4786               02.1249995754E+02-4.649612278E+01+
*       1.8386267757E+01               0
GRID*               4787               02.1249996152E+02-4.074486683E+01+
*       2.8979514394E+01               0
GRID*               4788               02.2499996098E+02-4.072077999E+01+
*       2.9013342252E+01               0
GRID*               4789               02.1249997796E+02-3.262487785E+01+
*       3.7889109172E+01               0
GRID*               4790               02.1250001287E+02-2.260726433E+01+
*       4.4596836822E+01               0
GRID*               4791               02.2500001690E+02-2.256992330E+01+
*       4.4615716864E+01               0
GRID*               4792               02.1250001862E+02-1.127724438E+01+
*       4.8711380296E+01               0
GRID*               4793               02.1250000539E+027.0696529600E-01+
*       4.9994932761E+01               0
GRID*               4794               02.2500000589E+027.4856146930E-01+
*       4.9994320587E+01               0
GRID*               4795               02.1249999982E+021.2650666846E+01+
*       4.8373132965E+01               0
GRID*               4796               02.1249999686E+022.3859318697E+01+
*       4.3939990111E+01               0
GRID*               4797               02.2499999675E+022.3895832971E+01+
*       4.3920147174E+01               0
GRID*               4798               02.1249999100E+023.3681161904E+01+
*       3.6953394455E+01               0
GRID*               4799               02.1249998335E+024.1545552427E+01+
*       2.7819495463E+01               0
GRID*               4800               02.2499998213E+024.1568617937E+01+
*       2.7785017576E+01               0
GRID*               4801               02.1249997493E+024.6995629764E+01+
*       1.7069113371E+01               0
GRID*               4802               02.1249996712E+024.9714794297E+01+
*       5.3268941304E+00               0
GRID*               4803               02.2499996467E+024.9719184537E+01+
*       5.2857298312E+00               0
GRID*               4804               02.1249996067E+024.9545047848E+01+
*       -6.724957444E+00               0
GRID*               4805               02.1249995754E+024.6496122781E+01+
*       -1.838626776E+01               0
GRID*               4806               02.2499995539E+024.6480874689E+01+
*       -1.842477591E+01               0
GRID*               4807               02.1249996152E+024.0744866834E+01+
*       -2.897951439E+01               0
GRID*               4808               02.1249997796E+023.2624877850E+01+
*       -3.788910917E+01               0
GRID*               4809               02.2499998098E+023.2593200007E+01+
*       -3.791633871E+01               0
GRID*               4810               02.1250001287E+022.2607264331E+01+
*       -4.459683682E+01               0
GRID*               4811               02.3749999666E+02-2.393233201E+01+
*       -4.390027325E+01               0
GRID*               4812               02.3749998988E+02-3.374250076E+01+
*       -3.689739927E+01               0
GRID*               4813               02.4999998937E+02-3.377313744E+01+
*       -3.686936166E+01               0
GRID*               4814               02.3749998093E+02-4.159165584E+01+
*       -2.775051907E+01               0
GRID*               4815               02.3749997116E+02-4.702385195E+01+
*       -1.699119414E+01               0
GRID*               4816               02.4999996935E+02-4.703791613E+01+
*       -1.695221272E+01               0
GRID*               4817               02.3749996229E+02-4.972354116E+01+
*       -5.244556894E+00               0
GRID*               4818               02.3749995554E+02-4.953384070E+01+
*       6.8069755086E+00               0
GRID*               4819               02.4999995323E+02-4.952818363E+01+
*       6.8479949217E+00               0
GRID*               4820               02.3749995355E+02-4.646558654E+01+
*       1.8463290722E+01               0
GRID*               4821               02.3749996100E+02-4.069664149E+01+
*       2.9047180831E+01               0
GRID*               4822               02.4999996163E+02-4.067244930E+01+
*       2.9081032777E+01               0
GRID*               4823               02.3749998498E+02-3.256144571E+01+
*       3.7943583473E+01               0
GRID*               4824               02.3750002055E+02-2.253259064E+01+
*       4.4634556140E+01               0
GRID*               4825               02.5000002387E+02-2.249526378E+01+
*       4.4653355720E+01               0
GRID*               4826               02.3750002102E+02-1.119607267E+01+
*       4.8730076356E+01               0
GRID*               4827               02.3750000641E+027.9015734583E-01+
*       4.9993673697E+01               0
GRID*               4828               02.5000000692E+028.3175270131E-01+
*       4.9992992121E+01               0
GRID*               4829               02.3749999989E+021.2731081018E+01+
*       4.8352034331E+01               0
GRID*               4830               02.3749999666E+022.3932332012E+01+
*       4.3900273249E+01               0
GRID*               4831               02.4999999659E+022.3968815852E+01+
*       4.3880368326E+01               0
GRID*               4832               02.3749998988E+023.3742500759E+01+
*       3.6897399270E+01               0
GRID*               4833               02.3749998093E+024.1591655839E+01+
*       2.7750519069E+01               0
GRID*               4834               02.4999997978E+024.1614666382E+01+
*       2.7715999614E+01               0
GRID*               4835               02.3749997116E+024.7023851948E+01+
*       1.6991194139E+01               0
GRID*               4836               02.3749996229E+024.9723541160E+01+
*       5.2445568945E+00               0
GRID*               4837               02.4999996000E+024.9727864309E+01+
*       5.2033742367E+00               0
GRID*               4838               02.3749995554E+024.9533840699E+01+
*       -6.806975509E+00               0
GRID*               4839               02.3749995355E+024.6465586538E+01+
*       -1.846329072E+01               0
GRID*               4840               02.4999995205E+024.6450257416E+01+
*       -1.850181441E+01               0
GRID*               4841               02.3749996100E+024.0696641487E+01+
*       -2.904718083E+01               0
GRID*               4842               02.3749998498E+023.2561445713E+01+
*       -3.794358347E+01               0
GRID*               4843               02.4999999003E+023.2529611434E+01+
*       -3.797084618E+01               0
GRID*               4844               02.3750002055E+022.2532590644E+01+
*       -4.463455614E+01               0
GRID*               4845               02.6249999654E+02-2.400528450E+01+
*       -4.386043240E+01               0
GRID*               4846               02.6249998888E+02-3.380375248E+01+
*       -3.684129722E+01               0
GRID*               4847               02.7499998843E+02-3.383434601E+01+
*       -3.681320585E+01               0
GRID*               4848               02.6249997866E+02-4.163764980E+01+
*       -2.768145891E+01               0
GRID*               4849               02.6249996760E+02-4.705194936E+01+
*       -1.691321596E+01               0
GRID*               4850               02.7499996591E+02-4.706595190E+01+
*       -1.687420329E+01               0
GRID*               4851               02.6249995781E+02-4.973215412E+01+
*       -5.162180828E+00               0
GRID*               4852               02.6249995113E+02-4.952249061E+01+
*       6.8890233680E+00               0
GRID*               4853               02.7499994925E+02-4.951676145E+01+
*       6.9300623613E+00               0
GRID*               4854               02.6249995092E+02-4.643488643E+01+
*       1.8540349118E+01               0
GRID*               4855               02.6249996292E+02-4.064820143E+01+
*       2.9114900679E+01               0
GRID*               4856               02.7499996491E+02-4.062389595E+01+
*       2.9148787074E+01               0
GRID*               4857               02.6249999619E+02-3.249769372E+01+
*       3.7998129477E+01               0
GRID*               4858               02.6250002688E+02-2.245794065E+01+
*       4.4672116456E+01               0
GRID*               4859               02.7500002961E+02-2.242061962E+01+
*       4.4690839030E+01               0
GRID*               4860               02.6250002314E+02-1.111488929E+01+
*       4.8748634936E+01               0
GRID*               4861               02.6250000743E+028.7334731292E-01+
*       4.9992275889E+01               0
GRID*               4862               02.7500000793E+029.1494095973E-01+
*       4.9991525030E+01               0
GRID*               4863               02.6249999995E+021.2811459745E+01+
*       4.8330801346E+01               0
GRID*               4864               02.6249999654E+022.4005284502E+01+
*       4.3860432398E+01               0
GRID*               4865               02.7499999652E+022.4041737957E+01+
*       4.3840465468E+01               0
GRID*               4866               02.6249998888E+023.3803752483E+01+
*       3.6841297215E+01               0
GRID*               4867               02.6249997866E+024.1637649797E+01+
*       2.7681458911E+01               0
GRID*               4868               02.7499997759E+024.1660606293E+01+
*       2.7646896689E+01               0
GRID*               4869               02.6249996760E+024.7051949364E+01+
*       1.6913215963E+01               0
GRID*               4870               02.6249995781E+024.9732154118E+01+
*       5.1621808284E+00               0
GRID*               4871               02.7499995575E+024.9736410718E+01+
*       5.1209756903E+00               0
GRID*               4872               02.6249995113E+024.9522490611E+01+
*       -6.889023368E+00               0
GRID*               4873               02.6249995092E+024.6434886434E+01+
*       -1.854034912E+01               0
GRID*               4874               02.7499995020E+024.6419472729E+01+
*       -1.857889693E+01               0
GRID*               4875               02.6249996292E+024.0648201431E+01+
*       -2.911490068E+01               0
GRID*               4876               02.6249999619E+023.2497693717E+01+
*       -3.799812948E+01               0
GRID*               4877               02.7500000332E+023.2465700366E+01+
*       -3.802542738E+01               0
GRID*               4878               02.6250002688E+022.2457940653E+01+
*       -4.467211646E+01               0
GRID*               4879               02.8749999651E+02-2.407817620E+01+
*       -4.382046754E+01               0
GRID*               4880               02.8749998802E+02-3.386491814E+01+
*       -3.678508748E+01               0
GRID*               4881               02.9999998765E+02-3.389546893E+01+
*       -3.675694204E+01               0
GRID*               4882               02.8749997657E+02-4.168353606E+01+
*       -2.761231270E+01               0
GRID*               4883               02.8749996430E+02-4.707992394E+01+
*       -1.683517419E+01               0
GRID*               4884               02.9999996278E+02-4.709386569E+01+
*       -1.679612817E+01               0
GRID*               4885               02.8749995382E+02-4.974063423E+01+
*       -5.079757890E+00               0
GRID*               4886               02.8749994762E+02-4.951099596E+01+
*       6.9711133668E+00               0
GRID*               4887               02.9999994625E+02-4.950519394E+01+
*       7.0121778077E+00               0
GRID*               4888               02.8749994992E+02-4.640401545E+01+
*       1.8617459881E+01               0
GRID*               4889               02.8749996765E+02-4.059953092E+01+
*       2.9182694467E+01               0
GRID*               4890               02.9999997118E+02-4.057510444E+01+
*       2.9216625344E+01               0
GRID*               4891               02.8750001003E+02-3.243370721E+01+
*       3.8052681699E+01               0
GRID*               4892               02.8750003210E+02-2.238329935E+01+
*       4.4709523991E+01               0
GRID*               4893               03.0000003434E+02-2.234597875E+01+
*       4.4728171790E+01               0
GRID*               4894               02.8750002499E+02-1.103369380E+01+
*       4.8767056093E+01               0
GRID*               4895               02.8750000843E+029.5653342326E-01+
*       4.9990739572E+01               0
GRID*               4896               03.0000000891E+029.9812448799E-01+
*       4.9989919545E+01               0
GRID*               4897               02.8749999999E+021.2891801700E+01+
*       4.8309434185E+01               0
GRID*               4898               02.8749999651E+022.4078176199E+01+
*       4.3820467545E+01               0
GRID*               4899               02.9999999653E+022.4114599190E+01+
*       4.3800438642E+01               0
GRID*               4900               02.8749998802E+023.3864918136E+01+
*       3.6785087478E+01               0
GRID*               4901               02.8749997657E+024.1683536059E+01+
*       2.7612312699E+01               0
GRID*               4902               02.9999997560E+024.1706439266E+01+
*       2.7577706721E+01               0
GRID*               4903               02.8749996430E+024.7079923938E+01+
*       1.6835174192E+01               0
GRID*               4904               02.8749995382E+024.9740634230E+01+
*       5.0797578897E+00               0
GRID*               4905               02.9999995204E+024.9744824773E+01+
*       5.0385265368E+00               0
GRID*               4906               02.8749994762E+024.9510995958E+01+
*       -6.971113367E+00               0
GRID*               4907               02.8749994992E+024.6404015454E+01+
*       -1.861745988E+01               0
GRID*               4908               02.9999995011E+024.6388513775E+01+
*       -1.865603999E+01               0
GRID*               4909               02.8749996765E+024.0599530916E+01+
*       -2.918269447E+01               0
GRID*               4910               02.8750001003E+023.2433707205E+01+
*       -3.805268170E+01               0
GRID*               4911               03.0000001611E+023.2401726215E+01+
*       -3.807988325E+01               0
GRID*               4912               02.8750003210E+022.2383299347E+01+
*       -4.470952399E+01               0
GRID*               4913               03.1249999658E+02-2.415100688E+01+
*       -4.378037878E+01               0
GRID*               4914               03.1249998731E+02-3.392599847E+01+
*       -3.672876948E+01               0
GRID*               4915               03.2499998702E+02-3.395650680E+01+
*       -3.670056976E+01               0
GRID*               4916               03.1249997469E+02-4.172931606E+01+
*       -2.754307856E+01               0
GRID*               4917               03.1249996134E+02-4.710777735E+01+
*       -1.675706478E+01               0
GRID*               4918               03.2499996001E+02-4.712165907E+01+
*       -1.671798360E+01               0
GRID*               4919               03.1249995042E+02-4.974898246E+01+
*       -4.997280781E+00               0
GRID*               4920               03.1249994517E+02-4.949935522E+01+
*       7.0532570721E+00               0
GRID*               4921               03.2499994440E+02-4.949347961E+01+
*       7.0943525206E+00               0
GRID*               4922               03.1249995080E+02-4.637296687E+01+
*       1.8694639254E+01               0
GRID*               4923               03.1249997556E+02-4.055061460E+01+
*       2.9250582189E+01               0
GRID*               4924               03.2499998082E+02-4.052605949E+01+
*       2.9284567502E+01               0
GRID*               4925               03.1250002162E+02-3.236975444E+01+
*       3.8107034304E+01               0
GRID*               4926               03.1250003636E+02-2.230865695E+01+
*       4.4746782795E+01               0
GRID*               4927               03.2500003817E+02-2.227133320E+01+
*       4.4765357308E+01               0
GRID*               4928               03.1250002657E+02-1.095248641E+01+
*       4.8785339800E+01               0
GRID*               4929               03.1250000939E+021.0397139418E+00+
*       4.9989064975E+01               0
GRID*               4930               03.2500000984E+021.0813015767E+00+
*       4.9988175890E+01               0
GRID*               4931               03.1250000001E+021.2972106316E+01+
*       4.8287932719E+01               0
GRID*               4932               03.1249999658E+022.4151006882E+01+
*       4.3780378780E+01               0
GRID*               4933               03.2499999664E+022.4187399211E+01+
*       4.3760287986E+01               0
GRID*               4934               03.1249998731E+023.3925998471E+01+
*       3.6728769479E+01               0
GRID*               4935               03.1249997469E+024.1729316064E+01+
*       2.7543078556E+01               0
GRID*               4936               03.2499997384E+024.1752166589E+01+
*       2.7508428031E+01               0
GRID*               4937               03.1249996134E+024.7107777346E+01+
*       1.6757064782E+01               0
GRID*               4938               03.1249995042E+024.9748982457E+01+
*       4.9972807805E+00               0
GRID*               4939               03.2499994897E+024.9753107391E+01+
*       4.9560198050E+00               0
GRID*               4940               03.1249994517E+024.9499355217E+01+
*       -7.053257072E+00               0
GRID*               4941               03.1249995080E+024.6372966868E+01+
*       -1.869463925E+01               0
GRID*               4942               03.2499995203E+024.6357373914E+01+
*       -1.873325964E+01               0
GRID*               4943               03.1249997556E+024.0550614598E+01+
*       -2.925058219E+01               0
GRID*               4944               03.1250002162E+023.2369754439E+01+
*       -3.810703430E+01               0
GRID*               4945               03.2500002659E+023.2337789390E+01+
*       -3.813413676E+01               0
GRID*               4946               03.1250003636E+022.2308656947E+01+
*       -4.474678279E+01               0
GRID*               4947               03.3749999672E+02-2.422377610E+01+
*       -4.374016629E+01               0
GRID*               4948               03.3749998677E+02-3.398699396E+01+
*       -3.667234286E+01               0
GRID*               4949               03.4999998657E+02-3.401745997E+01+
*       -3.664408875E+01               0
GRID*               4950               03.3749997306E+02-4.177499096E+01+
*       -2.747375499E+01               0
GRID*               4951               03.3749995878E+02-4.713551104E+01+
*       -1.667888423E+01               0
GRID*               4952               03.4999995766E+02-4.714933339E+01+
*       -1.663976632E+01               0
GRID*               4953               03.3749994771E+02-4.975719968E+01+
*       -4.914742825E+00               0
GRID*               4954               03.3749994396E+02-4.948756694E+01+
*       7.1354654945E+00               0
GRID*               4955               03.4999994387E+02-4.948161703E+01+
*       7.1765973236E+00               0
GRID*               4956               03.3749995382E+02-4.634173409E+01+
*       1.8771903144E+01               0
GRID*               4957               03.3749998702E+02-4.050143715E+01+
*       2.9318583817E+01               0
GRID*               4958               03.4999999420E+02-4.047674562E+01+
*       2.9352633722E+01               0
GRID*               4959               03.3750003107E+02-3.230582896E+01+
*       3.8161192246E+01               0
GRID*               4960               03.3750003978E+02-2.223400689E+01+
*       4.4783895583E+01               0
GRID*               4961               03.5000004120E+02-2.219667752E+01+
*       4.4802397834E+01               0
GRID*               4962               03.3750002787E+02-1.087126763E+01+
*       4.8803485989E+01               0
GRID*               4963               03.3750001028E+021.1228871890E+00+
*       4.9987252317E+01               0
GRID*               4964               03.5000001070E+021.1644705802E+00+
*       4.9986294283E+01               0
GRID*               4965               03.3750000013E+021.3052381372E+01+
*       4.8266294153E+01               0
GRID*               4966               03.3749999672E+022.4223776099E+01+
*       4.3740166292E+01               0
GRID*               4967               03.4999999683E+022.4260137457E+01+
*       4.3720013735E+01               0
GRID*               4968               03.3749998677E+023.3986993961E+01+
*       3.6672342856E+01               0
GRID*               4969               03.3749997306E+024.1774990957E+01+
*       2.7473754991E+01               0
GRID*               4970               03.4999997234E+024.1797789270E+01+
*       2.7439059306E+01               0
GRID*               4971               03.3749995878E+024.7135511038E+01+
*       1.6678884234E+01               0
GRID*               4972               03.3749994771E+024.9757199677E+01+
*       4.9147428250E+00               0
GRID*               4973               03.4999994665E+024.9761259416E+01+
*       4.8734490814E+00               0
GRID*               4974               03.3749994396E+024.9487566940E+01+
*       -7.135465494E+00               0
GRID*               4975               03.3749995382E+024.6341734089E+01+
*       -1.877190314E+01               0
GRID*               4976               03.4999995621E+024.6326046564E+01+
*       -1.881057176E+01               0
GRID*               4977               03.3749998702E+024.0501437154E+01+
*       -2.931858382E+01               0
GRID*               4978               03.3750003107E+023.2305828958E+01+
*       -3.816119225E+01               0
GRID*               4979               03.5000003510E+023.2273871340E+01+
*       -3.818820214E+01               0
GRID*               4980               03.3750003978E+022.2234006894E+01+
*       -4.478389558E+01               0
GRID*               4981               03.6249999695E+02-2.429648318E+01+
*       -4.369983036E+01               0
GRID*               4982               03.6249998640E+02-3.404790482E+01+
*       -3.661580744E+01               0
GRID*               4983               03.7499998629E+02-3.407832852E+01+
*       -3.658749894E+01               0
GRID*               4984               03.6249997169E+02-4.182056161E+01+
*       -2.740434086E+01               0
GRID*               4985               03.6249995666E+02-4.716312626E+01+
*       -1.660062953E+01               0
GRID*               4986               03.7499995578E+02-4.717688979E+01+
*       -1.656147354E+01               0
GRID*               4987               03.6249994579E+02-4.976528671E+01+
*       -4.832137837E+00               0
GRID*               4988               03.6249994414E+02-4.947562972E+01+
*       7.2177493361E+00               0
GRID*               4989               03.7499994481E+02-4.946960481E+01+
*       7.2589228685E+00               0
GRID*               4990               03.6249995922E+02-4.631031050E+01+
*       1.8849267527E+01               0
GRID*               4991               03.6250000233E+02-4.045198594E+01+
*       2.9386715826E+01               0
GRID*               4992               03.7500001014E+02-4.042721175E+01+
*       2.9420760243E+01               0
GRID*               4993               03.6250003869E+02-3.224191498E+01+
*       3.8215167634E+01               0
GRID*               4994               03.6250004243E+02-2.215934465E+01+
*       4.4820864238E+01               0
GRID*               4995               03.7500004349E+02-2.212200790E+01+
*       4.4839294952E+01               0
GRID*               4996               03.6250002889E+02-1.079003818E+01+
*       4.8821494567E+01               0
GRID*               4997               03.6250001109E+021.2060515577E+00+
*       4.9985301812E+01               0
GRID*               4998               03.7500001146E+021.2476299347E+00+
*       4.9984274929E+01               0
GRID*               4999               03.6250000037E+021.3132627038E+01+
*       4.8244518577E+01               0
GRID*               5000               03.6249999695E+022.4296483184E+01+
*       4.3699830357E+01               0
GRID*               5001               03.7499999709E+022.4332813164E+01+
*       4.3679616205E+01               0
GRID*               5002               03.6249998640E+023.4047904822E+01+
*       3.6615807444E+01               0
GRID*               5003               03.6249997169E+024.1820561614E+01+
*       2.7404340863E+01               0
GRID*               5004               03.7499997112E+024.1843308060E+01+
*       2.7369599569E+01               0
GRID*               5005               03.6249995666E+024.7163126263E+01+
*       1.6600629527E+01               0
GRID*               5006               03.6249994579E+024.9765286705E+01+
*       4.8321378370E+00               0
GRID*               5007               03.7499994515E+024.9769281639E+01+
*       4.7908083709E+00               0
GRID*               5008               03.6249994414E+024.9475629716E+01+
*       -7.217749336E+00               0
GRID*               5009               03.6249995922E+024.6310310497E+01+
*       -1.884926753E+01               0
GRID*               5010               03.7499996290E+024.6294525023E+01+
*       -1.888799253E+01               0
GRID*               5011               03.6250000233E+024.0451985942E+01+
*       -2.938671583E+01               0
GRID*               5012               03.6250003869E+023.2241914982E+01+
*       -3.821516763E+01               0
GRID*               5013               03.7500004188E+023.2209958537E+01+
*       -3.824208976E+01               0
GRID*               5014               03.6250004243E+022.2159344647E+01+
*       -4.482086424E+01               0
GRID*               5015               03.8749999724E+02-2.436912727E+01+
*       -4.365937133E+01               0
GRID*               5016               03.8749998621E+02-3.410873103E+01+
*       -3.655916326E+01               0
GRID*               5017               03.9999998618E+02-3.413911233E+01+
*       -3.653080042E+01               0
GRID*               5018               03.8749997062E+02-4.186602866E+01+
*       -2.733483535E+01               0
GRID*               5019               03.8749995503E+02-4.719062410E+01+
*       -1.652229806E+01               0
GRID*               5020               03.9999995441E+02-4.720432930E+01+
*       -1.648310281E+01               0
GRID*               5021               03.8749994474E+02-4.977324431E+01+
*       -4.749459973E+00               0
GRID*               5022               03.8749994588E+02-4.946354214E+01+
*       7.3001192762E+00               0
GRID*               5023               03.9999994738E+02-4.945744152E+01+
*       7.3413399465E+00               0
GRID*               5024               03.8749996727E+02-4.627868925E+01+
*       1.8926748924E+01               0
GRID*               5025               03.8750001720E+02-4.040244149E+01+
*       2.9454742942E+01               0
GRID*               5026               04.0000002354E+02-4.037767319E+01+
*       2.9488666481E+01               0
GRID*               5027               03.8750004469E+02-3.217800082E+01+
*       3.8268969437E+01               0
GRID*               5028               03.8750004437E+02-2.208466695E+01+
*       4.4857690110E+01               0
GRID*               5029               04.0000004508E+02-2.204732151E+01+
*       4.4876049829E+01               0
GRID*               5030               03.8750002962E+02-1.070879877E+01+
*       4.8839365437E+01               0
GRID*               5031               03.8750001180E+021.2892055314E+00+
*       4.9983213658E+01               0
GRID*               5032               04.0000001211E+021.3307781756E+00+
*       4.9982118022E+01               0
GRID*               5033               03.8750000068E+021.3212841175E+01+
*       4.8222606876E+01               0
GRID*               5034               03.8749999724E+022.4369127274E+01+
*       4.3659371331E+01               0
GRID*               5035               03.9999999741E+022.4405425377E+01+
*       4.3639095792E+01               0
GRID*               5036               03.8749998621E+023.4108731034E+01+
*       3.6559163257E+01               0
GRID*               5037               03.8749997062E+024.1866028664E+01+
*       2.7334835350E+01               0
GRID*               5038               03.9999997019E+024.1888723473E+01+
*       2.7300048147E+01               0
GRID*               5039               03.8749995503E+024.7190624103E+01+
*       1.6522298056E+01               0
GRID*               5040               03.8749994474E+024.9773244311E+01+
*       4.7494599734E+00               0
GRID*               5041               03.9999994456E+024.9777174813E+01+
*       4.7080919398E+00               0
GRID*               5042               03.8749994588E+024.9463542140E+01+
*       -7.300119276E+00               0
GRID*               5043               03.8749996727E+024.6278689250E+01+
*       -1.892674892E+01               0
GRID*               5044               03.9999997237E+024.6262802247E+01+
*       -1.896553896E+01               0
GRID*               5045               03.8750001720E+024.0402441489E+01+
*       -2.945474294E+01               0
GRID*               5046               03.8750004469E+023.2178000822E+01+
*       -3.826896944E+01               0
GRID*               5047               04.0000004714E+023.2146040796E+01+
*       -3.829580745E+01               0
GRID*               5048               03.8750004437E+022.2084666949E+01+
*       -4.485769011E+01               0
GRID*               5049               04.1249999759E+02-2.444170733E+01+
*       -4.361878965E+01               0
GRID*               5050               04.1249998619E+02-3.416947236E+01+
*       -3.650241047E+01               0
GRID*               5051               04.2499998624E+02-3.419981107E+01+
*       -3.647399346E+01               0
GRID*               5052               04.1249996984E+02-4.191139252E+01+
*       -2.726523792E+01               0
GRID*               5053               04.1249995392E+02-4.721800550E+01+
*       -1.644388755E+01               0
GRID*               5054               04.2499995357E+02-4.723165279E+01+
*       -1.640465203E+01               0
GRID*               5055               04.1249994464E+02-4.978107324E+01+
*       -4.666703564E+00               0
GRID*               5056               04.1249994933E+02-4.945130277E+01+
*       7.3825863116E+00               0
GRID*               5057               04.2499995175E+02-4.944512568E+01+
*       7.4238598644E+00               0
GRID*               5058               04.1249997825E+02-4.624686304E+01+
*       1.9004364981E+01               0
GRID*               5059               04.1250002922E+02-4.035290511E+01+
*       2.9522533129E+01               0
GRID*               5060               04.2500003428E+02-4.032813569E+01+
*       2.9556344914E+01               0
GRID*               5061               04.1250004924E+02-3.211407753E+01+
*       3.8322604523E+01               0
GRID*               5062               04.1250004563E+02-2.200997133E+01+
*       4.4894374218E+01               0
GRID*               5063               04.2500004602E+02-2.197261617E+01+
*       4.4912663373E+01               0
GRID*               5064               04.1250003005E+02-1.062755012E+01+
*       4.8857098509E+01               0
GRID*               5065               04.1250001238E+021.3723477028E+00+
*       4.9980988041E+01               0
GRID*               5066               04.2500001263E+021.4139139574E+00+
*       4.9979823737E+01               0
GRID*               5067               04.1250000104E+021.3293021819E+01+
*       4.8200559865E+01               0
GRID*               5068               04.1249999759E+022.4441707329E+01+
*       4.3618789646E+01               0
GRID*               5069               04.2499999778E+022.4477972973E+01+
*       4.3598452960E+01               0
GRID*               5070               04.1249998619E+023.4169472364E+01+
*       3.6502410474E+01               0
GRID*               5071               04.1249996984E+024.1911392517E+01+
*       2.7265237920E+01               0
GRID*               5072               04.2499996956E+024.1934035817E+01+
*       2.7230404641E+01               0
GRID*               5073               04.1249995392E+024.7218005495E+01+
*       1.6443887553E+01               0
GRID*               5074               04.1249994464E+024.9781073240E+01+
*       4.6667035640E+00               0
GRID*               5075               04.2499994498E+024.9784939684E+01+
*       4.6252941315E+00               0
GRID*               5076               04.1249994933E+024.9451302765E+01+
*       -7.382586312E+00               0
GRID*               5077               04.1249997825E+024.6246863038E+01+
*       -1.900436498E+01               0
GRID*               5078               04.2499998493E+024.6230870586E+01+
*       -1.904322950E+01               0
GRID*               5079               04.1250002922E+024.0352905105E+01+
*       -2.952253313E+01               0
GRID*               5080               04.1250004924E+023.2114077527E+01+
*       -3.832260452E+01               0
GRID*               5081               04.2500005102E+023.2082110179E+01+
*       -3.834936129E+01               0
GRID*               5082               04.1250004563E+022.2009971334E+01+
*       -4.489437422E+01               0
GRID*               5083               04.3749999798E+02-2.451422214E+01+
*       -4.357808580E+01               0
GRID*               5084               04.3749998634E+02-3.423012839E+01+
*       -3.644554942E+01               0
GRID*               5085               04.4999998647E+02-3.426042422E+01+
*       -3.641707844E+01               0
GRID*               5086               04.3749996936E+02-4.195665338E+01+
*       -2.719554830E+01               0
GRID*               5087               04.3749995337E+02-4.724527127E+01+
*       -1.636539601E+01               0
GRID*               5088               04.4999995331E+02-4.725886104E+01+
*       -1.632611928E+01               0
GRID*               5089               04.3749994559E+02-4.978877424E+01+
*       -4.583862911E+00               0
GRID*               5090               04.3749995467E+02-4.943891005E+01+
*       7.4651621759E+00               0
GRID*               5091               04.4999995810E+02-4.943265566E+01+
*       7.5064949149E+00               0
GRID*               5092               04.3749999246E+02-4.621482379E+01+
*       1.9082135189E+01               0
GRID*               5093               04.3750003873E+02-4.030336354E+01+
*       2.9590103660E+01               0
GRID*               5094               04.5000004262E+02-4.027858738E+01+
*       2.9623811028E+01               0
GRID*               5095               04.3750005247E+02-3.205013799E+01+
*       3.8376078349E+01               0
GRID*               5096               04.3750004625E+02-2.193525581E+01+
*       4.4930917389E+01               0
GRID*               5097               04.5000004633E+02-2.189789002E+01+
*       4.4949136353E+01               0
GRID*               5098               04.3750003017E+02-1.054629279E+01+
*       4.8874693705E+01               0
GRID*               5099               04.3750001284E+021.4554767930E+00+
*       4.9978625129E+01               0
GRID*               5100               04.5000001301E+021.4970360732E+00+
*       4.9977392235E+01               0
GRID*               5101               04.3750000144E+021.3373167158E+01+
*       4.8178378294E+01               0
GRID*               5102               04.3749999798E+022.4514222143E+01+
*       4.3578085801E+01               0
GRID*               5103               04.4999999818E+022.4550454666E+01+
*       4.3557688242E+01               0
GRID*               5104               04.3749998634E+023.4230128385E+01+
*       3.6445549424E+01               0
GRID*               5105               04.3749996936E+024.1956653381E+01+
*       2.7195548299E+01               0
GRID*               5106               04.4999996924E+024.1979245210E+01+
*       2.7160668896E+01               0
GRID*               5107               04.3749995337E+024.7245271271E+01+
*       1.6365396014E+01               0
GRID*               5108               04.3749994559E+024.9788774243E+01+
*       4.5838629107E+00               0
GRID*               5109               04.4999994649E+024.9792577015E+01+
*       4.5424091444E+00               0
GRID*               5110               04.3749995467E+024.9438910046E+01+
*       -7.465162176E+00               0
GRID*               5111               04.3749999246E+024.6214823787E+01+
*       -1.908213519E+01               0
GRID*               5112               04.5000000087E+024.6198721694E+01+
*       -1.912108432E+01               0
GRID*               5113               04.3750003873E+024.0303363539E+01+
*       -2.959010366E+01               0
GRID*               5114               04.3750005247E+023.2050137987E+01+
*       -3.837607835E+01               0
GRID*               5115               04.5000005363E+023.2018160249E+01+
*       -3.840275623E+01               0
GRID*               5116               04.3750004625E+022.1935255808E+01+
*       -4.493091739E+01               0
GRID*               5117               04.6249999839E+02-2.458667036E+01+
*       -4.353726036E+01               0
GRID*               5118               04.6249998665E+02-3.429069850E+01+
*       -3.638858057E+01               0
GRID*               5119               04.7499998686E+02-3.432095110E+01+
*       -3.636005589E+01               0
GRID*               5120               04.6249996920E+02-4.200181129E+01+
*       -2.712576644E+01               0
GRID*               5121               04.6249995341E+02-4.727242219E+01+
*       -1.628682160E+01               0
GRID*               5122               04.7499995366E+02-4.728595481E+01+
*       -1.624750276E+01               0
GRID*               5123               04.6249994768E+02-4.979634811E+01+
*       -4.500932039E+00               0
GRID*               5124               04.6249996209E+02-4.942636227E+01+
*       7.5478598709E+00               0
GRID*               5125               04.7499996665E+02-4.942002963E+01+
*       7.5892589810E+00               0
GRID*               5126               04.6250000912E+02-4.618259228E+01+
*       1.9160009368E+01               0
GRID*               5127               04.6250004598E+02-4.025380605E+01+
*       2.9657468536E+01               0
GRID*               5128               04.7500004882E+02-4.022901846E+01+
*       2.9691077588E+01               0
GRID*               5129               04.6250005450E+02-3.198617631E+01+
*       3.8429395436E+01               0
GRID*               5130               04.6250004626E+02-2.186051861E+01+
*       4.4967320352E+01               0
GRID*               5131               04.7500004605E+02-2.182314136E+01+
*       4.4985469475E+01               0
GRID*               5132               04.6250003000E+02-1.046502723E+01+
*       4.8892150969E+01               0
GRID*               5133               04.6250001314E+021.5385916722E+00+
*       4.9976125071E+01               0
GRID*               5134               04.7500001323E+021.5801434754E+00+
*       4.9974823653E+01               0
GRID*               5135               04.6250000183E+021.3453275522E+01+
*       4.8156062855E+01               0
GRID*               5136               04.6249999839E+022.4586670358E+01+
*       4.3537260359E+01               0
GRID*               5137               04.7499999859E+022.4622869027E+01+
*       4.3516802232E+01               0
GRID*               5138               04.6249998665E+023.4290698496E+01+
*       3.6388580566E+01               0
GRID*               5139               04.6249996920E+024.2001811292E+01+
*       2.7125766444E+01               0
GRID*               5140               04.7499996923E+024.2024351609E+01+
*       2.7090840968E+01               0
GRID*               5141               04.6249995341E+024.7272422192E+01+
*       1.6286821600E+01               0
GRID*               5142               04.6249994768E+024.9796348106E+01+
*       4.5009320390E+00               0
GRID*               5143               04.7499994918E+024.9800087626E+01+
*       4.4594307529E+00               0
GRID*               5144               04.6249996209E+024.9426362270E+01+
*       -7.547859871E+00               0
GRID*               5145               04.6250000912E+024.6182592284E+01+
*       -1.916000937E+01               0
GRID*               5146               04.7500001648E+024.6166454401E+01+
*       -1.919886483E+01               0
GRID*               5147               04.6250004598E+024.0253806048E+01+
*       -2.965746854E+01               0
GRID*               5148               04.6250005450E+023.1986176308E+01+
*       -3.842939544E+01               0
GRID*               5149               04.7500005509E+023.1954185548E+01+
*       -3.845599644E+01               0
GRID*               5150               04.6250004626E+022.1860518611E+01+
*       -4.496732035E+01               0
GRID*               5151               04.8749999879E+02-2.465905047E+01+
*       -4.349631394E+01               0
GRID*               5152               04.8749998711E+02-3.435118194E+01+
*       -3.633150448E+01               0
GRID*               5153               04.9999998739E+02-3.438139089E+01+
*       -3.630292644E+01               0
GRID*               5154               04.8749996935E+02-4.204686613E+01+
*       -2.705589250E+01               0
GRID*               5155               04.8749995406E+02-4.729945899E+01+
*       -1.620816254E+01               0
GRID*               5156               04.9999995464E+02-4.731293484E+01+
*       -1.616880069E+01               0
GRID*               5157               04.8749995100E+02-4.980379569E+01+
*       -4.417904382E+00               0
GRID*               5158               04.8749997182E+02-4.941365747E+01+
*       7.6306943603E+00               0
GRID*               5159               04.9999997763E+02-4.940724547E+01+
*       7.6721683381E+00               0
GRID*               5160               04.8750002300E+02-4.615030687E+01+
*       1.9237653537E+01               0
GRID*               5161               04.8750005118E+02-4.020422362E+01+
*       2.9724639494E+01               0
GRID*               5162               05.0000005307E+02-4.017942058E+01+
*       2.9758155489E+01               0
GRID*               5163               04.8750005541E+02-3.192218738E+01+
*       3.8482559708E+01               0
GRID*               5164               04.8750004570E+02-2.178575805E+01+
*       4.5003583811E+01               0
GRID*               5165               05.0000004520E+02-2.174836846E+01+
*       4.5021663452E+01               0
GRID*               5166               04.8750002951E+02-1.038375364E+01+
*       4.8909470272E+01               0
GRID*               5167               04.8750001328E+021.6216913804E+00+
*       4.9973487994E+01               0
GRID*               5168               05.0000001329E+021.6632352974E+00+
*       4.9972118105E+01               0
GRID*               5169               04.8750000221E+021.3533345381E+01+
*       4.8133614181E+01               0
GRID*               5170               04.8749999879E+022.4659050472E+01+
*       4.3496313942E+01               0
GRID*               5171               04.9999999899E+022.4695214484E+01+
*       4.3475795578E+01               0
GRID*               5172               04.8749998711E+023.4351181940E+01+
*       3.6331504483E+01               0
GRID*               5173               04.8749996935E+024.2046866133E+01+
*       2.7055892504E+01               0
GRID*               5174               04.9999996953E+024.2069354832E+01+
*       2.7020921095E+01               0
GRID*               5175               04.8749995406E+024.7299458993E+01+
*       1.6208162536E+01               0
GRID*               5176               04.8749995100E+024.9803795695E+01+
*       4.4179043824E+00               0
GRID*               5177               04.9999995316E+024.9807472440E+01+
*       4.3763519461E+00               0
GRID*               5178               04.8749997182E+024.9413657468E+01+
*       -7.630694360E+00               0
GRID*               5179               04.8750002300E+024.6150306873E+01+
*       -1.923765354E+01               0
GRID*               5180               05.0000002873E+024.6134148610E+01+
*       -1.927637813E+01               0
GRID*               5181               04.8750005118E+024.0204223623E+01+
*       -2.972463949E+01               0
GRID*               5182               04.8750005541E+023.1922187376E+01+
*       -3.848255971E+01               0
GRID*               5183               05.0000005548E+023.1890181222E+01+
*       -3.850908567E+01               0
GRID*               5184               04.8750004570E+022.1785758047E+01+
*       -4.500358381E+01               0
GRID*               5185               05.1249999918E+02-2.473136084E+01+
*       -4.345524723E+01               0
GRID*               5186               05.1249998770E+02-3.441157782E+01+
*       -3.627432186E+01               0
GRID*               5187               05.2499998805E+02-3.444174261E+01+
*       -3.624569084E+01               0
GRID*               5188               05.1249996980E+02-4.209181766E+01+
*       -2.698592679E+01               0
GRID*               5189               05.1249995537E+02-4.732638244E+01+
*       -1.612941696E+01               0
GRID*               5190               05.2499995629E+02-4.733980193E+01+
*       -1.609001110E+01               0
GRID*               5191               05.1249995567E+02-4.981111801E+01+
*       -4.334772366E+00               0
GRID*               5192               05.1249998412E+02-4.940079329E+01+
*       7.7136835014E+00               0
GRID*               5193               05.2499999134E+02-4.939430055E+01+
*       7.7552427452E+00               0
GRID*               5194               05.1250003370E+02-4.611797859E+01+
*       1.9315041056E+01               0
GRID*               5195               05.1250005452E+02-4.015460843E+01+
*       2.9791626746E+01               0
GRID*               5196               05.2500005555E+02-4.012978632E+01+
*       2.9825054390E+01               0
GRID*               5197               05.1250005530E+02-3.185816653E+01+
*       3.8535574744E+01               0
GRID*               5198               05.1250004458E+02-2.171097235E+01+
*       4.5039708495E+01               0
GRID*               5199               05.2500004383E+02-2.167356948E+01+
*       4.5057719045E+01               0
GRID*               5200               05.1250002873E+02-1.030247202E+01+
*       4.8926651616E+01               0
GRID*               5201               05.1250001326E+021.7047751501E+00+
*       4.9970713998E+01               0
GRID*               5202               05.2500001318E+021.7463108762E+00+
*       4.9969275679E+01               0
GRID*               5203               05.1250000256E+021.3613375353E+01+
*       4.8111032846E+01               0
GRID*               5204               05.1249999918E+022.4731360845E+01+
*       4.3455247229E+01               0
GRID*               5205               05.2499999936E+022.4767489328E+01+
*       4.3434668990E+01               0
GRID*               5206               05.1249998770E+023.4411577822E+01+
*       3.6274321861E+01               0
GRID*               5207               05.1249996980E+024.2091817665E+01+
*       2.6985926793E+01               0
GRID*               5208               05.2499997014E+024.2114254587E+01+
*       2.6950909656E+01               0
GRID*               5209               05.1249995537E+024.7326382443E+01+
*       1.6129416965E+01               0
GRID*               5210               05.1249995567E+024.9811118005E+01+
*       4.3347723658E+00               0
GRID*               5211               05.2499995855E+024.9814732547E+01+
*       4.2931644444E+00               0
GRID*               5212               05.1249998412E+024.9400793289E+01+
*       -7.713683501E+00               0
GRID*               5213               05.1250003370E+024.6117978591E+01+
*       -1.931504106E+01               0
GRID*               5214               05.2500003795E+024.6101795853E+01+
*       -1.935364465E+01               0
GRID*               5215               05.1250005452E+024.0154608431E+01+
*       -2.979162675E+01               0
GRID*               5216               05.1250005530E+023.1858166528E+01+
*       -3.853557474E+01               0
GRID*               5217               05.2500005488E+023.1826142740E+01+
*       -3.856202737E+01               0
GRID*               5218               05.1250004458E+022.1710972349E+01+
*       -4.503970850E+01               0
GRID*               5219               05.3749999952E+02-2.480359970E+01+
*       -4.341406096E+01               0
GRID*               5220               05.3749998842E+02-3.447188513E+01+
*       -3.621703348E+01               0
GRID*               5221               05.4999998882E+02-3.450200522E+01+
*       -3.618834989E+01               0
GRID*               5222               05.3749997055E+02-4.213666555E+01+
*       -2.691586975E+01               0
GRID*               5223               05.3749995737E+02-4.735319342E+01+
*       -1.605058278E+01               0
GRID*               5224               05.4999995865E+02-4.736655705E+01+
*       -1.601113166E+01               0
GRID*               5225               05.3749996182E+02-4.981831624E+01+
*       -4.251526839E+00               0
GRID*               5226               05.3749999932E+02-4.938776683E+01+
*       7.7968493339E+00               0
GRID*               5227               05.5000000733E+02-4.938119885E+01+
*       7.8384521298E+00               0
GRID*               5228               05.3750004151E+02-4.608559948E+01+
*       1.9392191133E+01               0
GRID*               5229               05.3750005618E+02-4.010495340E+01+
*       2.9858439514E+01               0
GRID*               5230               05.5000005643E+02-4.008010885E+01+
*       2.9891783184E+01               0
GRID*               5231               05.3750005425E+02-3.179410931E+01+
*       3.8588443963E+01               0
GRID*               5232               05.3750004295E+02-2.163615958E+01+
*       4.5075695210E+01               0
GRID*               5233               05.5000004195E+02-2.159874236E+01+
*       4.5093637109E+01               0
GRID*               5234               05.3750002765E+02-1.022118204E+01+
*       4.8943695043E+01               0
GRID*               5235               05.3750001307E+021.7878424287E+00+
*       4.9967803156E+01               0
GRID*               5236               05.5000001290E+021.8293697759E+00+
*       4.9966296432E+01               0
GRID*               5237               05.3750000285E+021.3693364204E+01+
*       4.8088319359E+01               0
GRID*               5238               05.3749999952E+022.4803599698E+01+
*       4.3414060958E+01               0
GRID*               5239               05.4999999967E+022.4839691709E+01+
*       4.3393423234E+01               0
GRID*               5240               05.3749998842E+023.4471885126E+01+
*       3.6217033478E+01               0
GRID*               5241               05.3749997055E+024.2136665550E+01+
*       2.6915869749E+01               0
GRID*               5242               05.4999997104E+024.2159050503E+01+
*       2.6880807137E+01               0
GRID*               5243               05.3749995737E+024.7353193417E+01+
*       1.6050582776E+01               0
GRID*               5244               05.3749996182E+024.9818316242E+01+
*       4.2515268394E+00               0
GRID*               5245               05.4999996551E+024.9821869292E+01+
*       4.2098580309E+00               0
GRID*               5246               05.3749999932E+024.9387766832E+01+
*       -7.796849334E+00               0
GRID*               5247               05.3750004151E+024.6085599479E+01+
*       -1.939219113E+01               0
GRID*               5248               05.5000004442E+024.6069388589E+01+
*       -1.943068262E+01               0
GRID*               5249               05.3750005618E+024.0104953396E+01+
*       -2.985843951E+01               0
GRID*               5250               05.3750005425E+023.1794109307E+01+
*       -3.858844396E+01               0
GRID*               5251               05.5000005339E+023.1762065672E+01+
*       -3.861482495E+01               0
GRID*               5252               05.3750004295E+022.1636159579E+01+
*       -4.507569521E+01               0
GRID*               5253               05.6249999979E+02-2.487576511E+01+
*       -4.337275592E+01               0
GRID*               5254               05.6249998924E+02-3.453210273E+01+
*       -3.615964020E+01               0
GRID*               5255               05.7499998969E+02-3.456217752E+01+
*       -3.613090450E+01               0
GRID*               5256               05.6249997160E+02-4.218140939E+01+
*       -2.684572189E+01               0
GRID*               5257               05.6249996011E+02-4.737989299E+01+
*       -1.597165736E+01               0
GRID*               5258               05.7499996177E+02-4.739320144E+01+
*       -1.593215942E+01               0
GRID*               5259               05.6249996964E+02-4.982539192E+01+
*       -4.168156283E+00               0
GRID*               5260               05.6250001433E+02-4.937460595E+01+
*       7.8799802712E+00               0
GRID*               5261               05.7500002036E+02-4.936798774E+01+
*       7.9214366325E+00               0
GRID*               5262               05.6250004672E+02-4.605316233E+01+
*       1.9469121173E+01               0
GRID*               5263               05.6250005632E+02-4.005525187E+01+
*       2.9925086453E+01               0
GRID*               5264               05.7500005587E+02-4.003038166E+01+
*       2.9958350369E+01               0
GRID*               5265               05.6250005234E+02-3.173001127E+01+
*       3.8641170775E+01               0
GRID*               5266               05.6250004084E+02-2.156131753E+01+
*       4.5111544868E+01               0
GRID*               5267               05.7500003962E+02-2.152388475E+01+
*       4.5129418624E+01               0
GRID*               5268               05.6250002628E+02-1.013988308E+01+
*       4.8960600635E+01               0
GRID*               5269               05.6250001270E+021.8708929031E+00+
*       4.9964755509E+01               0
GRID*               5270               05.7500001245E+021.9124118125E+00+
*       4.9963180387E+01               0
GRID*               5271               05.6250000308E+021.3773310869E+01+
*       4.8065474163E+01               0
GRID*               5272               05.6249999979E+022.4875765107E+01+
*       4.3372755924E+01               0
GRID*               5273               05.7499999989E+022.4911819624E+01+
*       4.3352059139E+01               0
GRID*               5274               05.6249998924E+023.4532102733E+01+
*       3.6159640196E+01               0
GRID*               5275               05.6249997160E+024.2181409392E+01+
*       2.6845721890E+01               0
GRID*               5276               05.7499997224E+024.2203742165E+01+
*       2.6810614076E+01               0
GRID*               5277               05.6249996011E+024.7379892995E+01+
*       1.5971657363E+01               0
GRID*               5278               05.6249996964E+024.9825391923E+01+
*       4.1681562827E+00               0
GRID*               5279               05.7499997423E+024.9828884400E+01+
*       4.1264195957E+00               0
GRID*               5280               05.6250001433E+024.9374605951E+01+
*       -7.879980271E+00               0
GRID*               5281               05.6250004672E+024.6053162330E+01+
*       -1.946912117E+01               0
GRID*               5282               05.7500004842E+024.6036919868E+01+
*       -1.950750880E+01               0
GRID*               5283               05.6250005632E+024.0055251875E+01+
*       -2.992508645E+01               0
GRID*               5284               05.6250005234E+023.1730011268E+01+
*       -3.864117078E+01               0
GRID*               5285               05.7500005109E+023.1697945517E+01+
*       -3.866748187E+01               0
GRID*               5286               05.6250004084E+022.1561317530E+01+
*       -4.511154487E+01               0
GRID*               5287               05.8749999996E+02-2.494785498E+01+
*       -4.333133299E+01               0
GRID*               5288               05.8749999015E+02-3.459222943E+01+
*       -3.610214294E+01               0
GRID*               5289               05.9999999063E+02-3.462225829E+01+
*       -3.607335563E+01               0
GRID*               5290               05.8749997294E+02-4.222604877E+01+
*       -2.677548376E+01               0
GRID*               5291               05.8749996363E+02-4.740648260E+01+
*       -1.589263728E+01               0
GRID*               5292               05.9999996571E+02-4.741973676E+01+
*       -1.585309031E+01               0
GRID*               5293               05.8749997933E+02-4.983234703E+01+
*       -4.084645649E+00               0
GRID*               5294               05.8750002546E+02-4.936134381E+01+
*       7.9628244142E+00               0
GRID*               5295               06.0000002969E+02-4.935467374E+01+
*       8.0041467505E+00               0
GRID*               5296               05.8750004957E+02-4.602066039E+01+
*       1.9545847486E+01               0
GRID*               5297               05.8750005509E+02-4.000549741E+01+
*       2.9991575979E+01               0
GRID*               5298               06.0000005401E+02-3.998059831E+01+
*       3.0024764344E+01               0
GRID*               5299               05.8750004966E+02-3.166586782E+01+
*       3.8693758704E+01               0
GRID*               5300               05.8750003830E+02-2.148644366E+01+
*       4.5147258524E+01               0
GRID*               5301               06.0000003688E+02-2.144899388E+01+
*       4.5165064727E+01               0
GRID*               5302               05.8750002466E+02-1.005857415E+01+
*       4.8977368524E+01               0
GRID*               5303               05.8750001215E+021.9539265248E+00+
*       4.9961571064E+01               0
GRID*               5304               06.0000001182E+021.9954370795E+00+
*       4.9959927534E+01               0
GRID*               5305               05.8750000324E+021.3853214459E+01+
*       4.8042497626E+01               0
GRID*               5306               05.8749999996E+022.4947854981E+01+
*       4.3331332995E+01               0
GRID*               5307               06.0000000000E+022.4983870885E+01+
*       4.3310577612E+01               0
GRID*               5308               05.8749999015E+023.4592229433E+01+
*       3.6102142940E+01               0
GRID*               5309               05.8749997294E+024.2226048772E+01+
*       2.6775483762E+01               0
GRID*               5310               05.9999997372E+024.2248329166E+01+
*       2.6740331007E+01               0
GRID*               5311               05.8749996363E+024.7406482604E+01+
*       1.5892637279E+01               0
GRID*               5312               05.8749997933E+024.9832347028E+01+
*       4.0846456487E+00               0
GRID*               5313               05.9999998498E+024.9835780165E+01+
*       4.0428317264E+00               0
GRID*               5314               05.8750002546E+024.9361343811E+01+
*       -7.962824414E+00               0
GRID*               5315               05.8750004957E+024.6020660386E+01+
*       -1.954584749E+01               0
GRID*               5316               06.0000005019E+024.6004383071E+01+
*       -1.958413918E+01               0
GRID*               5317               05.8750005509E+024.0005497411E+01+
*       -2.999157598E+01               0
GRID*               5318               05.8750004966E+023.1665867820E+01+
*       -3.869375870E+01               0
GRID*               5319               06.0000004806E+023.1633777561E+01+
*       -3.872000174E+01               0
GRID*               5320               05.8750003830E+022.1486443656E+01+
*       -4.514725852E+01               0
GRID*               5321               06.1250000000E+02-2.501986751E+01+
*       -4.328979288E+01               0
GRID*               5322               06.1249999113E+02-3.465226394E+01+
*       -3.604454270E+01               0
GRID*               5323               06.2499999163E+02-3.468224621E+01+
*       -3.601570427E+01               0
GRID*               5324               06.1249997456E+02-4.227058331E+01+
*       -2.670515586E+01               0
GRID*               5325               06.1249996803E+02-4.743296423E+01+
*       -1.581351774E+01               0
GRID*               5326               06.2499997058E+02-4.744616539E+01+
*       -1.577391863E+01               0
GRID*               5327               06.1249999121E+02-4.983918423E+01+
*       -4.000974628E+00               0
GRID*               5328               06.1250003309E+02-4.934797712E+01+
*       8.0454067346E+00               0
GRID*               5329               06.2500003570E+02-4.934125356E+01+
*       8.0866074415E+00               0
GRID*               5330               06.1250005032E+02-4.598808711E+01+
*       1.9622385853E+01               0
GRID*               5331               06.1250005265E+02-3.995568353E+01+
*       3.0057916537E+01               0
GRID*               5332               06.2500005102E+02-3.993075223E+01+
*       3.0091033655E+01               0
GRID*               5333               06.1250004630E+02-3.160167409E+01+
*       3.8746211485E+01               0
GRID*               5334               06.1250003537E+02-2.141153500E+01+
*       4.5182837405E+01               0
GRID*               5335               06.2500003377E+02-2.137406657E+01+
*       4.5200576742E+01               0
GRID*               5336               06.1250002279E+02-9.977253861E+00+
*       4.8993998890E+01               0
GRID*               5337               06.1250001145E+022.0369435361E+00+
*       4.9958249789E+01               0
GRID*               5338               06.2500001104E+022.0784459748E+00+
*       4.9956537818E+01               0
GRID*               5339               06.1250000331E+021.3933074281E+01+
*       4.8019390034E+01               0
GRID*               5340               06.1250000000E+022.5019867515E+01+
*       4.3289792884E+01               0
GRID*               5341               06.2500000001E+022.5055847002E+01+
*       4.3268977791E+01               0
GRID*               5342               06.1249999113E+023.4652263943E+01+
*       3.6044542696E+01               0
GRID*               5343               06.1249997456E+024.2270583307E+01+
*       2.6705155862E+01               0
GRID*               5344               06.2499997548E+024.2292811166E+01+
*       2.6669958368E+01               0
GRID*               5345               06.1249996803E+024.7432964227E+01+
*       1.5813517738E+01               0
GRID*               5346               06.1249999121E+024.9839184231E+01+
*       4.0009746281E+00               0
GRID*               5347               06.2499999809E+024.9842559729E+01+
*       3.9590705516E+00               0
GRID*               5348               06.1250003309E+024.9347977122E+01+
*       -8.045406735E+00               0
GRID*               5349               06.1250005032E+024.5988087111E+01+
*       -1.962238585E+01               0
GRID*               5350               06.2500004998E+024.5971771692E+01+
*       -1.966058946E+01               0
GRID*               5351               06.1250005265E+023.9955683526E+01+
*       -3.005791654E+01               0
GRID*               5352               06.1250004630E+023.1601674095E+01+
*       -3.874621149E+01               0
GRID*               5353               06.2500004439E+023.1569556751E+01+
*       -3.877238844E+01               0
GRID*               5354               06.1250003537E+022.1411534996E+01+
*       -4.518283741E+01               0
GRID*               5355               06.3750000003E+02-2.509180950E+01+
*       -4.324813230E+01               0
GRID*               5356               06.3749999215E+02-3.471220492E+01+
*       -3.598684049E+01               0
GRID*               5357               06.4999999267E+02-3.474213990E+01+
*       -3.595795149E+01               0
GRID*               5358               06.3749997647E+02-4.231501273E+01+
*       -2.663473854E+01               0
GRID*               5359               06.3749997340E+02-4.745934072E+01+
*       -1.573429184E+01               0
GRID*               5360               06.4999997651E+02-4.747249080E+01+
*       -1.569463598E+01               0
GRID*               5361               06.3750000516E+02-4.984590247E+01+
*       -3.917151268E+00               0
GRID*               5362               06.3750003757E+02-4.933450263E+01+
*       8.1277519494E+00               0
GRID*               5363               06.5000003875E+02-4.932772395E+01+
*       8.1688433596E+00               0
GRID*               5364               06.3750004921E+02-4.595543599E+01+
*       1.9698752002E+01               0
GRID*               5365               06.3750004915E+02-3.990580355E+01+
*       3.0124116822E+01               0
GRID*               5366               06.5000004706E+02-3.988083660E+01+
*       3.0157167198E+01               0
GRID*               5367               06.3750004236E+02-3.153742483E+01+
*       3.8798533158E+01               0
GRID*               5368               06.3750003210E+02-2.133658811E+01+
*       4.5218282936E+01               0
GRID*               5369               06.5000003036E+02-2.129909911E+01+
*       4.5235956201E+01               0
GRID*               5370               06.3750002071E+02-9.895920390E+00+
*       4.9010491976E+01               0
GRID*               5371               06.3750001059E+022.1199444976E+00+
*       4.9954791609E+01               0
GRID*               5372               06.5000001011E+022.1614392290E+00+
*       4.9953011145E+01               0
GRID*               5373               06.3750000330E+021.4012889852E+01+
*       4.7996151588E+01               0
GRID*               5374               06.3750000003E+022.5091809497E+01+
*       4.3248132303E+01               0
GRID*               5375               06.5000000006E+022.5127754846E+01+
*       4.3227256541E+01               0
GRID*               5376               06.3749999215E+023.4712204921E+01+
*       3.5986840493E+01               0
GRID*               5377               06.3749997647E+024.2315012728E+01+
*       2.6634738544E+01               0
GRID*               5378               06.4999997753E+024.2337187994E+01+
*       2.6599496387E+01               0
GRID*               5379               06.3749997340E+024.7459340721E+01+
*       1.5734291840E+01               0
GRID*               5380               06.3750000516E+024.9845902473E+01+
*       3.9171512682E+00               0
GRID*               5381               06.5000001113E+024.9849200960E+01+
*       3.8753041763E+00               0
GRID*               5382               06.3750003757E+024.9334502632E+01+
*       -8.127751949E+00               0
GRID*               5383               06.3750004921E+024.5955435989E+01+
*       -1.969875200E+01               0
GRID*               5384               06.5000004804E+024.5939079166E+01+
*       -1.973687549E+01               0
GRID*               5385               06.3750004915E+023.9905803547E+01+
*       -3.012411682E+01               0
GRID*               5386               06.3750004236E+023.1537424828E+01+
*       -3.879853316E+01               0
GRID*               5387               06.5000004020E+023.1505277588E+01+
*       -3.882464619E+01               0
GRID*               5388               06.3750003210E+022.1336588110E+01+
*       -4.521828294E+01               0
GRID*               5389               06.6250000009E+02-2.516368291E+01+
*       -4.320635061E+01               0
GRID*               5390               06.6249999319E+02-3.477205098E+01+
*       -3.592903740E+01               0
GRID*               5391               06.7499999372E+02-3.480193797E+01+
*       -3.590009835E+01               0
GRID*               5392               06.6249997866E+02-4.235933699E+01+
*       -2.656423186E+01               0
GRID*               5393               06.6249997992E+02-4.748561634E+01+
*       -1.565494933E+01               0
GRID*               5394               06.7499998369E+02-4.749871823E+01+
*       -1.561522973E+01               0
GRID*               5395               06.6250001600E+02-4.985245515E+01+
*       -3.833529552E+00               0
GRID*               5396               06.6250003928E+02-4.932091708E+01+
*       8.2098848156E+00               0
GRID*               5397               06.7500003920E+02-4.931408162E+01+
*       8.2508795210E+00               0
GRID*               5398               06.6250004650E+02-4.592270036E+01+
*       1.9774962004E+01               0
GRID*               5399               06.6250004476E+02-3.985585046E+01+
*       3.0190185980E+01               0
GRID*               5400               06.7500004229E+02-3.983084417E+01+
*       3.0223174410E+01               0
GRID*               5401               06.6250003793E+02-3.147311426E+01+
*       3.8850728141E+01               0
GRID*               5402               06.6250002857E+02-2.126159902E+01+
*       4.5253596766E+01               0
GRID*               5403               06.7500002672E+02-2.122408724E+01+
*       4.5271204876E+01               0
GRID*               5404               06.6250001845E+02-9.814571439E+00+
*       4.9026848082E+01               0
GRID*               5405               06.6250000959E+022.2029303172E+00+
*       4.9951196407E+01               0
GRID*               5406               06.7500000905E+022.2444179347E+00+
*       4.9949347371E+01               0
GRID*               5407               06.6250000320E+021.4092660921E+01+
*       4.7972782392E+01               0
GRID*               5408               06.6250000009E+022.5163682905E+01+
*       4.3206350614E+01               0
GRID*               5409               06.7500000012E+022.5199593544E+01+
*       4.3185414621E+01               0
GRID*               5410               06.6249999319E+023.4772050979E+01+
*       3.5929037397E+01               0
GRID*               5411               06.6249997866E+024.2359336994E+01+
*       2.6564231859E+01               0
GRID*               5412               06.7499997986E+024.2381459789E+01+
*       2.6528944880E+01               0
GRID*               5413               06.6249997992E+024.7485616337E+01+
*       1.5654949328E+01               0
GRID*               5414               06.6250001600E+024.9852455152E+01+
*       3.8335295518E+00               0
GRID*               5415               06.7500001983E+024.9855665613E+01+
*       3.7918231071E+00               0
GRID*               5416               06.6250003928E+024.9320917081E+01+
*       -8.209884816E+00               0
GRID*               5417               06.6250004650E+024.5922700365E+01+
*       -1.977496200E+01               0
GRID*               5418               06.7500004463E+024.5906298709E+01+
*       -1.981301365E+01               0
GRID*               5419               06.6250004476E+023.9855850455E+01+
*       -3.019018598E+01               0
GRID*               5420               06.6250003793E+023.1473114259E+01+
*       -3.885072814E+01               0
GRID*               5421               06.7500003558E+023.1440934025E+01+
*       -3.887677963E+01               0
GRID*               5422               06.6250002857E+022.1261599017E+01+
*       -4.525359677E+01               0
GRID*               5423               06.8750000015E+02-2.523548664E+01+
*       -4.316444866E+01               0
GRID*               5424               06.8749999424E+02-3.483180070E+01+
*       -3.587113450E+01               0
GRID*               5425               06.9999999476E+02-3.486163898E+01+
*       -3.584214597E+01               0
GRID*               5426               06.8749998114E+02-4.240355649E+01+
*       -2.649363531E+01               0
GRID*               5427               06.8749998785E+02-4.751179758E+01+
*       -1.557547448E+01               0
GRID*               5428               06.9999999245E+02-4.752485583E+01+
*       -1.553568016E+01               0
GRID*               5429               06.8750002269E+02-4.985883292E+01+
*       -3.750180460E+00               0
GRID*               5430               06.8750003857E+02-4.930721712E+01+
*       8.2918307569E+00               0
GRID*               5431               07.0000003744E+02-4.930032315E+01+
*       8.3327418985E+00               0
GRID*               5432               06.8750004245E+02-4.588987329E+01+
*       1.9851032622E+01               0
GRID*               5433               06.8750003967E+02-3.980581676E+01+
*       3.0256133778E+01               0
GRID*               5434               07.0000003692E+02-3.978076718E+01+
*       3.0289065429E+01               0
GRID*               5435               06.8750003315E+02-3.140873603E+01+
*       3.8902801314E+01               0
GRID*               5436               06.8750002483E+02-2.118656313E+01+
*       4.5288780794E+01               0
GRID*               5437               07.0000002292E+02-2.114902603E+01+
*       4.5306324801E+01               0
GRID*               5438               06.8750001606E+02-9.733204193E+00+
*       4.9043067580E+01               0
GRID*               5439               06.8750000848E+022.2859022798E+00+
*       4.9947464011E+01               0
GRID*               5440               07.0000000789E+022.3273835772E+00+
*       4.9945546299E+01               0
GRID*               5441               06.8750000302E+021.4172387489E+01+
*       4.7949282445E+01               0
GRID*               5442               06.8750000015E+022.5235486643E+01+
*       4.3164448656E+01               0
GRID*               5443               07.0000000018E+022.5271362096E+01+
*       4.3143452799E+01               0
GRID*               5444               06.8749999424E+023.4831800698E+01+
*       3.5871134497E+01               0
GRID*               5445               06.8749998114E+024.2403556487E+01+
*       2.6493635309E+01               0
GRID*               5446               06.9999998250E+024.2425627255E+01+
*       2.6458302930E+01               0
GRID*               5447               06.8749998785E+024.7511797584E+01+
*       1.5575474484E+01               0
GRID*               5448               06.8750002269E+024.9858832922E+01+
*       3.7501804597E+00               0
GRID*               5449               07.0000002465E+024.9861957670E+01+
*       3.7085971049E+00               0
GRID*               5450               06.8750003857E+024.9307217123E+01+
*       -8.291830757E+00               0
GRID*               5451               06.8750004245E+024.5889873292E+01+
*       -1.985103262E+01               0
GRID*               5452               07.0000004001E+024.5873423181E+01+
*       -1.988902117E+01               0
GRID*               5453               06.8750003967E+023.9805816758E+01+
*       -3.025613378E+01               0
GRID*               5454               06.8750003315E+023.1408736031E+01+
*       -3.890280131E+01               0
GRID*               5455               07.0000003066E+023.1376519374E+01+
*       -3.892879389E+01               0
GRID*               5456               06.8750002483E+022.1186563132E+01+
*       -4.528878079E+01               0
GRID*               5457               07.1250000021E+02-2.530721981E+01+
*       -4.312242712E+01               0
GRID*               5458               07.1249999526E+02-3.489145264E+01+
*       -3.581313290E+01               0
GRID*               5459               07.2499999576E+02-3.492124149E+01+
*       -3.578409543E+01               0
GRID*               5460               07.1249998395E+02-4.244767234E+01+
*       -2.642294742E+01               0
GRID*               5461               07.1249999756E+02-4.753789479E+01+
*       -1.549584237E+01               0
GRID*               5462               07.2500000297E+02-4.755090851E+01+
*       -1.545597548E+01               0
GRID*               5463               07.1250002577E+02-4.986504047E+01+
*       -3.667068388E+00               0
GRID*               5464               07.1250003586E+02-4.929339925E+01+
*       8.3736164316E+00               0
GRID*               5465               07.2500003387E+02-4.928644493E+01+
*       8.4144579685E+00               0
GRID*               5466               07.1250003735E+02-4.585694741E+01+
*       1.9926981638E+01               0
GRID*               5467               07.1250003406E+02-3.975569436E+01+
*       3.0321970765E+01               0
GRID*               5468               07.2500003112E+02-3.973059718E+01+
*       3.0354851253E+01               0
GRID*               5469               07.1250002813E+02-3.134428310E+01+
*       3.8954758078E+01               0
GRID*               5470               07.1250002099E+02-2.111147520E+01+
*       4.5323837196E+01               0
GRID*               5471               07.2500001905E+02-2.107390988E+01+
*       4.5341318299E+01               0
GRID*               5472               07.1250001359E+02-9.651815280E+00+
*       4.9059150913E+01               0
GRID*               5473               07.1250000728E+022.3688620793E+00+
*       4.9943594200E+01               0
GRID*               5474               07.2500000665E+022.4103380671E+00+
*       4.9941607678E+01               0
GRID*               5475               07.1250000275E+021.4252069827E+01+
*       4.7925651635E+01               0
GRID*               5476               07.1250000021E+022.5307219808E+01+
*       4.3122427122E+01               0
GRID*               5477               07.2500000023E+022.5343059700E+01+
*       4.3101371688E+01               0
GRID*               5478               07.1249999526E+023.4891452636E+01+
*       3.5813132898E+01               0
GRID*               5479               07.1249998395E+024.2447672343E+01+
*       2.6422947416E+01               0
GRID*               5480               07.2499998550E+024.2469692112E+01+
*       2.6387568296E+01               0
GRID*               5481               07.1249999756E+024.7537894794E+01+
*       1.5495842367E+01               0
GRID*               5482               07.1250002577E+024.9865040471E+01+
*       3.6670683877E+00               0
GRID*               5483               07.2500002612E+024.9868081961E+01+
*       3.6255894758E+00               0
GRID*               5484               07.1250003586E+024.9293399246E+01+
*       -8.373616432E+00               0
GRID*               5485               07.1250003735E+024.5856947407E+01+
*       -1.992698164E+01               0
GRID*               5486               07.2500003448E+024.5840444963E+01+
*       -1.996491645E+01               0
GRID*               5487               07.1250003406E+023.9755694361E+01+
*       -3.032197077E+01               0
GRID*               5488               07.1250002813E+023.1344283104E+01+
*       -3.895475808E+01               0
GRID*               5489               07.2500002558E+023.1312026218E+01+
*       -3.898069466E+01               0
GRID*               5490               07.1250002099E+022.1111475201E+01+
*       -4.532383720E+01               0
GRID*               5491               07.3750000025E+02-2.537888170E+01+
*       -4.308028655E+01               0
GRID*               5492               07.3749999624E+02-3.495100535E+01+
*       -3.575503371E+01               0
GRID*               5493               07.4999999671E+02-3.498074404E+01+
*       -3.572594787E+01               0
GRID*               5494               07.3749998716E+02-4.249168708E+01+
*       -2.635216490E+01               0
GRID*               5495               07.3750000726E+02-4.756385993E+01+
*       -1.541616895E+01               0
GRID*               5496               07.5000001034E+02-4.757674649E+01+
*       -1.537642896E+01               0
GRID*               5497               07.3750002577E+02-4.987108280E+01+
*       -3.584155332E+00               0
GRID*               5498               07.3750003154E+02-4.927945971E+01+
*       8.4552702643E+00               0
GRID*               5499               07.5000002892E+02-4.927244307E+01+
*       8.4960572324E+00               0
GRID*               5500               07.3750003147E+02-4.582391480E+01+
*       2.0002828142E+01               0
GRID*               5501               07.3750002814E+02-3.970547445E+01+
*       3.0387708425E+01               0
GRID*               5502               07.5000002513E+02-3.968032495E+01+
*       3.0420543888E+01               0
GRID*               5503               07.3750002302E+02-3.127974766E+01+
*       3.9006604431E+01               0
GRID*               5504               07.3750001712E+02-2.103632924E+01+
*       4.5358768450E+01               0
GRID*               5505               07.5000001521E+02-2.099873242E+01+
*       4.5376188009E+01               0
GRID*               5506               07.3750001109E+02-9.570400725E+00+
*       4.9075098605E+01               0
GRID*               5507               07.3750000602E+022.4518118513E+00+
*       4.9939586692E+01               0
GRID*               5508               07.5000000538E+022.4932837735E+00+
*       4.9937531197E+01               0
GRID*               5509               07.3750000242E+021.4331708505E+01+
*       4.7901889726E+01               0
GRID*               5510               07.3750000025E+022.5378881703E+01+
*       4.3080286549E+01               0
GRID*               5511               07.5000000026E+022.5414685764E+01+
*       4.3059171745E+01               0
GRID*               5512               07.3749999624E+023.4951005348E+01+
*       3.5755033711E+01               0
GRID*               5513               07.3749998716E+024.2491687080E+01+
*       2.6352164895E+01               0
GRID*               5514               07.4999998894E+024.2513657988E+01+
*       2.6316736248E+01               0
GRID*               5515               07.3750000726E+024.7563859927E+01+
*       1.5416168950E+01               0
GRID*               5516               07.3750002577E+024.9871082802E+01+
*       3.5841553321E+00               0
GRID*               5517               07.5000002482E+024.9874043690E+01+
*       3.5427606864E+00               0
GRID*               5518               07.3750003154E+024.9279459710E+01+
*       -8.455270264E+00               0
GRID*               5519               07.3750003147E+024.5823914801E+01+
*       -2.000282814E+01               0
GRID*               5520               07.5000002835E+024.5807355828E+01+
*       -2.004071935E+01               0
GRID*               5521               07.3750002814E+023.9705474451E+01+
*       -3.038770843E+01               0
GRID*               5522               07.3750002302E+023.1279747660E+01+
*       -3.900660443E+01               0
GRID*               5523               07.5000002048E+023.1247446317E+01+
*       -3.903248826E+01               0
GRID*               5524               07.3750001712E+022.1036329245E+01+
*       -4.535876845E+01               0
GRID*               5525               07.6250000027E+02-2.545047184E+01+
*       -4.303802731E+01               0
GRID*               5526               07.6249999716E+02-3.501045739E+01+
*       -3.569683804E+01               0
GRID*               5527               07.7499999758E+02-3.504014521E+01+
*       -3.566770437E+01               0
GRID*               5528               07.6249999088E+02-4.253560590E+01+
*       -2.628128097E+01               0
GRID*               5529               07.6250001233E+02-4.758957095E+01+
*       -1.533674885E+01               0
GRID*               5530               07.7500001331E+02-4.760233625E+01+
*       -1.529712150E+01               0
GRID*               5531               07.6250002333E+02-4.987696535E+01+
*       -3.501400007E+00               0
GRID*               5532               07.6250002608E+02-4.926539447E+01+
*       8.5368229608E+00               0
GRID*               5533               07.7500002306E+02-4.925831335E+01+
*       8.5775717282E+00               0
GRID*               5534               07.6250002516E+02-4.579076690E+01+
*       2.0078592824E+01               0
GRID*               5535               07.6250002213E+02-3.965514739E+01+
*       3.0453359323E+01               0
GRID*               5536               07.7500001918E+02-3.962994041E+01+
*       3.0486156494E+01               0
GRID*               5537               07.6250001798E+02-3.121512102E+01+
*       3.9058347035E+01               0
GRID*               5538               07.6250001334E+02-2.096111849E+01+
*       4.5393577361E+01               0
GRID*               5539               07.7500001152E+02-2.092348646E+01+
*       4.5410936911E+01               0
GRID*               5540               07.6250000864E+02-9.488955901E+00+
*       4.9090911265E+01               0
GRID*               5541               07.6250000475E+022.5347542075E+00+
*       4.9935441144E+01               0
GRID*               5542               07.7500000412E+022.5762235601E+00+
*       4.9933316479E+01               0
GRID*               5543               07.6250000203E+021.4411304410E+01+
*       4.7877996351E+01               0
GRID*               5544               07.6250000027E+022.5450471842E+01+
*       4.3038027307E+01               0
GRID*               5545               07.7500000027E+022.5486239914E+01+
*       4.3016853255E+01               0
GRID*               5546               07.6249999716E+023.5010457390E+01+
*       3.5696838042E+01               0
GRID*               5547               07.6249999088E+024.2535605903E+01+
*       2.6281280965E+01               0
GRID*               5548               07.7499999301E+024.2557532377E+01+
*       2.6245797022E+01               0
GRID*               5549               07.6250001233E+024.7589570946E+01+
*       1.5336748848E+01               0
GRID*               5550               07.6250002333E+024.9876965351E+01+
*       3.5014000075E+00               0
GRID*               5551               07.7500002139E+024.9879848553E+01+
*       3.4600674736E+00               0
GRID*               5552               07.6250002608E+024.9265394471E+01+
*       -8.536822961E+00               0
GRID*               5553               07.6250002516E+024.5790766903E+01+
*       -2.007859282E+01               0
GRID*               5554               07.7500002194E+024.5774146832E+01+
*       -2.011645145E+01               0
GRID*               5555               07.6250002213E+023.9655147389E+01+
*       -3.045335932E+01               0
GRID*               5556               07.6250001798E+023.1215121018E+01+
*       -3.905834703E+01               0
GRID*               5557               07.7500001553E+023.1182770527E+01+
*       -3.908418171E+01               0
GRID*               5558               07.6250001334E+022.0961118490E+01+
*       -4.539357736E+01               0
GRID*               5559               07.8750000027E+02-2.552198997E+01+
*       -4.299564960E+01               0
GRID*               5560               07.8749999798E+02-3.506980733E+01+
*       -3.563854699E+01               0
GRID*               5561               07.9999999835E+02-3.509944358E+01+
*       -3.560936603E+01               0
GRID*               5562               07.8749999539E+02-4.257943972E+01+
*       -2.621028140E+01               0
GRID*               5563               07.8750001343E+02-4.761504556E+01+
*       -1.525753930E+01               0
GRID*               5564               08.0000001279E+02-4.762770227E+01+
*       -1.521799404E+01               0
GRID*               5565               07.8750001909E+02-4.988269410E+01+
*       -3.418756942E+00               0
GRID*               5566               07.8750001995E+02-4.925119912E+01+
*       8.6183080203E+00               0
GRID*               5567               08.0000001680E+02-4.924405116E+01+
*       8.6590365465E+00               0
GRID*               5568               07.8750001875E+02-4.575749436E+01+
*       2.0154298256E+01               0
GRID*               5569               07.8750001629E+02-3.960470259E+01+
*       3.0518937252E+01               0
GRID*               5570               08.0000001352E+02-3.957943245E+01+
*       3.0551703535E+01               0
GRID*               5571               07.8750001316E+02-3.115039354E+01+
*       3.9109993281E+01               0
GRID*               5572               07.8750000976E+02-2.088583530E+01+
*       4.5428267091E+01               0
GRID*               5573               08.0000000809E+02-2.084816391E+01+
*       4.5445568355E+01               0
GRID*               5574               07.8750000631E+02-9.407475488E+00+
*       4.9106589594E+01               0
GRID*               5575               07.8750000351E+022.6176922724E+00+
*       4.9931157143E+01               0
GRID*               5576               08.0000000291E+022.6591608213E+00+
*       4.9928963075E+01               0
GRID*               5577               07.8750000160E+021.4490858777E+01+
*       4.7853970997E+01               0
GRID*               5578               07.8750000027E+022.5521989968E+01+
*       4.2995649596E+01               0
GRID*               5579               08.0000000025E+022.5557722011E+01+
*       4.2974416325E+01               0
GRID*               5580               07.8749999798E+023.5069807334E+01+
*       3.5638546986E+01               0
GRID*               5581               07.8749999539E+024.2579439724E+01+
*       2.6210281404E+01               0
GRID*               5582               07.9999999809E+024.2601331493E+01+
*       2.6174729484E+01               0
GRID*               5583               07.8750001343E+024.7615045561E+01+
*       1.5257539300E+01               0
GRID*               5584               07.8750001909E+024.9882694104E+01+
*       3.4187569424E+00               0
GRID*               5585               08.0000001652E+024.9885502859E+01+
*       3.3774619196E+00               0
GRID*               5586               07.8750001995E+024.9251199120E+01+
*       -8.618308020E+00               0
GRID*               5587               07.8750001875E+024.5757494365E+01+
*       -2.015429826E+01               0
GRID*               5588               08.0000001563E+024.5740808191E+01+
*       -2.019213639E+01               0
GRID*               5589               07.8750001629E+023.9604702589E+01+
*       -3.051893725E+01               0
GRID*               5590               07.8750001316E+023.1150393544E+01+
*       -3.910999328E+01               0
GRID*               5591               08.0000001090E+023.1117988701E+01+
*       -3.913578280E+01               0
GRID*               5592               07.8750000976E+022.0885835303E+01+
*       -4.542826709E+01               0
GRID*               5593               08.1250000024E+02-2.559343606E+01+
*       -4.295315343E+01               0
GRID*               5594               08.1249999869E+02-3.512905378E+01+
*       -3.558016162E+01               0
GRID*               5595               08.2499999900E+02-3.515863777E+01+
*       -3.555093390E+01               0
GRID*               5596               08.1250000112E+02-4.262320694E+01+
*       -2.613914223E+01               0
GRID*               5597               08.1250001155E+02-4.764031005E+01+
*       -1.517847686E+01               0
GRID*               5598               08.2500000984E+02-4.765287287E+01+
*       -1.513897821E+01               0
GRID*               5599               08.1250001379E+02-4.988827572E+01+
*       -3.336175526E+00               0
GRID*               5600               08.1250001370E+02-4.923686881E+01+
*       8.6997622574E+00               0
GRID*               5601               08.2500001071E+02-4.922965139E+01+
*       8.7404903621E+00               0
GRID*               5602               08.1250001263E+02-4.572408694E+01+
*       2.0229969171E+01               0
GRID*               5603               08.1250001089E+02-3.955412841E+01+
*       3.0584457380E+01               0
GRID*               5604               08.2500000844E+02-3.952878886E+01+
*       3.0617200923E+01               0
GRID*               5605               08.1250000878E+02-3.108555456E+01+
*       3.9161551365E+01               0
GRID*               5606               08.1250000651E+02-2.081047112E+01+
*       4.5462841185E+01               0
GRID*               5607               08.2500000506E+02-2.077275572E+01+
*       4.5480086090E+01               0
GRID*               5608               08.1250000420E+02-9.325953412E+00+
*       4.9122134391E+01               0
GRID*               5609               08.1250000235E+022.7006297206E+00+
*       4.9926734207E+01               0
GRID*               5610               08.2500000183E+022.7420995221E+00+
*       4.9924470466E+01               0
GRID*               5611               08.1250000117E+021.4570373211E+01+
*       4.7829813001E+01               0
GRID*               5612               08.1250000024E+022.5593436065E+01+
*       4.2953153427E+01               0
GRID*               5613               08.2500000021E+022.5629132167E+01+
*       4.2931860871E+01               0
GRID*               5614               08.1249999869E+023.5129053781E+01+
*       3.5580161619E+01               0
GRID*               5615               08.1250000112E+024.2623206943E+01+
*       2.6139142231E+01               0
GRID*               5616               08.2500000310E+024.2645008918E+01+
*       2.6103594132E+01               0
GRID*               5617               08.1250001155E+024.7640310054E+01+
*       1.5178476862E+01               0
GRID*               5618               08.1250001379E+024.9888275724E+01+
*       3.3361755259E+00               0
GRID*               5619               08.2500001101E+024.9891013659E+01+
*       3.2948904628E+00               0
GRID*               5620               08.1250001370E+024.9236868810E+01+
*       -8.699762257E+00               0
GRID*               5621               08.1250001263E+024.5724086939E+01+
*       -2.022996917E+01               0
GRID*               5622               08.2500000982E+024.5707329166E+01+
*       -2.026780008E+01               0
GRID*               5623               08.1250001089E+023.9554128414E+01+
*       -3.058445738E+01               0
GRID*               5624               08.1250000878E+023.1085554558E+01+
*       -3.916155137E+01               0
GRID*               5625               08.2500000681E+023.1053089602E+01+
*       -3.918730014E+01               0
GRID*               5626               08.1250000651E+022.0810471124E+01+
*       -4.546284119E+01               0
GRID*               5627               08.3750000019E+02-2.566481037E+01+
*       -4.291053861E+01               0
GRID*               5628               08.3749999927E+02-3.518819537E+01+
*       -3.552168299E+01               0
GRID*               5629               08.4999999950E+02-3.521772643E+01+
*       -3.549240901E+01               0
GRID*               5630               08.3750000386E+02-4.266672989E+01+
*       -2.606809500E+01               0
GRID*               5631               08.3750000784E+02-4.766539501E+01+
*       -1.509948770E+01               0
GRID*               5632               08.5000000571E+02-4.767788115E+01+
*       -1.505999407E+01               0
GRID*               5633               08.3750000828E+02-4.989371769E+01+
*       -3.253598977E+00               0
GRID*               5634               08.3750000791E+02-4.922239819E+01+
*       8.7812263468E+00               0
GRID*               5635               08.5000000540E+02-4.921510842E+01+
*       8.8219759939E+00               0
GRID*               5636               08.3750000723E+02-4.569053336E+01+
*       2.0305632765E+01               0
GRID*               5637               08.3750000622E+02-3.950341205E+01+
*       3.0649936404E+01               0
GRID*               5638               08.5000000426E+02-3.947799620E+01+
*       3.0682666174E+01               0
GRID*               5639               08.3750000503E+02-3.102059224E+01+
*       3.9213030356E+01               0
GRID*               5640               08.3750000374E+02-2.073501639E+01+
*       4.5497303605E+01               0
GRID*               5641               08.5000000259E+02-2.069725179E+01+
*       4.5514494296E+01               0
GRID*               5642               08.3750000240E+02-9.244382801E+00+
*       4.9137546560E+01               0
GRID*               5643               08.3750000135E+022.7835708171E+00+
*       4.9922171773E+01               0
GRID*               5644               08.5000000093E+022.8250442378E+00+
*       4.9919838047E+01               0
GRID*               5645               08.3750000075E+021.4649849718E+01+
*       4.7805521531E+01               0
GRID*               5646               08.3750000019E+022.5664810373E+01+
*       4.2910538615E+01               0
GRID*               5647               08.5000000016E+022.5700470756E+01+
*       4.2889186603E+01               0
GRID*               5648               08.3749999927E+023.5188195369E+01+
*       3.5521682985E+01               0
GRID*               5649               08.3750000386E+024.2666729889E+01+
*       2.6068095000E+01               0
GRID*               5650               08.5000000366E+024.2688380879E+01+
*       2.6032630469E+01               0
GRID*               5651               08.3750000784E+024.7665395010E+01+
*       1.5099487699E+01               0
GRID*               5652               08.3750000828E+024.9893717686E+01+
*       3.2535989765E+00               0
GRID*               5653               08.5000000573E+024.9896388890E+01+
*       3.2122928191E+00               0
GRID*               5654               08.3750000791E+024.9222398186E+01+
*       -8.781226347E+00               0
GRID*               5655               08.3750000723E+024.5690533362E+01+
*       -2.030563276E+01               0
GRID*               5656               08.5000000494E+024.5673697937E+01+
*       -2.034347106E+01               0
GRID*               5657               08.3750000622E+023.9503412054E+01+
*       -3.064993640E+01               0
GRID*               5658               08.3750000503E+023.1020592241E+01+
*       -3.921303036E+01               0
GRID*               5659               08.5000000346E+023.0988060804E+01+
*       -3.923874328E+01               0
GRID*               5660               08.3750000374E+022.0735016393E+01+
*       -4.549730361E+01               0
GRID*               5661               08.6250000012E+02-2.573611341E+01+
*       -4.286780476E+01               0
GRID*               5662               08.6249999969E+02-3.524723079E+01+
*       -3.546311209E+01               0
GRID*               5663               08.7499999984E+02-3.527670829E+01+
*       -3.543379234E+01               0
GRID*               5664               08.6250000279E+02-4.270997465E+01+
*       -2.599718391E+01               0
GRID*               5665               08.6250000364E+02-4.769033636E+01+
*       -1.502048506E+01               0
GRID*               5666               08.7500000185E+02-4.770276619E+01+
*       -1.498094730E+01               0
GRID*               5667               08.6250000349E+02-4.989902843E+01+
*       -3.170963208E+00               0
GRID*               5668               08.6250000326E+02-4.920778131E+01+
*       8.8627454014E+00               0
GRID*               5669               08.7500000158E+02-4.920041599E+01+
*       8.9035410038E+00               0
GRID*               5670               08.6250000301E+02-4.565682123E+01+
*       2.0381318990E+01               0
GRID*               5671               08.6250000262E+02-3.945253941E+01+
*       3.0715392700E+01               0
GRID*               5672               08.7500000132E+02-3.942703968E+01+
*       3.0748118570E+01               0
GRID*               5673               08.6250000214E+02-3.095549354E+01+
*       3.9264440271E+01               0
GRID*               5674               08.6250000161E+02-2.065946047E+01+
*       4.5531658756E+01               0
GRID*               5675               08.7500000084E+02-2.062164093E+01+
*       4.5548797612E+01               0
GRID*               5676               08.6250000102E+02-9.162755921E+00+
*       4.9152827121E+01               0
GRID*               5677               08.6250000057E+022.8665204586E+00+
*       4.9917469198E+01               0
GRID*               5678               08.7500000029E+022.9080001975E+00+
*       4.9915065131E+01               0
GRID*               5679               08.6250000039E+021.4729290732E+01+
*       4.7781095578E+01               0
GRID*               5680               08.6250000012E+022.5736113409E+01+
*       4.2867804764E+01               0
GRID*               5681               08.7500000009E+022.5771738441E+01+
*       4.2846393014E+01               0
GRID*               5682               08.6249999969E+023.5247230785E+01+
*       3.5463112091E+01               0
GRID*               5683               08.6250000279E+024.2709974646E+01+
*       2.5997183912E+01               0
GRID*               5684               08.7500000161E+024.2731526023E+01+
*       2.5961735997E+01               0
GRID*               5685               08.6250000364E+024.7690336365E+01+
*       1.5020485057E+01               0
GRID*               5686               08.6250000349E+024.9899028427E+01+
*       3.1709632078E+00               0
GRID*               5687               08.7500000168E+024.9901637530E+01+
*       3.1296007820E+00               0
GRID*               5688               08.6250000326E+024.9207781308E+01+
*       -8.862745401E+00               0
GRID*               5689               08.6250000301E+024.5656821225E+01+
*       -2.038131899E+01               0
GRID*               5690               08.7500000149E+024.5639901474E+01+
*       -2.041918078E+01               0
GRID*               5691               08.6250000262E+023.9452539405E+01+
*       -3.071539270E+01               0
GRID*               5692               08.6250000214E+023.0955493537E+01+
*       -3.926444027E+01               0
GRID*               5693               08.7500000110E+023.0922888595E+01+
*       -3.929012273E+01               0
GRID*               5694               08.6250000161E+022.0659460474E+01+
*       -4.553165876E+01               0
GRID*               5695               01.2499999966E+01-1.200615015E+01+
*       -4.853707585E+01               0
GRID*               5696               02.4999999933E+01-1.204649564E+01+
*       -4.852708176E+01               0
GRID*               5697               01.2499999896E+01-2.327291645E+01+
*       -4.425330533E+01               0
GRID*               5698               03.7499999899E+01-1.208683226E+01+
*       -4.851705408E+01               0
GRID*               5699               04.9999999865E+01-1.212716018E+01+
*       -4.850699279E+01               0
GRID*               5700               06.2499999833E+01-1.216747954E+01+
*       -4.849689787E+01               0
GRID*               5701               07.4999999803E+01-1.220779047E+01+
*       -4.848676931E+01               0
GRID*               5702               08.7499999777E+01-1.224809306E+01+
*       -4.847660709E+01               0
GRID*               5703               09.9999999755E+01-1.228838738E+01+
*       -4.846641121E+01               0
GRID*               5704               01.1249999974E+02-1.232867350E+01+
*       -4.845618166E+01               0
GRID*               5705               01.2499999973E+02-1.236895144E+01+
*       -4.844591842E+01               0
GRID*               5706               01.3749999972E+02-1.240922122E+01+
*       -4.843562151E+01               0
GRID*               5707               01.4999999973E+02-1.244948283E+01+
*       -4.842529091E+01               0
GRID*               5708               01.6249999973E+02-1.248973625E+01+
*       -4.841492664E+01               0
GRID*               5709               01.7499999975E+02-1.252998143E+01+
*       -4.840452871E+01               0
GRID*               5710               01.8749999977E+02-1.257021831E+01+
*       -4.839409711E+01               0
GRID*               5711               01.9999999979E+02-1.261044682E+01+
*       -4.838363186E+01               0
GRID*               5712               02.1249999982E+02-1.265066685E+01+
*       -4.837313297E+01               0
GRID*               5713               02.2499999985E+02-1.269087829E+01+
*       -4.836260045E+01               0
GRID*               5714               02.3749999989E+02-1.273108102E+01+
*       -4.835203433E+01               0
GRID*               5715               02.4999999992E+02-1.277127489E+01+
*       -4.834143462E+01               0
GRID*               5716               02.6249999995E+02-1.281145975E+01+
*       -4.833080135E+01               0
GRID*               5717               02.7499999997E+02-1.285163541E+01+
*       -4.832013453E+01               0
GRID*               5718               02.8749999999E+02-1.289180170E+01+
*       -4.830943419E+01               0
GRID*               5719               03.0000000000E+02-1.293195841E+01+
*       -4.829870035E+01               0
GRID*               5720               03.1250000001E+02-1.297210632E+01+
*       -4.828793272E+01               0
GRID*               5721               03.2500000006E+02-1.301224738E+01+
*       -4.827713062E+01               0
GRID*               5722               03.3750000013E+02-1.305238137E+01+
*       -4.826629415E+01               0
GRID*               5723               03.5000000024E+02-1.309250802E+01+
*       -4.825542343E+01               0
GRID*               5724               03.6250000037E+02-1.313262704E+01+
*       -4.824451858E+01               0
GRID*               5725               03.7500000052E+02-1.317273817E+01+
*       -4.823357969E+01               0
GRID*               5726               03.8750000068E+02-1.321284118E+01+
*       -4.822260688E+01               0
GRID*               5727               04.0000000086E+02-1.325293580E+01+
*       -4.821160024E+01               0
GRID*               5728               04.1250000104E+02-1.329302182E+01+
*       -4.820055986E+01               0
GRID*               5729               04.2500000124E+02-1.333309901E+01+
*       -4.818948585E+01               0
GRID*               5730               04.3750000144E+02-1.337316716E+01+
*       -4.817837829E+01               0
GRID*               5731               04.5000000164E+02-1.341322606E+01+
*       -4.816723727E+01               0
GRID*               5732               04.6250000183E+02-1.345327552E+01+
*       -4.815606285E+01               0
GRID*               5733               04.7500000203E+02-1.349331535E+01+
*       -4.814485513E+01               0
GRID*               5734               04.8750000221E+02-1.353334538E+01+
*       -4.813361418E+01               0
GRID*               5735               05.0000000239E+02-1.357336543E+01+
*       -4.812234006E+01               0
GRID*               5736               05.1250000256E+02-1.361337535E+01+
*       -4.811103285E+01               0
GRID*               5737               05.2500000271E+02-1.365337499E+01+
*       -4.809969259E+01               0
GRID*               5738               05.3750000285E+02-1.369336420E+01+
*       -4.808831936E+01               0
GRID*               5739               05.5000000298E+02-1.373334287E+01+
*       -4.807691320E+01               0
GRID*               5740               05.6250000308E+02-1.377331087E+01+
*       -4.806547416E+01               0
GRID*               5741               05.7500000317E+02-1.381326810E+01+
*       -4.805400229E+01               0
GRID*               5742               05.8750000324E+02-1.385321446E+01+
*       -4.804249763E+01               0
GRID*               5743               06.0000000329E+02-1.389314988E+01+
*       -4.803096020E+01               0
GRID*               5744               06.1250000331E+02-1.393307428E+01+
*       -4.801939003E+01               0
GRID*               5745               06.2500000332E+02-1.397298762E+01+
*       -4.800778716E+01               0
GRID*               5746               06.3750000330E+02-1.401288985E+01+
*       -4.799615159E+01               0
GRID*               5747               06.5000000326E+02-1.405278096E+01+
*       -4.798448333E+01               0
GRID*               5748               06.6250000320E+02-1.409266092E+01+
*       -4.797278239E+01               0
GRID*               5749               06.7500000312E+02-1.413252976E+01+
*       -4.796104877E+01               0
GRID*               5750               06.8750000302E+02-1.417238749E+01+
*       -4.794928245E+01               0
GRID*               5751               07.0000000289E+02-1.421223416E+01+
*       -4.793748341E+01               0
GRID*               5752               07.1250000275E+02-1.425206983E+01+
*       -4.792565164E+01               0
GRID*               5753               07.2500000259E+02-1.429189458E+01+
*       -4.791378709E+01               0
GRID*               5754               07.3750000242E+02-1.433170850E+01+
*       -4.790188973E+01               0
GRID*               5755               07.5000000223E+02-1.437151174E+01+
*       -4.788995950E+01               0
GRID*               5756               07.6250000203E+02-1.441130441E+01+
*       -4.787799635E+01               0
GRID*               5757               07.7500000182E+02-1.445108669E+01+
*       -4.786600021E+01               0
GRID*               5758               07.8750000160E+02-1.449085878E+01+
*       -4.785397100E+01               0
GRID*               5759               08.0000000139E+02-1.453062087E+01+
*       -4.784190863E+01               0
GRID*               5760               08.1250000117E+02-1.457037321E+01+
*       -4.782981300E+01               0
GRID*               5761               08.2500000096E+02-1.461011606E+01+
*       -4.781768401E+01               0
GRID*               5762               08.3750000076E+02-1.464984972E+01+
*       -4.780552153E+01               0
GRID*               5763               08.5000000056E+02-1.468957449E+01+
*       -4.779332544E+01               0
GRID*               5764               08.6250000039E+02-1.472929073E+01+
*       -4.778109558E+01               0
GRID*               5765               08.7500000023E+02-1.476899882E+01+
*       -4.776883180E+01               0
GRID*               5766               08.8750000010E+02-1.480869915E+01+
*       -4.775653394E+01               0
GRID*               5767               08.8750000005E+02-2.580734598E+01+
*       -4.282495125E+01               0
GRID*               5768               08.8749999994E+02-3.530615883E+01+
*       -3.540444986E+01               0
GRID*               5769               08.8750000052E+02-4.275305233E+01+
*       -2.592626415E+01               0
GRID*               5770               08.8750000055E+02-4.771517667E+01+
*       -1.494136621E+01               0
GRID*               5771               08.8750000047E+02-4.990421751E+01+
*       -3.088195556E+00               0
GRID*               5772               08.8750000045E+02-4.919301157E+01+
*       8.9443695939E+00               0
GRID*               5773               08.8750000047E+02-4.562293684E+01+
*       2.0457060883E+01               0
GRID*               5774               08.8750000044E+02-3.940149495E+01+
*       3.0780846496E+01               0
GRID*               5775               08.8750000038E+02-3.089024405E+01+
*       3.9315792158E+01               0
GRID*               5776               08.8750000029E+02-2.058379158E+01+
*       4.5565911521E+01               0
GRID*               5777               08.8750000018E+02-9.081064121E+00+
*       4.9167977211E+01               0
GRID*               5778               08.8750000010E+022.9494842175E+00+
*       4.9912625747E+01               0
GRID*               5779               08.8750000010E+021.4808699150E+01+
*       4.7756533944E+01               0
GRID*               5780               08.8750000005E+022.5807345982E+01+
*       4.2824951253E+01               0
GRID*               5781               08.8749999994E+023.5306158827E+01+
*       3.5404449860E+01               0
GRID*               5782               08.8750000052E+024.2753052335E+01+
*       2.5926264146E+01               0
GRID*               5783               08.8750000055E+024.7715176669E+01+
*       1.4941366214E+01               0
GRID*               5784               08.8750000047E+024.9904217514E+01+
*       3.0881955561E+00               0
GRID*               5785               08.8750000045E+024.9193011572E+01+
*       -8.944369594E+00               0
GRID*               5786               08.8750000047E+024.5622936844E+01+
*       -2.045706088E+01               0
GRID*               5787               08.8750000044E+023.9401494949E+01+
*       -3.078084650E+01               0
GRID*               5788               08.8750000038E+023.0890244047E+01+
*       -3.931579216E+01               0
GRID*               5789               08.8750000029E+022.0583791577E+01+
*       -4.556591152E+01               0
GRID*               5790               08.8750000018E+029.0810641209E+00+
*       -4.916797721E+01               0
GRID*               5791               08.7500000052E+029.1219187139E+00+
*       -4.916041840E+01               0
GRID*               5792               08.6250000102E+029.1627559205E+00+
*       -4.915282712E+01               0
GRID*               5793               08.5000000165E+029.2035769126E+00+
*       -4.914520322E+01               0
GRID*               5794               08.3750000240E+029.2443828006E+00+
*       -4.913754656E+01               0
GRID*               5795               08.2500000325E+029.2851746358E+00+
*       -4.912985699E+01               0
GRID*               5796               08.1250000420E+029.3259534121E+00+
*       -4.912213439E+01               0
GRID*               5797               08.0000000523E+029.3667200678E+00+
*       -4.911437863E+01               0
GRID*               5798               07.8750000631E+029.4074754877E+00+
*       -4.910658959E+01               0
GRID*               5799               07.7500000746E+029.4482205046E+00+
*       -4.909876717E+01               0
GRID*               5800               07.6250000864E+029.4889559013E+00+
*       -4.909091127E+01               0
GRID*               5801               07.5000000986E+029.5296824121E+00+
*       -4.908302177E+01               0
GRID*               5802               07.3750001109E+029.5704007246E+00+
*       -4.907509861E+01               0
GRID*               5803               07.2500001234E+029.6111114810E+00+
*       -4.906714168E+01               0
GRID*               5804               07.1250001359E+029.6518152801E+00+
*       -4.905915091E+01               0
GRID*               5805               07.0000001483E+029.6925126788E+00+
*       -4.905112624E+01               0
GRID*               5806               06.8750001606E+029.7332041930E+00+
*       -4.904306758E+01               0
GRID*               5807               06.7500001727E+029.7738902998E+00+
*       -4.903497488E+01               0
GRID*               5808               06.6250001845E+029.8145714386E+00+
*       -4.902684808E+01               0
GRID*               5809               06.5000001960E+029.8552480126E+00+
*       -4.901868713E+01               0
GRID*               5810               06.3750002071E+029.8959203899E+00+
*       -4.901049198E+01               0
GRID*               5811               06.2500002177E+029.9365889052E+00+
*       -4.900226258E+01               0
GRID*               5812               06.1250002279E+029.9772538610E+00+
*       -4.899399889E+01               0
GRID*               5813               06.0000002375E+021.0017915529E+01+
*       -4.898570088E+01               0
GRID*               5814               05.8750002466E+021.0058574150E+01+
*       -4.897736852E+01               0
GRID*               5815               05.7500002550E+021.0099229939E+01+
*       -4.896900178E+01               0
GRID*               5816               05.6250002628E+021.0139883080E+01+
*       -4.896060064E+01               0
GRID*               5817               05.5000002700E+021.0180533735E+01+
*       -4.895216506E+01               0
GRID*               5818               05.3750002765E+021.0221182039E+01+
*       -4.894369504E+01               0
GRID*               5819               05.2500002822E+021.0261828103E+01+
*       -4.893519057E+01               0
GRID*               5820               05.1250002873E+021.0302472016E+01+
*       -4.892665162E+01               0
GRID*               5821               05.0000002916E+021.0343113847E+01+
*       -4.891807819E+01               0
GRID*               5822               04.8750002951E+021.0383753643E+01+
*       -4.890947027E+01               0
GRID*               5823               04.7500002979E+021.0424391432E+01+
*       -4.890082787E+01               0
GRID*               5824               04.6250003000E+021.0465027227E+01+
*       -4.889215097E+01               0
GRID*               5825               04.5000003012E+021.0505661021E+01+
*       -4.888343958E+01               0
GRID*               5826               04.3750003017E+021.0546292792E+01+
*       -4.887469370E+01               0
GRID*               5827               04.2500003015E+021.0586922507E+01+
*       -4.886591335E+01               0
GRID*               5828               04.1250003005E+021.0627550117E+01+
*       -4.885709851E+01               0
GRID*               5829               04.0000002987E+021.0668175562E+01+
*       -4.884824920E+01               0
GRID*               5830               03.8750002962E+021.0708798774E+01+
*       -4.883936544E+01               0
GRID*               5831               03.7500002929E+021.0749419674E+01+
*       -4.883044722E+01               0
GRID*               5832               03.6250002889E+021.0790038177E+01+
*       -4.882149457E+01               0
GRID*               5833               03.5000002842E+021.0830654194E+01+
*       -4.881250748E+01               0
GRID*               5834               03.3750002787E+021.0871267633E+01+
*       -4.880348599E+01               0
GRID*               5835               03.2500002726E+021.0911878401E+01+
*       -4.879443009E+01               0
GRID*               5836               03.1250002657E+021.0952486406E+01+
*       -4.878533980E+01               0
GRID*               5837               03.0000002582E+021.0993091566E+01+
*       -4.877621513E+01               0
GRID*               5838               02.8750002499E+021.1033693803E+01+
*       -4.876705609E+01               0
GRID*               5839               02.7500002410E+021.1074293058E+01+
*       -4.875786269E+01               0
GRID*               5840               02.6250002314E+021.1114889290E+01+
*       -4.874863494E+01               0
GRID*               5841               02.5000002212E+021.1155482487E+01+
*       -4.873937282E+01               0
GRID*               5842               02.3750002102E+021.1196072672E+01+
*       -4.873007636E+01               0
GRID*               5843               02.2500001985E+021.1236659922E+01+
*       -4.872074552E+01               0
GRID*               5844               02.1250001862E+021.1277244378E+01+
*       -4.871138030E+01               0
GRID*               5845               02.0000001730E+021.1317826275E+01+
*       -4.870198066E+01               0
GRID*               5846               01.8750001590E+021.1358405967E+01+
*       -4.869254655E+01               0
GRID*               5847               01.7500001441E+021.1398983978E+01+
*       -4.868307791E+01               0
GRID*               5848               01.6250001282E+021.1439561066E+01+
*       -4.867357464E+01               0
GRID*               5849               01.5000001111E+021.1480138325E+01+
*       -4.866403660E+01               0
GRID*               5850               01.3750000926E+021.1520717333E+01+
*       -4.865446357E+01               0
GRID*               5851               01.2500000723E+021.1561300404E+01+
*       -4.864485525E+01               0
GRID*               5852               01.1250000498E+021.1601890988E+01+
*       -4.863521118E+01               0
GRID*               5853               01.0000000241E+021.1642494392E+01+
*       -4.862553068E+01               0
GRID*               5854               08.7499999456E+011.1683116745E+01+
*       -4.861581292E+01               0
GRID*               5855               07.4999997283E+011.1723677147E+01+
*       -4.860606857E+01               0
GRID*               5856               06.2499996380E+011.1764142611E+01+
*       -4.859630196E+01               0
GRID*               5857               04.9999996481E+011.1804531259E+01+
*       -4.858651071E+01               0
GRID*               5858               03.7499997282E+011.1844864130E+01+
*       -4.857669205E+01               0
GRID*               5859               02.4999998427E+011.1885165770E+01+
*       -4.856684275E+01               0
GRID*               5860               01.2499999450E+012.3199332680E+01+
*       -4.429191583E+01               0
GRID*               5861               01.2499999497E+011.1925464955E+01+
*       -4.855695901E+01               0
GRID*               5862               01.2499999477E+014.1125232320E+01+
*       -2.843711832E+01               0
GRID*               5863               01.2499999443E+013.3124858006E+01+
*       -3.745279771E+01               0
GRID*               5864               01.2499999666E+014.9629808375E+01+
*       -6.067992991E+00               0
GRID*               5865               01.2499999534E+014.6735551225E+01+
*       -1.776885491E+01               0
GRID*               5866               01.2499999705E+014.6765025364E+01+
*       1.7691154648E+01               0
GRID*               5867               01.2499999724E+014.9639827446E+01+
*       5.9854958263E+00               0
GRID*               5868               01.2499999815E+013.3187065531E+01+
*       3.7397699529E+01               0
GRID*               5869               01.2499999754E+014.1172446443E+01+
*       2.8368732079E+01               0
GRID*               5870               01.2499999966E+011.2006150151E+01+
*       4.8537075849E+01               0
GRID*               5871               01.2499999896E+012.3272916445E+01+
*       4.4253305326E+01               0
GRID*               5872               01.2499999497E+01-1.192546495E+01+
*       4.8556959011E+01               0
GRID*               5873               01.2500000025E+014.1567688148E-02+
*       4.9999982397E+01               0
GRID*               5874               01.2499999443E+01-3.312485801E+01+
*       3.7452797714E+01               0
GRID*               5875               01.2499999450E+01-2.319933268E+01+
*       4.4291915825E+01               0
GRID*               5876               01.2499999534E+01-4.673555122E+01+
*       1.7768854908E+01               0
GRID*               5877               01.2499999477E+01-4.112523232E+01+
*       2.8437118323E+01               0
GRID*               5878               01.2499999724E+01-4.963982745E+01+
*       -5.985495826E+00               0
GRID*               5879               01.2499999666E+01-4.962980837E+01+
*       6.0679929915E+00               0
GRID*               5880               01.2499999754E+01-4.117244644E+01+
*       -2.836873208E+01               0
GRID*               5881               01.2499999705E+01-4.676502536E+01+
*       -1.769115465E+01               0
GRID*               5882               01.2499999815E+01-3.318706553E+01+
*       -3.739769953E+01               0
GRID*               5883               09.0000000000E+024.5392712938E+01+
*       1.0544048788E+01               0
GRID*               5884               09.0000000000E+024.6121718485E+01+
*       -1.399435459E+00               0
GRID*               5885               09.0000000000E+021.0272949087E+01+
*       -4.454150857E+01               0
GRID*               5886               09.0000000000E+022.2039661782E+01+
*       -4.108377373E+01               0
GRID*               5887               09.0000000000E+02-1.479379296E+00+
*       -4.655523682E+01               0
GRID*               5888               09.0000000000E+024.4379843645E+01+
*       -1.352228178E+01               0
GRID*               5889               09.0000000000E+023.9475011348E+01+
*       -2.443646547E+01               0
GRID*               5890               09.0000000000E+023.1454670146E+01+
*       -3.369905570E+01               0
GRID*               5891               09.0000000000E+021.6139375270E+00+
*       4.5454868982E+01               0
GRID*               5892               09.0000000000E+021.3558230865E+01+
*       4.4739208845E+01               0
GRID*               5893               09.0000000000E+02-1.065410341E+01+
*       4.5454868982E+01               0
GRID*               5894               09.0000000000E+024.0307099125E+01+
*       2.1687446803E+01               0
GRID*               5895               09.0000000000E+023.4111105818E+01+
*       3.1924112016E+01               0
GRID*               5896               09.0000000000E+022.3801811360E+01+
*       3.8554653545E+01               0
GRID*               5897               09.0000000000E+02-1.324609199E+01+
*       -4.309750198E+01               0
GRID*               5898               09.0000000000E+02-2.468818914E+01+
*       -3.969400027E+01               0
GRID*               5899               09.0000000000E+02-3.315399490E+01+
*       -3.123764481E+01               0
GRID*               5900               09.0000000000E+02-4.117433610E+01+
*       -2.197505457E+01               0
GRID*               5901               09.0000000000E+02-2.156280001E+01+
*       4.0537842125E+01               0
GRID*               5902               09.0000000000E+02-3.187209446E+01+
*       3.3907300593E+01               0
GRID*               5903               09.0000000000E+02-3.924628552E+01+
*       2.4484045375E+01               0
GRID*               5904               09.0000000000E+02-4.474044053E+01+
*       -1.055305901E+01               0
GRID*               5905               09.0000000000E+02-4.648231537E+01+
*       1.5697873145E+00               0
GRID*               5906               09.0000000000E+02-4.433189933E+01+
*       1.3340647361E+01               0
GRID*               5907               00.0000000000E+002.3533425383E+01+
*       -3.658453032E+01               0
GRID*               5908               00.0000000000E+003.9574107789E+01+
*       -1.805934986E+01               0
GRID*               5909               00.0000000000E+004.3057857473E+01+
*       6.1863427869E+00               0
GRID*               5910               00.0000000000E+003.2886629850E+01+
*       2.8473138818E+01               0
GRID*               5911               00.0000000000E+001.2268040928E+01+
*       4.1734221857E+01               0
GRID*               5912               00.0000000000E+00-1.226804093E+01+
*       4.1734221857E+01               0
GRID*               5913               00.0000000000E+00-3.288662985E+01+
*       2.8473138818E+01               0
GRID*               5914               00.0000000000E+00-4.305785747E+01+
*       6.1863427869E+00               0
GRID*               5915               00.0000000000E+00-3.957410779E+01+
*       -1.805934986E+01               0
GRID*               5916               00.0000000000E+00-2.353342538E+01+
*       -3.658453032E+01               0
GRID*               5917               00.0000000000E+00-1.226804093E+01+
*       -4.173422186E+01               0
GRID*               5918               00.0000000000E+00-4.305785747E+01+
*       -6.186342787E+00               0
GRID*               5919               00.0000000000E+00-3.288662985E+01+
*       -2.847313882E+01               0
GRID*               5920               00.0000000000E+004.2188474936E-14+
*       4.3058555464E+01               0
GRID*               5921               00.0000000000E+00-3.957410779E+01+
*       1.8059349857E+01               0
GRID*               5922               00.0000000000E+00-2.353342538E+01+
*       3.6584530318E+01               0
GRID*               5923               00.0000000000E+001.2268040928E+01+
*       -4.173422186E+01               0
GRID*               5924               00.0000000000E+003.2886629850E+01+
*       -2.847313882E+01               0
GRID*               5925               00.0000000000E+002.3533425383E+01+
*       3.6584530318E+01               0
GRID*               5926               00.0000000000E+004.3057857473E+01+
*       -6.186342787E+00               0
GRID*               5927               00.0000000000E+003.9173641757E+01+
*       1.7876947593E+01               0
GRID*               5928               00.0000000000E+002.3236093790E+01+
*       -4.427264791E+01               0
GRID*               5929               00.0000000000E+004.1148838905E+01+
*       -2.840296888E+01               0
GRID*               5930               00.0000000000E+004.9634844347E+01+
*       -6.026755902E+00               0
GRID*               5931               00.0000000000E+004.6750304657E+01+
*       1.7730036395E+01               0
GRID*               5932               00.0000000000E+003.3155943235E+01+
*       3.7425294005E+01               0
GRID*               5933               00.0000000000E+001.1965776904E+01+
*       4.8547041864E+01               0
GRID*               5934               00.0000000000E+00-1.196577690E+01+
*       4.8547041864E+01               0
GRID*               5935               00.0000000000E+00-3.315594323E+01+
*       3.7425294005E+01               0
GRID*               5936               00.0000000000E+00-4.675030466E+01+
*       1.7730036395E+01               0
GRID*               5937               00.0000000000E+00-4.963484435E+01+
*       -6.026755902E+00               0
GRID*               5938               00.0000000000E+00-4.114883890E+01+
*       -2.840296888E+01               0
GRID*               5939               00.0000000000E+00-2.323609379E+01+
*       -4.427264791E+01               0
GRID*               5940               00.0000000000E+00-4.963484435E+01+
*       6.0267559024E+00               0
GRID*               5941               00.0000000000E+00-1.196577690E+01+
*       -4.854704186E+01               0
GRID*               5942               00.0000000000E+00-4.675030466E+01+
*       -1.773003640E+01               0
GRID*               5943               00.0000000000E+00-3.315594323E+01+
*       -3.742529400E+01               0
GRID*               5944               00.0000000000E+006.1232337865E-15+
*       5.0000000000E+01               0
GRID*               5945               00.0000000000E+00-4.114883890E+01+
*       2.8402968885E+01               0
GRID*               5946               00.0000000000E+00-2.323609379E+01+
*       4.4272647913E+01               0
GRID*               5947               00.0000000000E+001.1965776904E+01+
*       -4.854704186E+01               0
GRID*               5948               00.0000000000E+003.3155943235E+01+
*       -3.742529400E+01               0
GRID*               5949               00.0000000000E+004.6750304657E+01+
*       -1.773003640E+01               0
GRID*               5950               00.0000000000E+002.3236093790E+01+
*       4.4272647913E+01               0
GRID*               5951               00.0000000000E+004.9634844347E+01+
*       6.0267559024E+00               0
GRID*               5952               00.0000000000E+004.1148838905E+01+
*       2.8402968885E+01               0
GRID*               5953               09.0000000000E+022.3533425383E+01+
*       -3.658453032E+01               0
GRID*               5954               09.0000000000E+023.9574107789E+01+
*       -1.805934986E+01               0
GRID*               5955               09.0000000000E+024.3057857473E+01+
*       6.1863427869E+00               0
GRID*               5956               09.0000000000E+023.2886629850E+01+
*       2.8473138818E+01               0
GRID*               5957               09.0000000000E+021.2268040928E+01+
*       4.1734221857E+01               0
GRID*               5958               09.0000000000E+02-1.226804093E+01+
*       4.1734221857E+01               0
GRID*               5959               09.0000000000E+02-3.288662985E+01+
*       2.8473138818E+01               0
GRID*               5960               09.0000000000E+02-4.305785747E+01+
*       6.1863427869E+00               0
GRID*               5961               09.0000000000E+02-3.957410779E+01+
*       -1.805934986E+01               0
GRID*               5962               09.0000000000E+02-2.353342538E+01+
*       -3.658453032E+01               0
GRID*               5963               09.0000000000E+02-1.214270887E+01+
*       -4.131123268E+01               0
GRID*               5964               09.0000000000E+021.2142708869E+01+
*       -4.131123268E+01               0
GRID*               5965               09.0000000000E+023.2886629850E+01+
*       -2.847313882E+01               0
GRID*               5966               09.0000000000E+024.3057857473E+01+
*       -6.186342787E+00               0
GRID*               5967               09.0000000000E+023.9574107789E+01+
*       1.8059349857E+01               0
GRID*               5968               09.0000000000E+022.3115136010E+01+
*       3.5936658451E+01               0
GRID*               5969               09.0000000000E+023.7303493627E-14+
*       4.3500000000E+01               0
GRID*               5970               09.0000000000E+02-2.353342538E+01+
*       3.6584530318E+01               0
GRID*               5971               09.0000000000E+02-3.957410779E+01+
*       1.8059349857E+01               0
GRID*               5972               09.0000000000E+02-4.305785747E+01+
*       -6.186342787E+00               0
GRID*               5973               09.0000000000E+02-3.288662985E+01+
*       -2.847313882E+01               0
GRID*               5974               02.5000000000E+01-8.218773868E-02+
*       -4.998917982E+01               0
GRID*               5975               05.0000000000E+01-1.643754774E-01+
*       -4.997835965E+01               0
GRID*               5976               07.5000000000E+01-2.465632161E-01+
*       -4.996753947E+01               0
GRID*               5977               01.0000000000E+02-3.287509547E-01+
*       -4.995671929E+01               0
GRID*               5978               01.2500000000E+02-4.109386934E-01+
*       -4.994589912E+01               0
GRID*               5979               01.5000000000E+02-4.931264321E-01+
*       -4.993507894E+01               0
GRID*               5980               01.7500000000E+02-5.753141708E-01+
*       -4.992425876E+01               0
GRID*               5981               02.0000000000E+02-6.575019095E-01+
*       -4.991343859E+01               0
GRID*               5982               02.2500000000E+02-7.396896482E-01+
*       -4.990261841E+01               0
GRID*               5983               02.5000000000E+02-8.218773868E-01+
*       -4.989179823E+01               0
GRID*               5984               02.7500000000E+02-9.040651255E-01+
*       -4.988097805E+01               0
GRID*               5985               03.0000000000E+02-9.862528642E-01+
*       -4.987015788E+01               0
GRID*               5986               03.2500000000E+02-1.068440603E+00+
*       -4.985933770E+01               0
GRID*               5987               03.5000000000E+02-1.150628342E+00+
*       -4.984851752E+01               0
GRID*               5988               03.7500000000E+02-1.232816080E+00+
*       -4.983769735E+01               0
GRID*               5989               04.0000000000E+02-1.315003819E+00+
*       -4.982687717E+01               0
GRID*               5990               04.2500000000E+02-1.397191558E+00+
*       -4.981605699E+01               0
GRID*               5991               04.5000000000E+02-1.479379296E+00+
*       -4.980523682E+01               0
GRID*               5992               04.7500000000E+02-1.561567035E+00+
*       -4.979441664E+01               0
GRID*               5993               05.0000000000E+02-1.643754774E+00+
*       -4.978359646E+01               0
GRID*               5994               05.2500000000E+02-1.725942512E+00+
*       -4.977277629E+01               0
GRID*               5995               05.5000000000E+02-1.808130251E+00+
*       -4.976195611E+01               0
GRID*               5996               05.7500000000E+02-1.890317990E+00+
*       -4.975113593E+01               0
GRID*               5997               06.0000000000E+02-1.972505728E+00+
*       -4.974031576E+01               0
GRID*               5998               06.2500000000E+02-2.054693467E+00+
*       -4.972949558E+01               0
GRID*               5999               06.5000000000E+02-2.136881206E+00+
*       -4.971867540E+01               0
GRID*               6000               06.7500000000E+02-2.219068944E+00+
*       -4.970785522E+01               0
GRID*               6001               07.0000000000E+02-2.301256683E+00+
*       -4.969703505E+01               0
GRID*               6002               07.2500000000E+02-2.383444422E+00+
*       -4.968621487E+01               0
GRID*               6003               07.5000000000E+02-2.465632161E+00+
*       -4.967539469E+01               0
GRID*               6004               07.7500000000E+02-2.547819899E+00+
*       -4.966457452E+01               0
GRID*               6005               08.0000000000E+02-2.630007638E+00+
*       -4.965375434E+01               0
GRID*               6006               08.2500000000E+02-2.712195377E+00+
*       -4.964293416E+01               0
GRID*               6007               08.5000000000E+02-2.794383115E+00+
*       -4.963211399E+01               0
GRID*               6008               08.7500000000E+02-2.876570854E+00+
*       -4.962129381E+01               0
GRID*               6009               01.2500000000E+01-4.109386934E-02+
*       -4.999458991E+01               0
GRID*               6010               03.7500000000E+01-1.232816080E-01+
*       -4.998376973E+01               0
GRID*               6011               06.2500000000E+01-2.054693467E-01+
*       -4.997294956E+01               0
GRID*               6012               08.7500000000E+01-2.876570854E-01+
*       -4.996212938E+01               0
GRID*               6013               01.1250000000E+02-3.698448241E-01+
*       -4.995130920E+01               0
GRID*               6014               01.3750000000E+02-4.520325628E-01+
*       -4.994048903E+01               0
GRID*               6015               01.6250000000E+02-5.342203014E-01+
*       -4.992966885E+01               0
GRID*               6016               01.8750000000E+02-6.164080401E-01+
*       -4.991884867E+01               0
GRID*               6017               02.1250000000E+02-6.985957788E-01+
*       -4.990802850E+01               0
GRID*               6018               02.3750000000E+02-7.807835175E-01+
*       -4.989720832E+01               0
GRID*               6019               02.6250000000E+02-8.629712562E-01+
*       -4.988638814E+01               0
GRID*               6020               02.8750000000E+02-9.451589949E-01+
*       -4.987556797E+01               0
GRID*               6021               03.1250000000E+02-1.027346734E+00+
*       -4.986474779E+01               0
GRID*               6022               03.3750000000E+02-1.109534472E+00+
*       -4.985392761E+01               0
GRID*               6023               03.6250000000E+02-1.191722211E+00+
*       -4.984310744E+01               0
GRID*               6024               03.8750000000E+02-1.273909950E+00+
*       -4.983228726E+01               0
GRID*               6025               04.1250000000E+02-1.356097688E+00+
*       -4.982146708E+01               0
GRID*               6026               04.3750000000E+02-1.438285427E+00+
*       -4.981064690E+01               0
GRID*               6027               04.6250000000E+02-1.520473166E+00+
*       -4.979982673E+01               0
GRID*               6028               04.8750000000E+02-1.602660904E+00+
*       -4.978900655E+01               0
GRID*               6029               05.1250000000E+02-1.684848643E+00+
*       -4.977818637E+01               0
GRID*               6030               05.3750000000E+02-1.767036382E+00+
*       -4.976736620E+01               0
GRID*               6031               05.6250000000E+02-1.849224120E+00+
*       -4.975654602E+01               0
GRID*               6032               05.8750000000E+02-1.931411859E+00+
*       -4.974572584E+01               0
GRID*               6033               06.1250000000E+02-2.013599598E+00+
*       -4.973490567E+01               0
GRID*               6034               06.3750000000E+02-2.095787336E+00+
*       -4.972408549E+01               0
GRID*               6035               06.6250000000E+02-2.177975075E+00+
*       -4.971326531E+01               0
GRID*               6036               06.8750000000E+02-2.260162814E+00+
*       -4.970244514E+01               0
GRID*               6037               07.1250000000E+02-2.342350552E+00+
*       -4.969162496E+01               0
GRID*               6038               07.3750000000E+02-2.424538291E+00+
*       -4.968080478E+01               0
GRID*               6039               07.6250000000E+02-2.506726030E+00+
*       -4.966998461E+01               0
GRID*               6040               07.8750000000E+02-2.588913769E+00+
*       -4.965916443E+01               0
GRID*               6041               08.1250000000E+02-2.671101507E+00+
*       -4.964834425E+01               0
GRID*               6042               08.3750000000E+02-2.753289246E+00+
*       -4.963752407E+01               0
GRID*               6043               08.6250000000E+02-2.835476985E+00+
*       -4.962670390E+01               0
GRID*               6044               08.8750000000E+02-2.917664723E+00+
*       -4.961588372E+01               0
GRID*               6045               02.5000000000E+010.0000000000E+00+
*       -4.350000000E+01               0
GRID*               6046               05.0000000000E+010.0000000000E+00+
*       -4.350000000E+01               0
GRID*               6047               07.5000000000E+010.0000000000E+00+
*       -4.350000000E+01               0
GRID*               6048               01.0000000000E+020.0000000000E+00+
*       -4.350000000E+01               0
GRID*               6049               01.2500000000E+020.0000000000E+00+
*       -4.350000000E+01               0
GRID*               6050               01.5000000000E+020.0000000000E+00+
*       -4.350000000E+01               0
GRID*               6051               01.7500000000E+021.0358470497E-15+
*       -4.350000000E+01               0
GRID*               6052               02.0000000000E+021.1838251997E-15+
*       -4.350000000E+01               0
GRID*               6053               02.2500000000E+021.3318033496E-15+
*       -4.350000000E+01               0
GRID*               6054               02.5000000000E+021.4797814996E-15+
*       -4.350000000E+01               0
GRID*               6055               02.7500000000E+021.6277596495E-15+
*       -4.350000000E+01               0
GRID*               6056               03.0000000000E+021.7757377995E-15+
*       -4.350000000E+01               0
GRID*               6057               03.2500000000E+021.9237159494E-15+
*       -4.350000000E+01               0
GRID*               6058               03.5000000000E+022.0716940994E-15+
*       -4.350000000E+01               0
GRID*               6059               03.7500000000E+022.2196722494E-15+
*       -4.350000000E+01               0
GRID*               6060               04.0000000000E+022.3676503993E-15+
*       -4.350000000E+01               0
GRID*               6061               04.2500000000E+022.5156285493E-15+
*       -4.350000000E+01               0
GRID*               6062               04.5000000000E+022.6636066992E-15+
*       -4.350000000E+01               0
GRID*               6063               04.7500000000E+022.8115848492E-15+
*       -4.350000000E+01               0
GRID*               6064               05.0000000000E+022.9595629991E-15+
*       -4.350000000E+01               0
GRID*               6065               05.2500000000E+023.1075411491E-15+
*       -4.350000000E+01               0
GRID*               6066               05.5000000000E+023.2555192991E-15+
*       -4.350000000E+01               0
GRID*               6067               05.7500000000E+023.4034974490E-15+
*       -4.350000000E+01               0
GRID*               6068               06.0000000000E+023.5514755990E-15+
*       -4.350000000E+01               0
GRID*               6069               06.2500000000E+023.6994537489E-15+
*       -4.350000000E+01               0
GRID*               6070               06.5000000000E+023.8474318989E-15+
*       -4.350000000E+01               0
GRID*               6071               06.7500000000E+023.9954100488E-15+
*       -4.350000000E+01               0
GRID*               6072               07.0000000000E+024.1433881988E-15+
*       -4.350000000E+01               0
GRID*               6073               07.2500000000E+024.2913663488E-15+
*       -4.350000000E+01               0
GRID*               6074               07.5000000000E+024.4393444987E-15+
*       -4.350000000E+01               0
GRID*               6075               07.7500000000E+024.5873226487E-15+
*       -4.350000000E+01               0
GRID*               6076               08.0000000000E+024.7353007986E-15+
*       -4.350000000E+01               0
GRID*               6077               08.2500000000E+024.8832789486E-15+
*       -4.350000000E+01               0
GRID*               6078               08.5000000000E+025.0312570985E-15+
*       -4.350000000E+01               0
GRID*               6079               08.7500000000E+025.1792352485E-15+
*       -4.350000000E+01               0
GRID*               6080               08.8750000000E+025.2532243235E-15+
*       -4.350000000E+01               0
GRID*               6081               08.6250000000E+025.1052461735E-15+
*       -4.350000000E+01               0
GRID*               6082               08.3750000000E+024.9572680236E-15+
*       -4.350000000E+01               0
GRID*               6083               08.1250000000E+024.8092898736E-15+
*       -4.350000000E+01               0
GRID*               6084               07.8750000000E+024.6613117237E-15+
*       -4.350000000E+01               0
GRID*               6085               07.6250000000E+024.5133335737E-15+
*       -4.350000000E+01               0
GRID*               6086               07.3750000000E+024.3653554237E-15+
*       -4.350000000E+01               0
GRID*               6087               07.1250000000E+024.2173772738E-15+
*       -4.350000000E+01               0
GRID*               6088               06.8750000000E+024.0693991238E-15+
*       -4.350000000E+01               0
GRID*               6089               06.6250000000E+023.9214209739E-15+
*       -4.350000000E+01               0
GRID*               6090               06.3750000000E+023.7734428239E-15+
*       -4.350000000E+01               0
GRID*               6091               06.1250000000E+023.6254646740E-15+
*       -4.350000000E+01               0
GRID*               6092               05.8750000000E+023.4774865240E-15+
*       -4.350000000E+01               0
GRID*               6093               05.6250000000E+023.3295083740E-15+
*       -4.350000000E+01               0
GRID*               6094               05.3750000000E+023.1815302241E-15+
*       -4.350000000E+01               0
GRID*               6095               05.1250000000E+023.0335520741E-15+
*       -4.350000000E+01               0
GRID*               6096               04.8750000000E+022.8855739242E-15+
*       -4.350000000E+01               0
GRID*               6097               04.6250000000E+022.7375957742E-15+
*       -4.350000000E+01               0
GRID*               6098               04.3750000000E+022.5896176243E-15+
*       -4.350000000E+01               0
GRID*               6099               04.1250000000E+022.4416394743E-15+
*       -4.350000000E+01               0
GRID*               6100               03.8750000000E+022.2936613243E-15+
*       -4.350000000E+01               0
GRID*               6101               03.6250000000E+022.1456831744E-15+
*       -4.350000000E+01               0
GRID*               6102               03.3750000000E+021.9977050244E-15+
*       -4.350000000E+01               0
GRID*               6103               03.1250000000E+021.8497268745E-15+
*       -4.350000000E+01               0
GRID*               6104               02.8750000000E+021.7017487245E-15+
*       -4.350000000E+01               0
GRID*               6105               02.6250000000E+021.5537705746E-15+
*       -4.350000000E+01               0
GRID*               6106               02.3750000000E+021.4057924246E-15+
*       -4.350000000E+01               0
GRID*               6107               02.1250000000E+021.2578142746E-15+
*       -4.350000000E+01               0
GRID*               6108               01.8750000000E+021.1098361247E-15+
*       -4.350000000E+01               0
GRID*               6109               01.6250000000E+020.0000000000E+00+
*       -4.350000000E+01               0
GRID*               6110               01.3750000000E+020.0000000000E+00+
*       -4.350000000E+01               0
GRID*               6111               01.1250000000E+020.0000000000E+00+
*       -4.350000000E+01               0
GRID*               6112               08.7500000000E+010.0000000000E+00+
*       -4.350000000E+01               0
GRID*               6113               06.2500000000E+010.0000000000E+00+
*       -4.350000000E+01               0
GRID*               6114               03.7500000000E+010.0000000000E+00+
*       -4.350000000E+01               0
GRID*               6115               01.2500000000E+010.0000000000E+00+
*       -4.350000000E+01               0
GRID*               6116               09.0000000000E+022.0545898179E+01+
*       -4.558301716E+01               0
GRID*               6117               09.0000000000E+023.9375914903E+01+
*       -3.081358108E+01               0
GRID*               6118               09.0000000000E+024.9185579458E+01+
*       -8.985213695E+00               0
GRID*               6119               09.0000000000E+024.7727568431E+01+
*       1.4901754798E+01               0
GRID*               6120               09.0000000000E+023.5335581788E+01+
*       3.5375085216E+01               0
GRID*               6121               09.0000000000E+021.4848420803E+01+
*       4.7744195837E+01               0
GRID*               6122               09.0000000000E+02-9.040165871E+00+
*       4.9175516045E+01               0
GRID*               6123               09.0000000000E+02-3.085755908E+01+
*       3.9341462372E+01               0
GRID*               6124               09.0000000000E+02-4.560594121E+01+
*       2.0494951940E+01               0
GRID*               6125               09.0000000000E+02-4.990677326E+01+
*       -3.046768154E+00               0
GRID*               6126               09.0000000000E+02-4.277456441E+01+
*       -2.589075929E+01               0
GRID*               6127               09.0000000000E+02-2.584295290E+01+
*       -4.280347022E+01               0
GRID*               6128               09.0000000000E+02-1.484842080E+01+
*       -4.774419584E+01               0
GRID*               6129               09.0000000000E+02-3.533558179E+01+
*       -3.537508522E+01               0
GRID*               6130               09.0000000000E+02-4.772756843E+01+
*       -1.490175480E+01               0
GRID*               6131               09.0000000000E+02-4.918557946E+01+
*       8.9852136950E+00               0
GRID*               6132               09.0000000000E+02-3.937591490E+01+
*       3.0813581082E+01               0
GRID*               6133               09.0000000000E+02-2.054589818E+01+
*       4.5583017163E+01               0
GRID*               6134               09.0000000000E+022.9910046881E+00+
*       4.9910154310E+01               0
GRID*               6135               09.0000000000E+022.5842952900E+01+
*       4.2803470218E+01               0
GRID*               6136               09.0000000000E+024.2774564412E+01+
*       2.5890759287E+01               0
GRID*               6137               09.0000000000E+024.9906773262E+01+
*       3.0467681544E+00               0
GRID*               6138               09.0000000000E+024.5605941210E+01+
*       -2.049495194E+01               0
GRID*               6139               09.0000000000E+023.0857559081E+01+
*       -3.934146237E+01               0
GRID*               6140               09.0000000000E+029.0401658707E+00+
*       -4.917551605E+01               0
GRID*               6141               00.0000000000E+000.0000000000E+00+
*       -4.350000000E+01               0
GRID*               6142               00.0000000000E+006.1232337865E-15+
*       -5.000000000E+01               0
GRID*               6143               09.0000000000E+025.3272133985E-15+
*       -4.350000000E+01               0
GRID*               6144               09.0000000000E+02-2.958758593E+00+
*       -4.961047363E+01               0
GRID*               6145               0-5.387995319E+02-3.159004305E+01+
*       4.4129371978E+01               0
GRID*               6146               0-8.090655433E+02-1.415446782E+01+
*       -5.188720853E+01               0
GRID*               6147               0-6.090215782E+022.0184514469E+01+
*       -4.987053319E+01               0
GRID*               6148               0-1.103196593E+02-1.650826118E+01+
*       -5.200671534E+01               0
GRID*               6149               0-4.583841830E+02-5.441119500E+01+
*       6.2473705793E+00               0
GRID*               6150               0-5.888950770E+022.2544719038E+01+
*       -4.870746250E+01               0
GRID*               6151               0-7.607012830E+02-9.375947461E+00+
*       5.3725803149E+01               0
GRID*               6152               0-3.902027236E+02-5.353437439E+01+
*       1.3415006904E+00               0
GRID*               6153               0-2.631918575E+022.1036569706E+01+
*       5.0129743306E+01               0
GRID*               6154               0-6.098611578E+02-9.563942481E+00+
*       5.2849370745E+01               0
GRID*               6155               0-2.386909089E+02-5.337375259E+01+
*       -2.043293107E+00               0
GRID*               6156               0-5.106197931E+02-5.334875224E+01+
*       7.4676632281E-01               0
GRID*               6157               0-7.125565294E+02-6.837847404E+00+
*       5.3691875756E+01               0
GRID*               6158               0-2.870789889E+022.0911001114E+01+
*       5.0267227389E+01               0
GRID*               6159               0-8.620576339E+01-1.425998984E+01+
*       -5.249223422E+01               0
GRID*               6160               0-6.707234284E+01-9.731691202E+00+
*       -5.255878630E+01               0
GRID*               6161               0-2.852262258E+012.4093607837E+01+
*       -4.941495456E+01               0
GRID*               6162               0-1.861534700E+023.9588310868E+01+
*       -3.666262430E+01               0
GRID*               6163               0-8.835259242E+02-5.170704006E+01+
*       -1.567725262E+01               0
GRID*               6164               0-8.522233103E+01-7.471524909E+00+
*       5.3565034258E+01               0
GRID*               6165               0-1.262091662E+01-1.035710741E+01+
*       5.2948896094E+01               0
GRID*               6166               0-1.144850419E+02-4.340022976E+00+
*       -5.357540036E+01               0
GRID*               6167               0-8.877911582E+022.1537879801E+01+
*       -4.858460079E+01               0
GRID*               6168               0-8.312175093E+024.9455224760E+01+
*       2.1717814507E+01               0
GRID*               6169               0-7.848298000E+02-2.818930211E+00+
*       -5.359838401E+01               0
GRID*               6170               0-2.497549523E+02-4.729359778E+01+
*       2.4116285182E+01               0
GRID*               6171               0-1.144593081E+02-9.474734833E+00+
*       5.3474362226E+01               0
GRID*               6172               0-8.401701842E+021.5051721781E+01+
*       -5.148410497E+01               0
GRID*               6173               0-8.864781601E+021.9451082294E+01+
*       5.0336802778E+01               0
GRID*               6174               0-6.609636472E+02-8.295672583E+00+
*       5.3153106338E+01               0
GRID*               6175               0-6.388225669E+022.0311255579E+01+
*       -5.085667814E+01               0
GRID*               6176               0-2.098298114E+02-2.821627053E+00+
*       -5.359800700E+01               0
GRID*               6177               0-1.611780790E+02-8.100002025E+00+
*       5.4034884944E+01               0
GRID*               6178               0-1.377236714E+023.7344813542E+01+
*       -4.018293214E+01               0
GRID*               6179               0-1.106256307E+024.0259706041E+01+
*       -3.568610340E+01               0
GRID*               6180               0-1.901702368E+02-2.817973309E+00+
*       5.3598530443E+01               0
GRID*               6181               0-2.627208788E+024.0858861323E+01+
*       -3.425950375E+01               0
GRID*               6182               0-2.143872667E+02-2.373936771E+01+
*       4.9041858262E+01               0
GRID*               6183               0-8.386454957E+02-4.765482901E+01+
*       2.4139484105E+01               0
GRID*               6184               0-4.249999899E+024.2321194073E+01+
*       3.3969842299E+01               0
GRID*               6185               0-4.249999885E+024.9653549112E+01+
*       2.3877740334E+01               0
GRID*               6186               0-4.374999890E+024.9653571723E+01+
*       2.3877690130E+01               0
GRID*               6187               0-4.125000129E+025.5125000000E+01+
*       -6.023636476E-15               0
GRID*               6188               0-4.250000126E+025.5125000000E+01+
*       -6.106619747E-15               0
GRID*               6189               0-4.250000051E+025.2531287636E+01+
*       1.2202227513E+01               0
GRID*               6190               0-4.375000123E+025.5125000000E+01+
*       -6.037121258E-15               0
GRID*               6191               0-4.500000052E+025.2531310247E+01+
*       1.2202177308E+01               0
GRID*               6192               0-4.375000055E+025.2531310247E+01+
*       1.2202177308E+01               0
GRID*               6193               0-3.999999890E+024.9653513031E+01+
*       2.3877824418E+01               0
GRID*               6194               0-4.000000051E+025.2531272046E+01+
*       1.2202262127E+01               0
GRID*               6195               0-4.125000054E+025.2531287636E+01+
*       1.2202227513E+01               0
GRID*               6196               0-4.124999893E+024.9653528621E+01+
*       2.3877789804E+01               0
GRID*               6197               0-4.000000132E+025.5125000000E+01+
*       -6.093134965E-15               0
GRID*               6198               0-4.000000061E+025.2531375303E+01+
*       -1.220203286E+01               0
GRID*               6199               0-4.125000068E+025.2531341192E+01+
*       -1.220210860E+01               0
GRID*               6200               0-4.500000119E+025.5125000000E+01+
*       -6.120104529E-15               0
GRID*               6201               0-4.500000067E+025.2531310247E+01+
*       -1.220217731E+01               0
GRID*               6202               0-4.625000072E+025.2531287636E+01+
*       -1.220222751E+01               0
GRID*               6203               0-4.124999899E+024.2321195198E+01+
*       3.3969841174E+01               0
GRID*               6204               0-3.624999743E+022.3544059517E+01+
*       4.9208054239E+01               0
GRID*               6205               0-3.499999758E+022.3543976057E+01+
*       4.9208118279E+01               0
GRID*               6206               0-3.624999777E+023.4347618957E+01+
*       4.2970698556E+01               0
GRID*               6207               0-3.749999762E+023.4347702417E+01+
*       4.2970634516E+01               0
GRID*               6208               0-4.750000113E+024.9653549112E+01+
*       -2.387774033E+01               0
GRID*               6209               0-4.750000100E+024.2321194073E+01+
*       -3.396984230E+01               0
GRID*               6210               0-4.875000100E+024.2321195198E+01+
*       -3.396984117E+01               0
GRID*               6211               0-8.000000085E+02-2.390884931E+01+
*       -4.947297082E+01               0
GRID*               6212               0-8.125000059E+02-3.380598643E+01+
*       -4.264190433E+01               0
GRID*               6213               0-8.125000084E+02-2.390883985E+01+
*       -4.947297654E+01               0
GRID*               6214               0-8.250000058E+02-3.380597697E+01+
*       -4.264191005E+01               0
GRID*               6215               0-2.750000156E+02-4.307723444E+01+
*       3.4293729818E+01               0
GRID*               6216               0-2.750000134E+02-3.380692265E+01+
*       4.2640755679E+01               0
GRID*               6217               0-2.875000132E+02-3.380693776E+01+
*       4.2640746552E+01               0
GRID*               6218               0-2.124999988E+02-4.866537599E+01+
*       -2.364632805E+01               0
GRID*               6219               0-2.249999987E+02-5.373930549E+01+
*       -1.225013073E+01               0
GRID*               6220               0-2.249999987E+02-4.866537062E+01+
*       -2.364633492E+01               0
GRID*               6221               0-3.749999937E+01-2.390932728E+01+
*       -4.947278047E+01               0
GRID*               6222               0-4.999999915E+01-3.380619240E+01+
*       -4.264160777E+01               0
GRID*               6223               0-4.999999843E+01-2.390938056E+01+
*       -4.947275840E+01               0
GRID*               6224               0-1.999999924E+02-3.380632932E+01+
*       -4.264135871E+01               0
GRID*               6225               0-1.999999933E+02-4.307693617E+01+
*       -3.429411991E+01               0
GRID*               6226               0-2.124999932E+02-4.307693079E+01+
*       -3.429412678E+01               0
GRID*               6227               0-4.750000068E+025.2531287636E+01+
*       -1.220222751E+01               0
GRID*               6228               0-4.875000106E+024.9653528621E+01+
*       -2.387778980E+01               0
GRID*               6229               0-4.875000072E+025.2531272046E+01+
*       -1.220226213E+01               0
GRID*               6230               0-5.000000109E+024.9653513031E+01+
*       -2.387782442E+01               0
GRID*               6231               0-5.125000010E+02-5.373935879E+01+
*       1.2249813775E+01               0
GRID*               6232               0-5.250000032E+02-4.866534781E+01+
*       2.3646284088E+01               0
GRID*               6233               0-5.250000010E+02-5.373935773E+01+
*       1.2249819500E+01               0
GRID*               6234               0-1.374999902E+02-2.390979374E+01+
*       -4.947259886E+01               0
GRID*               6235               0-1.374999952E+02-3.380626613E+01+
*       -4.264146894E+01               0
GRID*               6236               0-1.499999900E+02-2.390977441E+01+
*       -4.947261054E+01               0
GRID*               6237               0-1.499999950E+02-3.380624679E+01+
*       -4.264148062E+01               0
GRID*               6238               0-1.249999963E+02-3.380622227E+01+
*       -4.264152609E+01               0
GRID*               6239               0-1.249999970E+02-4.307680286E+01+
*       -3.429429401E+01               0
GRID*               6240               0-1.374999970E+02-4.307679883E+01+
*       -3.429429916E+01               0
GRID*               6241               0-1.124999965E+02-3.380624391E+01+
*       -4.264151302E+01               0
GRID*               6242               0-1.374999858E+021.2298130722E+01+
*       -5.347327742E+01               0
GRID*               6243               0-1.249999891E+021.2298354667E+01+
*       -5.347324794E+01               0
GRID*               6244               0-1.374999897E+02-1.080780668E-01+
*       -5.477724830E+01               0
GRID*               6245               0-1.499999864E+02-1.083020115E-01+
*       -5.477727778E+01               0
GRID*               6246               0-4.625000260E+023.4347823317E+01+
*       -4.297054226E+01               0
GRID*               6247               0-4.750000258E+023.4347808660E+01+
*       -4.297055351E+01               0
GRID*               6248               0-2.499999918E+013.4346356561E+01+
*       -4.297167120E+01               0
GRID*               6249               0-3.749999717E+013.4346251714E+01+
*       -4.297175165E+01               0
GRID*               6250               0-3.749999713E+014.2320844039E+01+
*       -3.397066620E+01               0
GRID*               6251               0-9.999999486E+01-2.390953471E+01+
*       -4.947270205E+01               0
GRID*               6252               0-1.124999947E+02-2.390951308E+01+
*       -4.947271512E+01               0
GRID*               6253               0-1.750000082E+025.2531402428E+01+
*       -1.220197263E+01               0
GRID*               6254               0-1.875000078E+024.9653641781E+01+
*       -2.387753886E+01               0
GRID*               6255               0-1.875000081E+025.2531412575E+01+
*       -1.220195010E+01               0
GRID*               6256               0-2.000000076E+024.9653651928E+01+
*       -2.387751633E+01               0
GRID*               6257               0-1.499999860E+023.4345645954E+01+
*       -4.297221600E+01               0
GRID*               6258               0-1.624999848E+022.3542364196E+01+
*       -4.920951289E+01               0
GRID*               6259               0-1.624999860E+023.4345646631E+01+
*       -4.297221533E+01               0
GRID*               6260               0-8.250000046E+021.2298703338E+01+
*       5.3473210659E+01               0
GRID*               6261               0-8.250000060E+022.3542728233E+01+
*       4.9209189550E+01               0
GRID*               6262               0-8.375000032E+022.3542875432E+01+
*       4.9209076603E+01               0
GRID*               6263               0-7.500000006E+02-4.866538085E+01+
*       2.3646351602E+01               0
GRID*               6264               0-7.625000030E+02-4.307679883E+01+
*       3.4294299161E+01               0
GRID*               6265               0-7.625000005E+02-4.866538488E+01+
*       2.3646346449E+01               0
GRID*               6266               0-7.750000030E+02-4.307680286E+01+
*       3.4294294007E+01               0
GRID*               6267               0-8.375000056E+023.4346104695E+01+
*       4.2971864419E+01               0
GRID*               6268               0-8.500000028E+023.4346251894E+01+
*       4.2971751472E+01               0
GRID*               6269               0-8.250000037E+02-1.072191969E-01+
*       -5.477712749E+01               0
GRID*               6270               0-8.375000028E+02-1.204506947E+01+
*       -5.332774050E+01               0
GRID*               6271               0-8.375000037E+02-1.072099734E-01+
*       -5.477712804E+01               0
GRID*               6272               0-8.500000028E+02-1.204506025E+01+
*       -5.332774106E+01               0
GRID*               6273               0-1.624999899E+02-2.390976015E+01+
*       -4.947261915E+01               0
GRID*               6274               0-1.749999937E+02-3.380628179E+01+
*       -4.264142504E+01               0
GRID*               6275               0-1.749999873E+02-2.390992160E+01+
*       -4.947255227E+01               0
GRID*               6276               0-7.250000014E+02-5.373929145E+01+
*       1.2250214196E+01               0
GRID*               6277               0-7.375000007E+02-4.866538226E+01+
*       2.3646340903E+01               0
GRID*               6278               0-7.375000014E+02-5.373929129E+01+
*       1.2250215040E+01               0
GRID*               6279               0-7.500000012E+02-5.373928988E+01+
*       1.2250225739E+01               0
GRID*               6280               0-6.124999942E+02-4.866535051E+01+
*       -2.364615081E+01               0
GRID*               6281               0-6.249999960E+02-5.373936461E+01+
*       -1.224973770E+01               0
GRID*               6282               0-6.249999943E+02-4.866535758E+01+
*       -2.364614179E+01               0
GRID*               6283               0-7.125000168E+022.3542305501E+01+
*       4.9209566571E+01               0
GRID*               6284               0-7.000000166E+022.3542309250E+01+
*       4.9209563694E+01               0
GRID*               6285               0-7.125000153E+023.4345572744E+01+
*       4.2972272022E+01               0
GRID*               6286               0-7.250000154E+023.4345568995E+01+
*       4.2972274898E+01               0
GRID*               6287               0-5.250000152E+02-3.380700916E+01+
*       4.2640653038E+01               0
GRID*               6288               0-5.250000271E+02-2.391125279E+01+
*       4.9471953090E+01               0
GRID*               6289               0-5.318997825E+02-3.460189849E+01+
*       3.8724672619E+01               0
GRID*               6290               0-5.318997646E+02-3.079515373E+01+
*       4.8045352397E+01               0
GRID*               6291               0-5.318997944E+02-2.470614211E+01+
*       4.5555972671E+01               0
GRID*               6292               0-5.999999963E+02-5.373936591E+01+
*       -1.224973349E+01               0
GRID*               6293               0-6.125000023E+02-5.373933787E+01+
*       -2.245155444E-01               0
GRID*               6294               0-6.124999961E+02-5.373936722E+01+
*       -1.224972352E+01               0
GRID*               6295               0-7.250000118E+02-1.204588083E+01+
*       5.3327388852E+01               0
GRID*               6296               0-7.250000169E+02-1.085216572E-01+
*       5.4777307372E+01               0
GRID*               6297               0-7.375000136E+02-1.082984592E-01+
*       5.4777277989E+01               0
GRID*               6298               0-8.000000084E+02-1.204471139E+01+
*       -5.332788666E+01               0
GRID*               6299               0-8.045327798E+02-1.598606770E+01+
*       -4.943583819E+01               0
GRID*               6300               0-8.045327718E+02-1.021311151E+01+
*       -5.577925699E+01               0
GRID*               6301               0-8.045327719E+02-2.207724943E+01+
*       -5.192434116E+01               0
GRID*               6302               0-7.499999974E+024.2320983059E+01+
*       3.3970333348E+01               0
GRID*               6303               0-7.499999987E+024.9653455084E+01+
*       2.3877987484E+01               0
GRID*               6304               0-7.624999984E+024.9653444302E+01+
*       2.3878011422E+01               0
GRID*               6305               0-7.249999934E+024.2321089314E+01+
*       3.3970077790E+01               0
GRID*               6306               0-6.000000287E+021.2300590991E+01+
*       -5.347300271E+01               0
GRID*               6307               0-6.125000270E+021.2300475451E+01+
*       -5.347301792E+01               0
GRID*               6308               0-6.045108162E+021.3122532770E+01+
*       -4.987652965E+01               0
GRID*               6309               0-6.045107907E+021.9362572690E+01+
*       -5.346700626E+01               0
GRID*               6310               0-6.170108146E+021.3122417230E+01+
*       -4.987654486E+01               0
GRID*               6311               0-7.250000166E+022.3542286560E+01+
*       4.9209572464E+01               0
GRID*               6312               0-7.375000154E+023.4345568319E+01+
*       4.2972275575E+01               0
GRID*               6313               0-6.625000157E+022.3543622865E+01+
*       -4.920842607E+01               0
GRID*               6314               0-6.750000216E+021.2300192691E+01+
*       -5.347304490E+01               0
GRID*               6315               0-6.750000136E+022.3543506065E+01+
*       -4.920851570E+01               0
GRID*               6316               0-9.999999530E+01-1.204544802E+01+
*       -5.332757143E+01               0
GRID*               6317               0-1.051598251E+02-1.716372952E+01+
*       -4.949527466E+01               0
GRID*               6318               0-1.051598295E+02-1.138997968E+01+
*       -5.583901211E+01               0
GRID*               6319               0-1.051598291E+02-2.325406637E+01+
*       -5.198414273E+01               0
GRID*               6320               0-3.124999973E+02-5.373934249E+01+
*       2.2451759369E-01               0
GRID*               6321               0-3.125000036E+02-5.373936845E+01+
*       1.2249719688E+01               0
GRID*               6322               0-3.250000034E+02-5.373936683E+01+
*       1.2249731969E+01               0
GRID*               6323               0-4.499999953E+02-5.373936546E+01+
*       2.2457195247E-01               0
GRID*               6324               0-4.500000018E+02-5.373936546E+01+
*       1.2249762309E+01               0
GRID*               6325               0-4.541920883E+02-5.160051203E+01+
*       -2.888909888E+00               0
GRID*               6326               0-4.541920901E+02-5.655004843E+01+
*       9.3608524201E+00               0
GRID*               6327               0-4.541920947E+02-5.160051203E+01+
*       9.1362804677E+00               0
GRID*               6328               0-6.625000203E+02-1.204378889E+01+
*       -5.332823063E+01               0
GRID*               6329               0-6.750000219E+02-2.390810484E+01+
*       -4.947326586E+01               0
GRID*               6330               0-6.750000203E+02-1.204379358E+01+
*       -5.332823034E+01               0
GRID*               6331               0-6.375000018E+02-4.866536878E+01+
*       2.3646312983E+01               0
GRID*               6332               0-6.500000016E+02-4.866536680E+01+
*       2.3646328032E+01               0
GRID*               6333               0-6.375000012E+02-5.373932107E+01+
*       1.2250037783E+01               0
GRID*               6334               0-6.500000010E+02-5.373931909E+01+
*       1.2250052832E+01               0
GRID*               6335               0-6.625000015E+02-4.866537248E+01+
*       2.3646320789E+01               0
GRID*               6336               0-6.250000008E+02-5.373933099E+01+
*       1.2249983862E+01               0
GRID*               6337               0-6.250000019E+02-4.866536289E+01+
*       2.3646320501E+01               0
GRID*               6338               0-6.499999950E+02-5.373935133E+01+
*       2.2483670523E-01               0
GRID*               6339               0-6.625000008E+02-5.373931723E+01+
*       1.2250066963E+01               0
GRID*               6340               0-5.875000256E+02-1.090751671E-01+
*       5.4777385573E+01               0
GRID*               6341               0-5.750000239E+02-1.089655425E-01+
*       5.4777371142E+01               0
GRID*               6342               0-5.875000247E+021.2297486765E+01+
*       5.3473353044E+01               0
GRID*               6343               0-6.000000263E+021.2297377140E+01+
*       5.3473367475E+01               0
GRID*               6344               0-3.624999966E+02-5.373935153E+01+
*       2.2452611258E-01               0
GRID*               6345               0-3.625000030E+02-5.373936960E+01+
*       1.2249720946E+01               0
GRID*               6346               0-3.750000028E+02-5.373936757E+01+
*       1.2249736331E+01               0
GRID*               6347               0-5.500000281E+02-1.204687314E+01+
*       5.3326966093E+01               0
GRID*               6348               0-5.625000240E+02-1.089602855E-01+
*       5.4777371458E+01               0
GRID*               6349               0-5.625000280E+02-1.204687839E+01+
*       5.3326965777E+01               0
GRID*               6350               0-5.750000266E+02-1.204678632E+01+
*       5.3327003915E+01               0
GRID*               6351               0-2.499999952E+01-1.204520575E+01+
*       -5.332767344E+01               0
GRID*               6352               0-2.499999950E+01-2.390934003E+01+
*       -4.947277277E+01               0
GRID*               6353               0-4.625000015E+02-5.373936312E+01+
*       1.2249780098E+01               0
GRID*               6354               0-4.750000015E+02-5.373936365E+01+
*       1.2249777210E+01               0
GRID*               6355               0-4.666920945E+02-5.160050969E+01+
*       9.1362982571E+00               0
GRID*               6356               0-4.666920900E+02-5.655004896E+01+
*       9.3608495320E+00               0
GRID*               6357               0-5.750000243E+021.2297445704E+01+
*       5.3473365819E+01               0
GRID*               6358               0-5.249999885E+02-1.204578788E+01+
*       -5.332740389E+01               0
GRID*               6359               0-5.249999909E+02-2.391018300E+01+
*       -4.947238930E+01               0
GRID*               6360               0-5.374999908E+02-2.391017323E+01+
*       -4.947239521E+01               0
GRID*               6361               0-6.000000059E+024.2321092513E+01+
*       -3.397009468E+01               0
GRID*               6362               0-6.000000186E+023.4347417818E+01+
*       -4.297085222E+01               0
GRID*               6363               0-6.125000051E+024.2321071456E+01+
*       -3.397014552E+01               0
GRID*               6364               0-4.000000024E+02-5.373936735E+01+
*       1.2249742220E+01               0
GRID*               6365               0-4.125000022E+02-5.373936510E+01+
*       1.2249759299E+01               0
GRID*               6366               0-4.000000052E+02-5.373937037E+01+
*       -2.246046582E-01               0
GRID*               6367               0-4.125000050E+02-5.373936812E+01+
*       -2.245875784E-01               0
GRID*               6368               0-5.375000298E+021.2300623235E+01+
*       -5.347300348E+01               0
GRID*               6369               0-5.250000285E+021.2300539149E+01+
*       -5.347301455E+01               0
GRID*               6370               0-5.375000260E+02-1.055188887E-01+
*       -5.477692536E+01               0
GRID*               6371               0-5.500000273E+02-1.054348027E-01+
*       -5.477691429E+01               0
GRID*               6372               0-5.500000298E+021.2300627597E+01+
*       -5.347300212E+01               0
GRID*               6373               0-5.625000273E+02-1.054326372E-01+
*       -5.477691442E+01               0
GRID*               6374               0-4.874999950E+02-5.373936812E+01+
*       2.2458757839E-01               0
GRID*               6375               0-5.000000012E+02-5.373936112E+01+
*       1.2249796034E+01               0
GRID*               6376               0-4.999999948E+02-5.373937037E+01+
*       2.2460465815E-01               0
GRID*               6377               0-5.875000288E+021.2300577122E+01+
*       -5.347300703E+01               0
GRID*               6378               0-5.944475657E+021.4302635055E+01+
*       -4.929499430E+01               0
GRID*               6379               0-5.819475402E+022.0542661105E+01+
*       -5.288547522E+01               0
GRID*               6380               0-5.944475401E+022.0542674974E+01+
*       -5.288547091E+01               0
GRID*               6381               0-5.750000298E+021.2300640218E+01+
*       -5.347299872E+01               0
GRID*               6382               0-5.750000274E+02-1.054296909E-01+
*       -5.477691404E+01               0
GRID*               6383               0-5.875000273E+02-1.054286357E-01+
*       -5.477691410E+01               0
GRID*               6384               0-4.749999950E+02-5.373936830E+01+
*       2.2458660474E-01               0
GRID*               6385               0-4.875000015E+02-5.373936347E+01+
*       1.2249778183E+01               0
GRID*               6386               0-4.749999979E+02-5.373936666E+01+
*       -1.224975078E+01               0
GRID*               6387               0-6.249999866E+02-3.380692265E+01+
*       -4.264075568E+01               0
GRID*               6388               0-6.249999844E+02-4.307723444E+01+
*       -3.429372982E+01               0
GRID*               6389               0-6.374999846E+02-4.307724538E+01+
*       -3.429371585E+01               0
GRID*               6390               0-2.874999887E+02-4.307709268E+01+
*       -3.429391533E+01               0
GRID*               6391               0-2.999999978E+02-4.866535896E+01+
*       -2.364631234E+01               0
GRID*               6392               0-2.999999872E+02-4.307715523E+01+
*       -3.429383381E+01               0
GRID*               6393               0-4.999999782E+02-4.307747804E+01+
*       -3.429341206E+01               0
GRID*               6394               0-5.124999950E+02-4.866533972E+01+
*       -2.364620758E+01               0
GRID*               6395               0-5.124999781E+02-4.307747639E+01+
*       -3.429341416E+01               0
GRID*               6396               0-5.249999949E+02-4.866533807E+01+
*       -2.364620968E+01               0
GRID*               6397               0-6.374999906E+02-3.380675789E+01+
*       -4.264097041E+01               0
GRID*               6398               0-6.499999885E+02-4.307708062E+01+
*       -3.429393058E+01               0
GRID*               6399               0-4.749999786E+02-4.307746520E+01+
*       -3.429342886E+01               0
GRID*               6400               0-4.874999952E+02-4.866534041E+01+
*       -2.364622032E+01               0
GRID*               6401               0-4.874999785E+02-4.307746236E+01+
*       -3.429343249E+01               0
GRID*               6402               0-4.999999952E+02-4.866533757E+01+
*       -2.364622395E+01               0
GRID*               6403               0-6.000000161E+02-2.390853836E+01+
*       -4.947307735E+01               0
GRID*               6404               0-6.124999868E+02-3.380693776E+01+
*       -4.264074655E+01               0
GRID*               6405               0-6.125000159E+02-2.390852325E+01+
*       -4.947308648E+01               0
GRID*               6406               0-3.874999836E+02-3.380706208E+01+
*       -4.264058407E+01               0
GRID*               6407               0-3.999999814E+02-4.307736465E+01+
*       -3.429356026E+01               0
GRID*               6408               0-3.999999838E+02-3.380708478E+01+
*       -4.264057036E+01               0
GRID*               6409               0-2.749999774E+02-2.391064358E+01+
*       -4.947224292E+01               0
GRID*               6410               0-2.874999872E+02-3.380663183E+01+
*       -4.264100676E+01               0
GRID*               6411               0-2.874999779E+02-2.391070163E+01+
*       -4.947220785E+01               0
GRID*               6412               0-2.999999877E+02-3.380668988E+01+
*       -4.264097170E+01               0
GRID*               6413               0-1.249999997E+01-3.380620475E+01+
*       4.2641611222E+01               0
GRID*               6414               0-3.874999966E+02-4.866535015E+01+
*       -2.364626635E+01               0
GRID*               6415               0-3.999999988E+02-5.373936112E+01+
*       -1.224979603E+01               0
GRID*               6416               0-3.999999965E+02-4.866534461E+01+
*       -2.364627341E+01               0
GRID*               6417               0-4.500000263E+02-1.204674168E+01+
*       5.3327013259E+01               0
GRID*               6418               0-4.624999964E+02-1.070613784E-01+
*       5.4777125425E+01               0
GRID*               6419               0-4.625000263E+02-1.204674661E+01+
*       5.3327012963E+01               0
GRID*               6420               0-4.749999964E+02-1.070663057E-01+
*       5.4777125129E+01               0
GRID*               6421               0-4.750000282E+02-1.204686758E+01+
*       5.3326962851E+01               0
GRID*               6422               0-4.875000070E+02-1.077869425E-01+
*       5.4777219996E+01               0
GRID*               6423               0-4.499999875E+02-1.064558202E-01+
*       5.4777045708E+01               0
GRID*               6424               0-4.499999853E+021.2299650118E+01+
*       5.3473125786E+01               0
GRID*               6425               0-4.624999856E+021.2299681569E+01+
*       5.3473116001E+01               0
GRID*               6426               0-4.375000070E+025.2531310247E+01+
*       -1.220217731E+01               0
GRID*               6427               0-4.500000116E+024.9653591066E+01+
*       -2.387764343E+01               0
GRID*               6428               0-4.750000276E+022.3544176029E+01+
*       -4.920796851E+01               0
GRID*               6429               0-4.875000277E+022.3544165821E+01+
*       -4.920797169E+01               0
GRID*               6430               0-4.250000256E+023.4347800991E+01+
*       -4.297055993E+01               0
GRID*               6431               0-4.250000270E+022.3544221973E+01+
*       -4.920795667E+01               0
GRID*               6432               0-4.375000273E+022.3544190522E+01+
*       -4.920796645E+01               0
GRID*               6433               0-7.500000092E+02-1.204572293E+01+
*       5.3327455517E+01               0
GRID*               6434               0-7.500000136E+02-1.083020115E-01+
*       5.4777277776E+01               0
GRID*               6435               0-7.553506505E+02-1.359785333E+01+
*       5.0354702306E+01               0
GRID*               6436               0-7.553506417E+02-7.823817061E+00+
*       5.6698556360E+01               0
GRID*               6437               0-7.553506549E+02-1.660432412E+00+
*       5.1804524565E+01               0
GRID*               6438               0-3.874999987E+02-5.373936007E+01+
*       -1.224980176E+01               0
GRID*               6439               0-2.999999757E+02-2.391084550E+01+
*       -4.947214826E+01               0
GRID*               6440               0-3.124999863E+02-3.380675197E+01+
*       -4.264089078E+01               0
GRID*               6441               0-3.124999763E+02-2.391090650E+01+
*       -4.947211141E+01               0
GRID*               6442               0-3.249999868E+02-3.380681297E+01+
*       -4.264085393E+01               0
GRID*               6443               0-3.826013632E+02-5.611163742E+01+
*       -5.566420596E+00               0
GRID*               6444               0-3.951013633E+02-5.611163848E+01+
*       -5.566414871E+00               0
GRID*               6445               0-3.951013605E+02-5.611163545E+01+
*       6.9079320069E+00               0
GRID*               6446               0-6.875000068E+02-4.307693079E+01+
*       3.4294126777E+01               0
GRID*               6447               0-6.750000081E+02-4.307698824E+01+
*       3.4294051915E+01               0
GRID*               6448               0-6.875000090E+02-3.380638676E+01+
*       4.2641283853E+01               0
GRID*               6449               0-7.000000076E+02-3.380632932E+01+
*       4.2641358715E+01               0
GRID*               6450               0-3.749999827E+02-4.307731727E+01+
*       -3.429362216E+01               0
GRID*               6451               0-3.749999968E+02-4.866534781E+01+
*       -2.364628409E+01               0
GRID*               6452               0-2.749999819E+022.3543699337E+01+
*       4.9208349129E+01               0
GRID*               6453               0-2.749999731E+021.2300492503E+01+
*       5.3473012617E+01               0
GRID*               6454               0-2.690959033E+021.3548444848E+01+
*       5.0006149915E+01               0
GRID*               6455               0-2.690959120E+022.4791651683E+01+
*       4.5741486427E+01               0
GRID*               6456               0-2.690959273E+021.9788617361E+01+
*       5.3596606008E+01               0
GRID*               6457               0-3.124999906E+02-2.390895916E+01+
*       4.9472903043E+01               0
GRID*               6458               0-2.999999839E+02-2.390853836E+01+
*       4.9473077352E+01               0
GRID*               6459               0-3.124999860E+02-1.204417382E+01+
*       5.3328070631E+01               0
GRID*               6460               0-3.249999927E+02-1.204459463E+01+
*       5.3327896322E+01               0
GRID*               6461               0-2.750000040E+02-5.373936461E+01+
*       1.2249737702E+01               0
GRID*               6462               0-2.750000057E+02-4.866535758E+01+
*       2.3646141785E+01               0
GRID*               6463               0-2.875000058E+02-4.866535051E+01+
*       2.3646150808E+01               0
GRID*               6464               0-3.000000160E+02-3.380705218E+01+
*       4.2640597436E+01               0
GRID*               6465               0-3.249999905E+02-2.390897305E+01+
*       4.9472894653E+01               0
GRID*               6466               0-3.374999927E+02-1.204459679E+01+
*       5.3327896192E+01               0
GRID*               6467               0-3.124999727E+02-1.054286357E-01+
*       5.4776914100E+01               0
GRID*               6468               0-3.249999702E+021.2300640218E+01+
*       5.3472998721E+01               0
GRID*               6469               0-3.249999726E+02-1.054296909E-01+
*       5.4776914036E+01               0
GRID*               6470               0-3.874999827E+02-4.307731173E+01+
*       -3.429362922E+01               0
GRID*               6471               0-6.049306032E+02-1.369282391E+01+
*       4.9916083034E+01               0
GRID*               6472               0-6.049306040E+02-1.755234465E+00+
*       5.1366414275E+01               0
GRID*               6473               0-6.174306042E+02-1.755244024E+00+
*       5.1366415533E+01               0
GRID*               6474               0-3.250000060E+025.2531427516E+01+
*       -1.220191693E+01               0
GRID*               6475               0-3.375000113E+024.9653763966E+01+
*       -2.387724875E+01               0
GRID*               6476               0-3.375000062E+025.2531417321E+01+
*       -1.220193956E+01               0
GRID*               6477               0-3.500000115E+024.9653753771E+01+
*       -2.387727139E+01               0
GRID*               6478               0-4.625000278E+022.3544190686E+01+
*       -4.920795727E+01               0
GRID*               6479               0-5.375000263E+02-2.391119865E+01+
*       4.9471975514E+01               0
GRID*               6480               0-5.375000289E+02-1.204692727E+01+
*       5.3326943668E+01               0
GRID*               6481               0-3.875000245E+023.4347736313E+01+
*       -4.297061009E+01               0
GRID*               6482               0-4.000000255E+022.3544204947E+01+
*       -4.920799042E+01               0
GRID*               6483               0-4.000000245E+023.4347737455E+01+
*       -4.297060895E+01               0
GRID*               6484               0-6.125000128E+02-3.380663183E+01+
*       4.2641006763E+01               0
GRID*               6485               0-6.250000226E+02-2.391064358E+01+
*       4.9472242916E+01               0
GRID*               6486               0-6.250000113E+02-3.380656928E+01+
*       4.2641088276E+01               0
GRID*               6487               0-2.999999918E+024.9653414460E+01+
*       2.3878059978E+01               0
GRID*               6488               0-3.000000060E+025.2531259635E+01+
*       1.2202289684E+01               0
GRID*               6489               0-3.125000060E+025.2531256957E+01+
*       1.2202295632E+01               0
GRID*               6490               0-3.124999918E+024.9653411782E+01+
*       2.3878065926E+01               0
GRID*               6491               0-4.249999810E+02-1.060117201E-01+
*       5.4776988135E+01               0
GRID*               6492               0-4.249999787E+021.2300069720E+01+
*       5.3473074113E+01               0
GRID*               6493               0-4.374999788E+021.2300089581E+01+
*       5.3473067934E+01               0
GRID*               6494               0-3.125000113E+024.9653773444E+01+
*       -2.387722675E+01               0
GRID*               6495               0-3.000000113E+024.9653772754E+01+
*       -2.387722841E+01               0
GRID*               6496               0-3.125000130E+024.2321266493E+01+
*       -3.396965784E+01               0
GRID*               6497               0-3.250000131E+024.2321267183E+01+
*       -3.396965617E+01               0
GRID*               6498               0-2.875000127E+024.2321257535E+01+
*       -3.396967797E+01               0
GRID*               6499               0-2.874999992E+023.4346363143E+01+
*       -4.297166450E+01               0
GRID*               6500               0-3.000000130E+024.2321265439E+01+
*       -3.396965889E+01               0
GRID*               6501               0-7.750000101E+02-4.307634256E+01+
*       -3.429489517E+01               0
GRID*               6502               0-7.749999967E+02-4.866546208E+01+
*       -2.364606361E+01               0
GRID*               6503               0-7.874999978E+02-4.866545259E+01+
*       -2.364613569E+01               0
GRID*               6504               0-4.999999854E+01-4.866539315E+01+
*       2.3646436443E+01               0
GRID*               6505               0-4.999999684E+01-4.307659768E+01+
*       3.4294562064E+01               0
GRID*               6506               0-6.249999424E+01-4.307648982E+01+
*       3.4294702623E+01               0
GRID*               6507               0-8.170327718E+02-2.207723997E+01+
*       -5.192434687E+01               0
GRID*               6508               0-2.499999984E+02-4.866536680E+01+
*       -2.364632803E+01               0
GRID*               6509               0-2.499999990E+02-5.373931909E+01+
*       -1.225005283E+01               0
GRID*               6510               0-2.624999994E+02-5.373932901E+01+
*       -1.224999891E+01               0
GRID*               6511               0-2.374999992E+02-5.373931723E+01+
*       -1.225006696E+01               0
GRID*               6512               0-2.249999919E+02-4.307698824E+01+
*       -3.429405191E+01               0
GRID*               6513               0-2.374999985E+02-4.866537248E+01+
*       -2.364632079E+01               0
GRID*               6514               0-1.999999794E+02-2.390816563E+01+
*       4.9473243701E+01               0
GRID*               6515               0-1.999999808E+02-1.204387835E+01+
*       5.3328198081E+01               0
GRID*               6516               0-2.124999809E+02-1.204387030E+01+
*       5.3328198564E+01               0
GRID*               6517               0-1.999999830E+02-1.061647837E-01+
*       5.4777008069E+01               0
GRID*               6518               0-2.124999801E+02-1.059624595E-01+
*       5.4776981434E+01               0
GRID*               6519               0-2.499999938E+01-1.074475047E-01+
*       -5.477716329E+01               0
GRID*               6520               0-3.749999858E+01-1.204525903E+01+
*       -5.332765137E+01               0
GRID*               6521               0-2.249999797E+02-1.204379358E+01+
*       5.3328230344E+01               0
GRID*               6522               0-2.249999801E+02-1.059544174E-01+
*       5.4776981917E+01               0
GRID*               6523               0-2.374999774E+02-1.057701616E-01+
*       5.4776957661E+01               0
GRID*               6524               0-2.249999781E+02-2.390810484E+01+
*       4.9473265855E+01               0
GRID*               6525               0-2.374999797E+02-1.204378889E+01+
*       5.3328230626E+01               0
GRID*               6526               0-7.374999961E+02-5.373932730E+01+
*       2.2494918518E-01               0
GRID*               6527               0-7.500000041E+02-4.307684268E+01+
*       3.4294242007E+01               0
GRID*               6528               0-1.874999924E+02-3.380633559E+01+
*       -4.264135493E+01               0
GRID*               6529               0-1.874999873E+02-2.390991534E+01+
*       -4.947255606E+01               0
GRID*               6530               0-2.499999775E+02-1.057654712E-01+
*       5.4776957943E+01               0
GRID*               6531               0-2.499999755E+021.2300356219E+01+
*       5.3473027091E+01               0
GRID*               6532               0-2.624999754E+021.2300336905E+01+
*       5.3473033100E+01               0
GRID*               6533               0-2.250000044E+02-5.373936069E+01+
*       1.2249756249E+01               0
GRID*               6534               0-2.375000044E+02-5.373936032E+01+
*       1.2249759069E+01               0
GRID*               6535               0-2.318454593E+02-5.108180562E+01+
*       4.9908362314E+00               0
GRID*               6536               0-2.318454540E+02-5.603130766E+01+
*       5.2156269106E+00               0
GRID*               6537               0-2.443454593E+02-5.108180525E+01+
*       4.9908390513E+00               0
GRID*               6538               0-1.176598289E+02-2.325404474E+01+
*       -5.198415579E+01               0
GRID*               6539               0-6.249999922E+014.2320923184E+01+
*       3.3970468690E+01               0
GRID*               6540               0-4.999999951E+014.2320916427E+01+
*       3.3970485003E+01               0
GRID*               6541               0-6.249999906E+014.9653340860E+01+
*       2.3878252754E+01               0
GRID*               6542               0-7.499999878E+014.9653347617E+01+
*       2.3878236441E+01               0
GRID*               6543               0-4.999999924E+014.9653346717E+01+
*       2.3878239750E+01               0
GRID*               6544               0-5.000001094E+015.2531343387E+01+
*       1.2202103723E+01               0
GRID*               6545               0-6.250001077E+015.2531337531E+01+
*       1.2202116727E+01               0
GRID*               6546               0-3.749999953E+014.2320916996E+01+
*       3.3970484434E+01               0
GRID*               6547               0-3.749999961E+013.4346402704E+01+
*       4.2971636855E+01               0
GRID*               6548               0-4.999999894E+013.4346433838E+01+
*       4.2971612966E+01               0
GRID*               6549               0-8.875000003E+025.2531348532E+01+
*       1.2202092449E+01               0
GRID*               6550               0-8.875000003E+025.5125000000E+01+
*       -6.279847337E-15               0
GRID*               6551               0-8.750000007E+025.5125000000E+01+
*       -6.349345826E-15               0
GRID*               6552               0-8.875000003E+025.2531348532E+01+
*       -1.220209245E+01               0
GRID*               6553               0-8.875000000E+024.2320923457E+01+
*       3.3970481683E+01               0
GRID*               6554               0-7.875000053E+02-2.390951308E+01+
*       4.9472715118E+01               0
GRID*               6555               0-7.750000075E+02-2.390964479E+01+
*       4.9472660557E+01               0
GRID*               6556               0-7.875000068E+02-1.204557974E+01+
*       5.3327516870E+01               0
GRID*               6557               0-8.000000047E+02-1.204544802E+01+
*       5.3327571430E+01               0
GRID*               6558               0-6.000000203E+022.3543795585E+01+
*       -4.920826750E+01               0
GRID*               6559               0-5.944475573E+022.5545839649E+01+
*       -4.503025909E+01               0
GRID*               6560               0-5.944475383E+023.1346297208E+01+
*       -4.664805563E+01               0
GRID*               6561               0-7.750000004E+02-4.866538365E+01+
*       2.3646355786E+01               0
GRID*               6562               0-7.625000011E+02-5.373929200E+01+
*       1.2250214215E+01               0
GRID*               6563               0-7.750000010E+02-5.373929077E+01+
*       1.2250223552E+01               0
GRID*               6564               0-1.250000006E+01-5.373930639E+01+
*       1.2250150719E+01               0
GRID*               6565               0-2.499999930E+01-5.373929692E+01+
*       1.2250211128E+01               0
GRID*               6566               0-1.250000006E+01-5.373930639E+01+
*       2.2454480643E-01               0
GRID*               6567               0-1.249999997E+01-4.866539767E+01+
*       2.3646350822E+01               0
GRID*               6568               0-8.875000000E+02-3.380620475E+01+
*       -4.264161122E+01               0
GRID*               6569               0-8.750000008E+02-2.390928805E+01+
*       -4.947279310E+01               0
GRID*               6570               0-8.750000010E+02-3.380615806E+01+
*       -4.264166590E+01               0
GRID*               6571               0-4.624999953E+02-5.373936599E+01+
*       2.2456906430E-01               0
GRID*               6572               0-1.374999849E+02-2.390844662E+01+
*       4.9473135452E+01               0
GRID*               6573               0-1.499999856E+02-1.204423479E+01+
*       5.3328061959E+01               0
GRID*               6574               0-1.499999848E+02-2.390845973E+01+
*       4.9473127531E+01               0
GRID*               6575               0-7.624999963E+02-5.373932650E+01+
*       2.2491543570E-01               0
GRID*               6576               0-7.749999969E+02-5.373932116E+01+
*       2.2487491963E-01               0
GRID*               6577               0-8.625000010E+02-3.380616257E+01+
*       -4.264166317E+01               0
GRID*               6578               0-8.500000031E+02-3.380607767E+01+
*       -4.264177381E+01               0
GRID*               6579               0-8.625000030E+02-4.307658774E+01+
*       -3.429457475E+01               0
GRID*               6580               0-8.750000010E+02-4.307667263E+01+
*       -3.429446411E+01               0
GRID*               6581               0-4.999999855E+01-1.204525806E+01+
*       -5.332765143E+01               0
GRID*               6582               0-7.374999958E+02-4.866543628E+01+
*       -2.364606284E+01               0
GRID*               6583               0-7.499999958E+02-5.373934899E+01+
*       -1.224982995E+01               0
GRID*               6584               0-7.499999961E+02-4.866545945E+01+
*       -2.364603326E+01               0
GRID*               6585               0-7.750000068E+02-1.204557709E+01+
*       5.3327517029E+01               0
GRID*               6586               0-2.374999918E+02-4.307698256E+01+
*       -3.429405916E+01               0
GRID*               6587               0-8.625000010E+022.3542961542E+01+
*       4.9209001982E+01               0
GRID*               6588               0-8.750000008E+023.4346356561E+01+
*       4.2971671201E+01               0
GRID*               6589               0-8.750000009E+022.3542948925E+01+
*       4.9209005908E+01               0
GRID*               6590               0-7.750000037E+02-3.380622227E+01+
*       4.2641526089E+01               0
GRID*               6591               0-8.170327719E+02-1.021311764E+01+
*       -5.577925662E+01               0
GRID*               6592               0-6.000000007E+02-5.373934030E+01+
*       1.2249928776E+01               0
GRID*               6593               0-6.000000022E+02-4.866535896E+01+
*       2.3646312337E+01               0
GRID*               6594               0-6.125000021E+02-4.866536498E+01+
*       2.3646304654E+01               0
GRID*               6595               0-8.500000021E+02-1.075435213E-01+
*       5.4777176113E+01               0
GRID*               6596               0-8.500000022E+021.2298831903E+01+
*       5.3473197097E+01               0
GRID*               6597               0-8.625000021E+021.2298819285E+01+
*       5.3473201023E+01               0
GRID*               6598               0-4.875000268E+02-2.391129669E+01+
*       4.9471927879E+01               0
GRID*               6599               0-4.750000260E+02-2.391124576E+01+
*       4.9471948977E+01               0
GRID*               6600               0-4.875000282E+02-1.204687271E+01+
*       5.3326962544E+01               0
GRID*               6601               0-5.000000290E+02-1.204692364E+01+
*       5.3326941445E+01               0
GRID*               6602               0-8.500000031E+022.3542856696E+01+
*       4.9209082432E+01               0
GRID*               6603               0-4.500000042E+02-4.866533965E+01+
*       2.3646250098E+01               0
GRID*               6604               0-4.625000041E+02-4.866534419E+01+
*       2.3646244301E+01               0
GRID*               6605               0-4.250000045E+02-4.866533816E+01+
*       2.3646237402E+01               0
GRID*               6606               0-4.250000021E+02-5.373936666E+01+
*       1.2249750782E+01               0
GRID*               6607               0-8.500000010E+025.2531343387E+01+
*       -1.220210372E+01               0
GRID*               6608               0-8.375000013E+025.2531343387E+01+
*       -1.220210372E+01               0
GRID*               6609               0-8.500000006E+024.9653346717E+01+
*       -2.387823975E+01               0
GRID*               6610               0-3.250000152E+025.5125000000E+01+
*       -6.052680618E-15               0
GRID*               6611               0-3.125000156E+025.5125000000E+01+
*       -5.969697347E-15               0
GRID*               6612               0-3.250000057E+025.2531256957E+01+
*       1.2202295632E+01               0
GRID*               6613               0-3.375000149E+025.5125000000E+01+
*       -5.983182130E-15               0
GRID*               6614               0-3.500000059E+025.2531417321E+01+
*       -1.220193956E+01               0
GRID*               6615               0-3.500000146E+025.5125000000E+01+
*       -6.066165400E-15               0
GRID*               6616               0-3.375000057E+025.2531257614E+01+
*       1.2202294173E+01               0
GRID*               6617               0-7.625000103E+02-1.080780668E-01+
*       5.4777248295E+01               0
GRID*               6618               0-7.625000142E+021.2298130722E+01+
*       5.3473277418E+01               0
GRID*               6619               0-7.750000109E+021.2298354667E+01+
*       5.3473247938E+01               0
GRID*               6620               0-8.625000010E+025.5125000000E+01+
*       -6.266362555E-15               0
GRID*               6621               0-8.500000013E+025.5125000000E+01+
*       -6.335861044E-15               0
GRID*               6622               0-8.750000005E+025.2531347172E+01+
*       -1.220209532E+01               0
GRID*               6623               0-8.625000008E+025.2531347172E+01+
*       -1.220209532E+01               0
GRID*               6624               0-4.374999956E+02-5.373936312E+01+
*       2.2455416307E-01               0
GRID*               6625               0-4.374999985E+02-5.373936312E+01+
*       -1.224978010E+01               0
GRID*               6626               0-4.499999982E+02-5.373936546E+01+
*       -1.224976231E+01               0
GRID*               6627               0-3.875000136E+025.5125000000E+01+
*       -6.010151694E-15               0
GRID*               6628               0-4.375000110E+024.9653622012E+01+
*       -2.387757472E+01               0
GRID*               6629               0-4.500000107E+024.2321212271E+01+
*       -3.396979675E+01               0
GRID*               6630               0-4.125000110E+024.9653673868E+01+
*       -2.387745614E+01               0
GRID*               6631               0-4.250000116E+024.9653639757E+01+
*       -2.387753188E+01               0
GRID*               6632               0-8.375000044E+021.2298684602E+01+
*       5.3473216488E+01               0
GRID*               6633               0-8.250000056E+023.4346104987E+01+
*       4.2971864128E+01               0
GRID*               6634               0-3.124999704E+021.2300654087E+01+
*       5.3472994406E+01               0
GRID*               6635               0-8.125000044E+02-1.076871265E-01+
*       5.4777195726E+01               0
GRID*               6636               0-8.000000071E+02-1.078726286E-01+
*       5.4777220146E+01               0
GRID*               6637               0-8.125000074E+021.2298517836E+01+
*       5.3473235079E+01               0
GRID*               6638               0-6.624999889E+024.2321208645E+01+
*       3.3969793221E+01               0
GRID*               6639               0-6.749999906E+024.9653707253E+01+
*       2.3877384474E+01               0
GRID*               6640               0-6.749999889E+024.2321207748E+01+
*       3.3969794118E+01               0
GRID*               6641               0-8.000000076E+021.2298540757E+01+
*       5.3473227947E+01               0
GRID*               6642               0-3.749999729E+02-2.391125279E+01+
*       -4.947195309E+01               0
GRID*               6643               0-3.874999731E+02-2.391127549E+01+
*       -4.947193938E+01               0
GRID*               6644               0-7.250000053E+02-4.307688738E+01+
*       3.4294183633E+01               0
GRID*               6645               0-7.250000063E+02-3.380628179E+01+
*       4.2641425038E+01               0
GRID*               6646               0-7.375000062E+02-3.380629605E+01+
*       4.2641416427E+01               0
GRID*               6647               0-3.749999848E+02-3.380700916E+01+
*       -4.264065304E+01               0
GRID*               6648               0-1.874999847E+023.4345572744E+01+
*       -4.297227202E+01               0
GRID*               6649               0-1.999999834E+022.3542309250E+01+
*       -4.920956369E+01               0
GRID*               6650               0-1.999999847E+023.4345573501E+01+
*       -4.297227127E+01               0
GRID*               6651               0-7.625000076E+02-2.390962545E+01+
*       4.9472672239E+01               0
GRID*               6652               0-7.678506482E+02-1.359770437E+01+
*       5.0354764006E+01               0
GRID*               6653               0-7.678506416E+02-7.823820180E+00+
*       5.6698556172E+01               0
GRID*               6654               0-7.553506424E+02-1.968786854E+01+
*       5.2843711382E+01               0
GRID*               6655               0-7.500000100E+02-2.390977441E+01+
*       4.9472610539E+01               0
GRID*               6656               0-1.749999976E+024.2320998149E+01+
*       3.3970324415E+01               0
GRID*               6657               0-1.749999961E+024.9653360294E+01+
*       2.3878198797E+01               0
GRID*               6658               0-1.874999959E+024.9653350067E+01+
*       2.3878221504E+01               0
GRID*               6659               0-5.375000095E+024.9653460452E+01+
*       -2.387794948E+01               0
GRID*               6660               0-5.250000103E+024.9653482100E+01+
*       -2.387789721E+01               0
GRID*               6661               0-5.375000084E+024.2321155589E+01+
*       -3.396993981E+01               0
GRID*               6662               0-5.500000076E+024.2321133940E+01+
*       -3.396999207E+01               0
GRID*               6663               0-2.000000078E+025.2531290969E+01+
*       1.2202220112E+01               0
GRID*               6664               0-2.000000185E+025.5125000000E+01+
*       -5.985256707E-15               0
GRID*               6665               0-2.125000077E+025.2531281187E+01+
*       1.2202241832E+01               0
GRID*               6666               0-6.874999958E+02-5.373933254E+01+
*       2.2494364366E-01               0
GRID*               6667               0-6.875000017E+02-5.373929807E+01+
*       1.2250171082E+01               0
GRID*               6668               0-7.000000015E+02-5.373929634E+01+
*       1.2250184180E+01               0
GRID*               6669               0-6.499999958E+02-5.373936290E+01+
*       -1.224974505E+01               0
GRID*               6670               0-6.625000016E+02-5.373932880E+01+
*       -2.245147868E-01               0
GRID*               6671               0-1.999999953E+024.9653366847E+01+
*       2.3878180994E+01               0
GRID*               6672               0-2.124999951E+024.9653357065E+01+
*       2.3878202714E+01               0
GRID*               6673               0-6.000000247E+02-1.204666978E+01+
*       5.3327054021E+01               0
GRID*               6674               0-6.000000255E+02-1.090803379E-01+
*       5.4777385263E+01               0
GRID*               6675               0-6.049305792E+02-7.917788353E+00+
*       5.6260341732E+01               0
GRID*               6676               0-6.750000013E+02-5.373930549E+01+
*       1.2250130733E+01               0
GRID*               6677               0-6.875000012E+02-4.866537599E+01+
*       2.3646328055E+01               0
GRID*               6678               0-1.750000084E+025.2531301195E+01+
*       1.2202197405E+01               0
GRID*               6679               0-1.875000082E+025.2531290969E+01+
*       1.2202220112E+01               0
GRID*               6680               0-1.874999970E+024.2321014929E+01+
*       3.3970283905E+01               0
GRID*               6681               0-5.999999840E+02-3.380705218E+01+
*       -4.264059744E+01               0
GRID*               6682               0-6.124999817E+02-4.307734886E+01+
*       -3.429358070E+01               0
GRID*               6683               0-5.500000266E+02-2.391116574E+01+
*       4.9471995397E+01               0
GRID*               6684               0-5.874999841E+02-3.380706607E+01+
*       -4.264058905E+01               0
GRID*               6685               0-5.749999823E+02-3.380714145E+01+
*       -4.264049081E+01               0
GRID*               6686               0-5.874999798E+02-4.307741717E+01+
*       -3.429349149E+01               0
GRID*               6687               0-5.999999816E+02-4.307734179E+01+
*       -3.429358973E+01               0
GRID*               6688               0-1.750000192E+025.5125000000E+01+
*       -5.971771925E-15               0
GRID*               6689               0-1.875000189E+025.5125000000E+01+
*       -5.902273437E-15               0
GRID*               6690               0-5.178098990E+02-5.106928362E+01+
*       6.3860317209E+00               0
GRID*               6691               0-5.053098951E+02-5.601882740E+01+
*       6.6105483774E+00               0
GRID*               6692               0-5.178098951E+02-5.601882635E+01+
*       6.6105541022E+00               0
GRID*               6693               0-1.499999889E+02-1.066170719E-01+
*       5.4777061369E+01               0
GRID*               6694               0-1.499999880E+021.2299633626E+01+
*       5.3473107187E+01               0
GRID*               6695               0-1.624999879E+021.2299613211E+01+
*       5.3473113539E+01               0
GRID*               6696               0-5.250000261E+02-1.055219230E-01+
*       -5.477692518E+01               0
GRID*               6697               0-5.374999977E+02-1.204521075E+01+
*       -5.332764295E+01               0
GRID*               6698               0-5.499999977E+02-1.204520772E+01+
*       -5.332764313E+01               0
GRID*               6699               0-5.000000234E+02-1.057078336E-01+
*       -5.477694894E+01               0
GRID*               6700               0-5.124999886E+02-1.204579159E+01+
*       -5.332740367E+01               0
GRID*               6701               0-5.125000234E+02-1.057041204E-01+
*       -5.477694917E+01               0
GRID*               6702               0-5.625000088E+024.9653433969E+01+
*       -2.387801249E+01               0
GRID*               6703               0-5.750000067E+024.2321113172E+01+
*       -3.397004357E+01               0
GRID*               6704               0-5.750000089E+024.9653433312E+01+
*       -2.387801395E+01               0
GRID*               6705               0-5.000000258E+021.2300359160E+01+
*       -5.347303784E+01               0
GRID*               6706               0-8.875000002E+02-3.380619598E+01+
*       4.2641615609E+01               0
GRID*               6707               0-4.500000260E+023.4347822171E+01+
*       -4.297054341E+01               0
GRID*               6708               0-4.625000107E+024.2321213417E+01+
*       -3.396979560E+01               0
GRID*               6709               0-4.375000256E+023.4347802146E+01+
*       -4.297055877E+01               0
GRID*               6710               0-8.625000014E+02-1.204525903E+01+
*       5.3327651369E+01               0
GRID*               6711               0-8.750000005E+02-1.204520575E+01+
*       5.3327673438E+01               0
GRID*               6712               0-8.625000014E+02-2.390939331E+01+
*       4.9472750700E+01               0
GRID*               6713               0-8.750000005E+02-2.390934003E+01+
*       4.9472772769E+01               0
GRID*               6714               0-8.250000005E+024.2320935302E+01+
*       -3.397045657E+01               0
GRID*               6715               0-8.375000002E+024.2320928545E+01+
*       -3.397047288E+01               0
GRID*               6716               0-8.250000011E+024.9653347617E+01+
*       -2.387823644E+01               0
GRID*               6717               0-8.375000008E+024.9653340860E+01+
*       -2.387825275E+01               0
GRID*               6718               0-2.565959055E+021.3548289250E+01+
*       5.0006170398E+01               0
GRID*               6719               0-8.875000009E+024.9653323462E+01+
*       2.3878297036E+01               0
GRID*               6720               0-1.249999957E+01-1.204520572E+01+
*       -5.332767347E+01               0
GRID*               6721               0-1.249999996E+01-1.074088884E-01+
*       -5.477716352E+01               0
GRID*               6722               0-8.875000004E+02-2.390934508E+01+
*       4.9472769784E+01               0
GRID*               6723               0-8.750000003E+02-3.380619094E+01+
*       4.2641618594E+01               0
GRID*               6724               0-8.500000027E+024.2320844219E+01+
*       3.3970666020E+01               0
GRID*               6725               0-8.500000031E+024.9653281188E+01+
*       2.3878400157E+01               0
GRID*               6726               0-8.625000029E+024.9653276562E+01+
*       2.3878410428E+01               0
GRID*               6727               0-5.500000096E+024.9653455704E+01+
*       -2.387796002E+01               0
GRID*               6728               0-5.625000075E+024.2321134907E+01+
*       -3.396999110E+01               0
GRID*               6729               0-1.249999942E+011.2298911449E+01+
*       -5.347318982E+01               0
GRID*               6730               0-3.999999907E+024.2321174707E+01+
*       3.3969890643E+01               0
GRID*               6731               0-3.999999731E+022.3544122940E+01+
*       4.9208004591E+01               0
GRID*               6732               0-3.999999750E+023.4347766904E+01+
*       4.2970585288E+01               0
GRID*               6733               0-4.124999750E+023.4347765779E+01+
*       4.2970586413E+01               0
GRID*               6734               0-8.125000035E+022.3543121359E+01+
*       -4.920886235E+01               0
GRID*               6735               0-8.250000036E+021.2299149903E+01+
*       -5.347316192E+01               0
GRID*               6736               0-8.250000022E+022.3543055584E+01+
*       -4.920891282E+01               0
GRID*               6737               0-7.750000052E+022.3543170451E+01+
*       -4.920881059E+01               0
GRID*               6738               0-7.750000089E+021.2299453393E+01+
*       -5.347312752E+01               0
GRID*               6739               0-7.875000062E+021.2299272824E+01+
*       -5.347315129E+01               0
GRID*               6740               0-8.125000038E+021.2299135822E+01+
*       -5.347316630E+01               0
GRID*               6741               0-3.951013591E+02-5.116209703E+01+
*       -5.341880473E+00               0
GRID*               6742               0-3.951013655E+02-5.116210628E+01+
*       6.6833109030E+00               0
GRID*               6743               0-3.874999907E+024.2321175796E+01+
*       3.3969889554E+01               0
GRID*               6744               0-3.874999750E+023.4347767994E+01+
*       4.2970584198E+01               0
GRID*               6745               0-7.000000200E+02-1.087260494E-01+
*       5.4777335034E+01               0
GRID*               6746               0-7.125000209E+021.2297747637E+01+
*       5.3473319153E+01               0
GRID*               6747               0-7.062782845E+02-3.918139146E-01+
*       5.1787617677E+01               0
GRID*               6748               0-7.062782649E+02-6.554759539E+00+
*       5.6681593114E+01               0
GRID*               6749               0-7.187782659E+025.8517141473E+00+
*       5.5377577233E+01               0
GRID*               6750               0-7.062782790E+02-1.232913376E+01+
*       5.0337601725E+01               0
GRID*               6751               0-7.187782814E+02-3.916055813E-01+
*       5.1787590251E+01               0
GRID*               6752               0-7.250000179E+021.2297955970E+01+
*       5.3473291728E+01               0
GRID*               6753               0-2.999999797E+022.3543795585E+01+
*       4.9208267498E+01               0
GRID*               6754               0-2.999999713E+021.2300590991E+01+
*       5.3473002712E+01               0
GRID*               6755               0-2.935394673E+021.3485776093E+01+
*       5.0074876746E+01               0
GRID*               6756               0-2.935394757E+022.4728980687E+01+
*       4.5810141532E+01               0
GRID*               6757               0-2.935394929E+021.9725816012E+01+
*       5.3665353355E+01               0
GRID*               6758               0-2.999999860E+02-1.204417277E+01+
*       5.3328070694E+01               0
GRID*               6759               0-3.374999727E+02-1.054326372E-01+
*       5.4776914424E+01               0
GRID*               6760               0-7.000000211E+021.2297766578E+01+
*       5.3473313260E+01               0
GRID*               6761               0-3.374999703E+021.2300637272E+01+
*       5.3472999109E+01               0
GRID*               6762               0-3.499999702E+021.2300627597E+01+
*       5.3473002119E+01               0
GRID*               6763               0-5.443997936E+02-2.470608798E+01+
*       4.5555995095E+01               0
GRID*               6764               0-5.443997649E+02-3.079512081E+01+
*       4.8045372280E+01               0
GRID*               6765               0-2.250000055E+02-4.866538585E+01+
*       2.3646097610E+01               0
GRID*               6766               0-2.375000112E+02-4.307709667E+01+
*       3.4293910092E+01               0
GRID*               6767               0-2.375000057E+02-4.866536980E+01+
*       2.3646118099E+01               0
GRID*               6768               0-2.500000115E+02-4.307708062E+01+
*       3.4293930581E+01               0
GRID*               6769               0-7.000000113E+022.3543413068E+01+
*       -4.920859679E+01               0
GRID*               6770               0-7.000000185E+021.2300011717E+01+
*       -5.347306489E+01               0
GRID*               6771               0-7.125000154E+021.2299801243E+01+
*       -5.347309260E+01               0
GRID*               6772               0-6.750000199E+02-1.059544174E-01+
*       -5.477698192E+01               0
GRID*               6773               0-6.875000199E+02-1.059624595E-01+
*       -5.477698143E+01               0
GRID*               6774               0-2.500000095E+02-3.380674206E+01+
*       4.2640979970E+01               0
GRID*               6775               0-2.625000094E+02-3.380675789E+01+
*       4.2640970406E+01               0
GRID*               6776               0-7.125000171E+02-1.061775562E-01+
*       -5.477700730E+01               0
GRID*               6777               0-7.250000140E+02-1.063880302E-01+
*       -5.477703501E+01               0
GRID*               6778               0-7.000000192E+02-1.204387835E+01+
*       -5.332819808E+01               0
GRID*               6779               0-7.000000206E+02-2.390816563E+01+
*       -4.947324370E+01               0
GRID*               6780               0-7.125000204E+02-2.390815026E+01+
*       -4.947325298E+01               0
GRID*               6781               0-1.625000039E+02-5.373932730E+01+
*       -2.249491852E-01               0
GRID*               6782               0-1.750000044E+02-5.373935409E+01+
*       1.2249795929E+01               0
GRID*               6783               0-1.750000039E+02-5.373932746E+01+
*       -2.249483412E-01               0
GRID*               6784               0-6.374999942E+02-4.866535849E+01+
*       -2.364613488E+01               0
GRID*               6785               0-6.374999959E+02-5.373936199E+01+
*       -1.224975195E+01               0
GRID*               6786               0-1.499999988E+02-5.373928988E+01+
*       -1.225022574E+01               0
GRID*               6787               0-1.624999986E+02-5.373929129E+01+
*       -1.225021504E+01               0
GRID*               6788               0-1.624999993E+02-4.866538226E+01+
*       -2.364634090E+01               0
GRID*               6789               0-1.749999986E+02-5.373929145E+01+
*       -1.225021420E+01               0
GRID*               6790               0-9.999999739E+01-3.380620628E+01+
*       -4.264156206E+01               0
GRID*               6791               0-8.749999759E+01-3.380622753E+01+
*       -4.264154922E+01               0
GRID*               6792               0-7.499999836E+01-3.380619693E+01+
*       -4.264158910E+01               0
GRID*               6793               0-8.749999875E+01-4.307673809E+01+
*       -3.429437852E+01               0
GRID*               6794               0-9.999999797E+01-4.307676869E+01+
*       -3.429433864E+01               0
GRID*               6795               0-6.250000248E+02-1.056076443E-01+
*       -5.477693759E+01               0
GRID*               6796               0-6.250000269E+021.2300492503E+01+
*       -5.347301262E+01               0
GRID*               6797               0-7.499999685E+01-2.390944603E+01+
*       -4.947273475E+01               0
GRID*               6798               0-8.060288133E+01-2.212995195E+01+
*       -5.222688933E+01               0
GRID*               6799               0-8.060287891E+01-1.603948392E+01+
*       -4.973807963E+01               0
GRID*               6800               0-7.103616864E+01-1.377533460E+01+
*       -4.977135568E+01               0
GRID*               6801               0-7.103617105E+01-1.986580263E+01+
*       -5.226016537E+01               0
GRID*               6802               0-7.663905312E+01-1.199584052E+01+
*       -5.252551026E+01               0
GRID*               6803               0-1.124999979E+02-4.307676524E+01+
*       -3.429434304E+01               0
GRID*               6804               0-4.999999694E+012.3542856696E+01+
*       -4.920908243E+01               0
GRID*               6805               0-3.926130842E+012.6319137979E+01+
*       -4.538488451E+01               0
GRID*               6806               0-3.926131111E+012.1317326553E+01+
*       -5.323915248E+01               0
GRID*               6807               0-2.676131133E+013.2120721572E+01+
*       -4.700182170E+01               0
GRID*               6808               0-6.500000096E+02-4.307704272E+01+
*       3.4293980764E+01               0
GRID*               6809               0-6.375000201E+02-2.391048440E+01+
*       4.9472308855E+01               0
GRID*               6810               0-6.375000117E+02-3.380653258E+01+
*       4.2641110446E+01               0
GRID*               6811               0-6.500000205E+02-2.391044769E+01+
*       4.9472331025E+01               0
GRID*               6812               0-8.749999665E+01-2.390942478E+01+
*       -4.947274758E+01               0
GRID*               6813               0-2.499999936E+011.2298916272E+01+
*       -5.347318826E+01               0
GRID*               6814               0-3.749999788E+011.2298819285E+01+
*       -5.347320102E+01               0
GRID*               6815               0-3.749999934E+01-1.074465346E-01+
*       -5.477716335E+01               0
GRID*               6816               0-4.999999787E+01-1.075435213E-01+
*       -5.477717611E+01               0
GRID*               6817               0-3.749999990E+02-5.373935773E+01+
*       -1.224981950E+01               0
GRID*               6818               0-6.000000264E+02-1.054917318E-01+
*       -5.477692241E+01               0
GRID*               6819               0-5.749999868E+024.2321267183E+01+
*       3.3969656171E+01               0
GRID*               6820               0-5.749999884E+024.9653768911E+01+
*       2.3877236812E+01               0
GRID*               6821               0-5.874999886E+024.9653773444E+01+
*       2.3877226748E+01               0
GRID*               6822               0-3.625000055E+025.2531262361E+01+
*       1.2202283632E+01               0
GRID*               6823               0-3.749999896E+024.9653482100E+01+
*       2.3877897213E+01               0
GRID*               6824               0-3.624999904E+024.9653460452E+01+
*       2.3877949476E+01               0
GRID*               6825               0-3.625000112E+024.9653744389E+01+
*       -2.387729404E+01               0
GRID*               6826               0-6.125000257E+02-1.090898972E-01+
*       5.4777386521E+01               0
GRID*               6827               0-6.250000257E+02-1.090949244E-01+
*       5.4777386219E+01               0
GRID*               6828               0-6.174305792E+02-7.917793381E+00+
*       5.6260341430E+01               0
GRID*               6829               0-3.875000054E+025.2531272046E+01+
*       1.2202262127E+01               0
GRID*               6830               0-3.875000064E+025.2531375303E+01+
*       -1.220203286E+01               0
GRID*               6831               0-4.000000116E+024.9653689491E+01+
*       -2.387741843E+01               0
GRID*               6832               0-7.875000030E+025.5125000000E+01+
*       -6.225908209E-15               0
GRID*               6833               0-8.000000026E+025.5125000000E+01+
*       -6.308891479E-15               0
GRID*               6834               0-8.000000021E+025.2531370717E+01+
*       1.2202043041E+01               0
GRID*               6835               0-7.750000033E+025.5125000000E+01+
*       -6.295406697E-15               0
GRID*               6836               0-7.875000024E+025.2531370717E+01+
*       1.2202043041E+01               0
GRID*               6837               0-7.625000036E+025.5125000000E+01+
*       -6.212423426E-15               0
GRID*               6838               0-7.750000025E+025.2531321136E+01+
*       -1.220215313E+01               0
GRID*               6839               0-7.875000023E+025.2531329983E+01+
*       -1.220213349E+01               0
GRID*               6840               0-7.500000032E+025.2531391632E+01+
*       1.2201996601E+01               0
GRID*               6841               0-7.500000040E+025.5125000000E+01+
*       -6.281921915E-15               0
GRID*               6842               0-7.625000030E+025.2531380851E+01+
*       1.2202020540E+01               0
GRID*               6843               0-7.750000026E+025.2531380851E+01+
*       1.2202020540E+01               0
GRID*               6844               0-6.250000267E+021.2297390868E+01+
*       5.3473361488E+01               0
GRID*               6845               0-6.125000019E+022.3543078774E+01+
*       4.9208965735E+01               0
GRID*               6846               0-6.125000265E+021.2297400427E+01+
*       5.3473360230E+01               0
GRID*               6847               0-6.250000021E+022.3543102061E+01+
*       4.9208958490E+01               0
GRID*               6848               0-5.625000242E+022.3543985732E+01+
*       -4.920811527E+01               0
GRID*               6849               0-5.750000224E+022.3543888638E+01+
*       -4.920818977E+01               0
GRID*               6850               0-5.625000223E+023.4347620962E+01+
*       -4.297069655E+01               0
GRID*               6851               0-5.750000205E+023.4347523868E+01+
*       -4.297077105E+01               0
GRID*               6852               0-2.874999736E+02-1.054921038E-01+
*       5.4776922384E+01               0
GRID*               6853               0-2.874999714E+021.2300608043E+01+
*       5.3472997407E+01               0
GRID*               6854               0-8.875000002E+024.9653352975E+01+
*       -2.387823258E+01               0
GRID*               6855               0-8.250000053E+02-2.390903269E+01+
*       -4.947289666E+01               0
GRID*               6856               0-5.500000242E+022.3543976057E+01+
*       -4.920811828E+01               0
GRID*               6857               0-5.625000297E+021.2300637272E+01+
*       -5.347299911E+01               0
GRID*               6858               0-3.499999903E+024.9653455704E+01+
*       2.3877960017E+01               0
GRID*               6859               0-3.374999911E+024.9653433969E+01+
*       2.3878012488E+01               0
GRID*               6860               0-3.249999910E+024.9653433312E+01+
*       2.3878013947E+01               0
GRID*               6861               0-4.999999976E+02-5.373936735E+01+
*       -1.224974222E+01               0
GRID*               6862               0-5.124999975E+02-5.373936542E+01+
*       -1.224975271E+01               0
GRID*               6863               0-5.374999947E+02-4.866534010E+01+
*       -2.364619430E+01               0
GRID*               6864               0-5.374999970E+02-5.373936960E+01+
*       -1.224972095E+01               0
GRID*               6865               0-5.499999969E+02-5.373936739E+01+
*       -1.224973294E+01               0
GRID*               6866               0-7.625000029E+025.2531321136E+01+
*       -1.220215313E+01               0
GRID*               6867               0-5.249999972E+02-5.373936757E+01+
*       -1.224973633E+01               0
GRID*               6868               0-5.250000036E+02-5.373935383E+01+
*       -2.245435896E-01               0
GRID*               6869               0-4.499999723E+022.3544210547E+01+
*       4.9207951086E+01               0
GRID*               6870               0-4.375000187E+02-3.380722050E+01+
*       4.2640408672E+01               0
GRID*               6871               0-4.500000240E+02-2.391113219E+01+
*       4.9471994615E+01               0
GRID*               6872               0-4.500000180E+02-3.380719200E+01+
*       4.2640445812E+01               0
GRID*               6873               0-8.125000023E+025.5125000000E+01+
*       -6.239392991E-15               0
GRID*               6874               0-8.250000020E+025.5125000000E+01+
*       -6.322376262E-15               0
GRID*               6875               0-8.250000015E+025.2531361838E+01+
*       1.2202062755E+01               0
GRID*               6876               0-8.249999992E+02-5.373931148E+01+
*       -1.225010412E+01               0
GRID*               6877               0-8.250000001E+02-5.373930641E+01+
*       -2.245347927E-01               0
GRID*               6878               0-8.375000000E+02-5.373930580E+01+
*       -2.245301691E-01               0
GRID*               6879               0-8.500000012E+02-5.373929257E+01+
*       -1.225024554E+01               0
GRID*               6880               0-8.625000000E+02-5.373930440E+01+
*       -2.245328934E-01               0
GRID*               6881               0-8.625000007E+02-5.373929756E+01+
*       -1.225020764E+01               0
GRID*               6882               0-4.125000245E+023.4347738609E+01+
*       -4.297060780E+01               0
GRID*               6883               0-4.250000114E+024.2321228861E+01+
*       -3.396975506E+01               0
GRID*               6884               0-8.500000002E+02-5.373929987E+01+
*       1.2250179462E+01               0
GRID*               6885               0-8.500000000E+02-5.373930478E+01+
*       -2.245357411E-01               0
GRID*               6886               0-8.375000016E+02-4.866540483E+01+
*       -2.364642153E+01               0
GRID*               6887               0-8.500000015E+02-4.866539315E+01+
*       -2.364643644E+01               0
GRID*               6888               0-4.124999930E+02-1.077869424E-01+
*       -5.477722000E+01               0
GRID*               6889               0-4.249999718E+02-1.204686758E+01+
*       -5.332696285E+01               0
GRID*               6890               0-4.250000036E+02-1.070663057E-01+
*       -5.477712513E+01               0
GRID*               6891               0-7.625000102E+02-3.380583988E+01+
*       -4.264211250E+01               0
GRID*               6892               0-7.500000102E+02-3.380583521E+01+
*       -4.264211859E+01               0
GRID*               6893               0-7.625000102E+02-4.307633789E+01+
*       -3.429490126E+01               0
GRID*               6894               0-4.375000114E+024.2321230016E+01+
*       -3.396975391E+01               0
GRID*               6895               0-6.125000264E+02-1.054921038E-01+
*       -5.477692238E+01               0
GRID*               6896               0-4.750000039E+02-4.866534185E+01+
*       2.3646262090E+01               0
GRID*               6897               0-7.625000112E+02-1.204444039E+01+
*       -5.332797679E+01               0
GRID*               6898               0-7.500000144E+02-1.204423479E+01+
*       -5.332806196E+01               0
GRID*               6899               0-7.625000151E+02-2.390844662E+01+
*       -4.947313545E+01               0
GRID*               6900               0-7.750000119E+02-2.390865222E+01+
*       -4.947305029E+01               0
GRID*               6901               0-7.750000100E+02-3.380582677E+01+
*       -4.264212042E+01               0
GRID*               6902               0-4.499999740E+023.4347822171E+01+
*       4.2970543409E+01               0
GRID*               6903               0-4.624999885E+024.2321230016E+01+
*       3.3969753908E+01               0
GRID*               6904               0-4.624999744E+023.4347802146E+01+
*       4.2970558775E+01               0
GRID*               6905               0-4.250000064E+025.2531341192E+01+
*       -1.220210860E+01               0
GRID*               6906               0-7.000000101E+023.4346958594E+01+
*       -4.297120419E+01               0
GRID*               6907               0-7.125000111E+022.3543434300E+01+
*       -4.920859019E+01               0
GRID*               6908               0-7.750000103E+02-1.080811863E-01+
*       5.4777248108E+01               0
GRID*               6909               0-7.678506516E+02-1.660208467E+00+
*       5.1804495085E+01               0
GRID*               6910               0-6.875000186E+021.2299990366E+01+
*       -5.347307153E+01               0
GRID*               6911               0-6.875000134E+022.3543527416E+01+
*       -4.920850905E+01               0
GRID*               6912               0-4.625000109E+024.9653571723E+01+
*       -2.387769013E+01               0
GRID*               6913               0-2.499999961E+014.9653346315E+01+
*       2.3878241453E+01               0
GRID*               6914               0-2.500001144E+015.2531347172E+01+
*       1.2202095320E+01               0
GRID*               6915               0-3.750001128E+015.2531343387E+01+
*       1.2202103723E+01               0
GRID*               6916               0-3.749999944E+014.9653342530E+01+
*       2.3878249856E+01               0
GRID*               6917               0-6.875000101E+023.4346958541E+01+
*       -4.297120424E+01               0
GRID*               6918               0-4.625000116E+025.5125000000E+01+
*       -6.050606040E-15               0
GRID*               6919               0-4.750000055E+025.2531341192E+01+
*       1.2202108597E+01               0
GRID*               6920               0-4.625000058E+025.2531341192E+01+
*       1.2202108597E+01               0
GRID*               6921               0-5.625000209E+021.2297676987E+01+
*       5.3473335372E+01               0
GRID*               6922               0-5.749999864E+022.3543861461E+01+
*       4.9208346438E+01               0
GRID*               6923               0-5.500000204E+021.2297614744E+01+
*       5.3473354737E+01               0
GRID*               6924               0-5.624999858E+022.3543799218E+01+
*       4.9208365804E+01               0
GRID*               6925               0-5.500000206E+02-1.087290026E-01+
*       5.4777341011E+01               0
GRID*               6926               0-3.999999730E+02-2.391128238E+01+
*       -4.947193652E+01               0
GRID*               6927               0-3.624999845E+02-3.380697625E+01+
*       -4.264067292E+01               0
GRID*               6928               0-3.499999967E+02-5.373934932E+01+
*       2.2453810317E-01               0
GRID*               6929               0-3.500000031E+02-5.373936739E+01+
*       1.2249732937E+01               0
GRID*               6930               0-3.250000177E+02-3.380714145E+01+
*       4.2640490809E+01               0
GRID*               6931               0-3.375000002E+02-2.390958398E+01+
*       4.9472641593E+01               0
GRID*               6932               0-5.000000162E+02-3.380708478E+01+
*       4.2640570361E+01               0
GRID*               6933               0-5.000000270E+02-2.391128238E+01+
*       4.9471936524E+01               0
GRID*               6934               0-5.125000269E+02-2.391127549E+01+
*       4.9471939379E+01               0
GRID*               6935               0-4.875000187E+02-4.307735954E+01+
*       3.4293566787E+01               0
GRID*               6936               0-5.000000186E+02-4.307736465E+01+
*       3.4293560259E+01               0
GRID*               6937               0-5.125000290E+02-1.204692888E+01+
*       5.3326941131E+01               0
GRID*               6938               0-3.500000023E+02-1.204520772E+01+
*       5.3327643132E+01               0
GRID*               6939               0-3.624999740E+02-1.055188887E-01+
*       5.4776925363E+01               0
GRID*               6940               0-3.625000023E+02-1.204521075E+01+
*       5.3327642950E+01               0
GRID*               6941               0-3.749999739E+02-1.055219230E-01+
*       5.4776925181E+01               0
GRID*               6942               0-4.375000044E+02-4.866534196E+01+
*       2.3646232558E+01               0
GRID*               6943               0-4.375000020E+02-5.373936777E+01+
*       1.2249744768E+01               0
GRID*               6944               0-2.749999927E+024.9653398738E+01+
*       2.3878098968E+01               0
GRID*               6945               0-2.750000064E+025.2531264971E+01+
*       1.2202277837E+01               0
GRID*               6946               0-2.875000064E+025.2531259635E+01+
*       1.2202289684E+01               0
GRID*               6947               0-2.874999926E+024.9653393402E+01+
*       2.3878110814E+01               0
GRID*               6948               0-2.625000068E+025.2531264971E+01+
*       1.2202277837E+01               0
GRID*               6949               0-3.249999744E+02-2.391102821E+01+
*       -4.947206099E+01               0
GRID*               6950               0-3.249999857E+02-4.307721126E+01+
*       -3.429376062E+01               0
GRID*               6951               0-3.374999856E+02-4.307720527E+01+
*       -3.429376828E+01               0
GRID*               6952               0-3.374999972E+02-4.866535733E+01+
*       -2.364628648E+01               0
GRID*               6953               0-3.499999992E+02-5.373935330E+01+
*       -1.224984855E+01               0
GRID*               6954               0-3.499999972E+02-4.866535133E+01+
*       -2.364629413E+01               0
GRID*               6955               0-2.499999795E+02-2.391044769E+01+
*       -4.947233102E+01               0
GRID*               6956               0-2.624999883E+02-3.380653258E+01+
*       -4.264111045E+01               0
GRID*               6957               0-2.624999799E+02-2.391048440E+01+
*       -4.947230885E+01               0
GRID*               6958               0-2.749999887E+02-3.380656928E+01+
*       -4.264108828E+01               0
GRID*               6959               0-1.750000046E+02-4.866543921E+01+
*       2.3646040611E+01               0
GRID*               6960               0-1.874999976E+02-4.307661266E+01+
*       3.4294542338E+01               0
GRID*               6961               0-1.875000050E+02-4.866540709E+01+
*       2.3646081617E+01               0
GRID*               6962               0-1.999999980E+02-4.307658054E+01+
*       3.4294583344E+01               0
GRID*               6963               0-2.124999967E+02-3.380618684E+01+
*       4.2641692304E+01               0
GRID*               6964               0-2.250000041E+02-3.380649480E+01+
*       4.2641290958E+01               0
GRID*               6965               0-2.499999754E+02-1.090289182E-01+
*       -5.477737660E+01               0
GRID*               6966               0-2.624999776E+02-1.204653577E+01+
*       -5.332711302E+01               0
GRID*               6967               0-2.624999754E+02-1.090240882E-01+
*       -5.477737689E+01               0
GRID*               6968               0-2.749999776E+02-1.204653094E+01+
*       -5.332711331E+01               0
GRID*               6969               0-2.499999801E+02-1.204637658E+01+
*       -5.332717896E+01               0
GRID*               6970               0-1.749999918E+02-3.380593945E+01+
*       4.2641992824E+01               0
GRID*               6971               0-1.874999796E+02-2.390815026E+01+
*       4.9473252985E+01               0
GRID*               6972               0-1.874999917E+02-3.380595482E+01+
*       4.2641983540E+01               0
GRID*               6973               0-9.999999975E+01-4.866538607E+01+
*       -2.364635925E+01               0
GRID*               6974               0-1.124999996E+02-4.866538710E+01+
*       -2.364635138E+01               0
GRID*               6975               0-3.749999994E+01-4.866539079E+01+
*       -2.364636231E+01               0
GRID*               6976               0-3.749999993E+01-5.373930278E+01+
*       -1.225016368E+01               0
GRID*               6977               0-4.999999984E+01-5.373929987E+01+
*       -1.225017946E+01               0
GRID*               6978               0-2.874999754E+02-1.204667481E+01+
*       -5.332705372E+01               0
GRID*               6979               0-2.999999753E+02-1.204666978E+01+
*       -5.332705402E+01               0
GRID*               6980               0-1.249999897E+02-1.080811863E-01+
*       -5.477724811E+01               0
GRID*               6981               0-1.374999908E+02-1.204572605E+01+
*       -5.332745533E+01               0
GRID*               6982               0-1.499999908E+02-1.204572293E+01+
*       -5.332745552E+01               0
GRID*               6983               0-7.000000145E+02-1.204604589E+01+
*       5.3327319082E+01               0
GRID*               6984               0-1.249999925E+02-2.390964479E+01+
*       -4.947266056E+01               0
GRID*               6985               0-1.249999932E+02-1.204557709E+01+
*       -5.332751703E+01               0
GRID*               6986               0-1.176598230E+02-1.716386123E+01+
*       -4.949522010E+01               0
GRID*               6987               0-1.176598295E+02-1.138997704E+01+
*       -5.583901227E+01               0
GRID*               6988               0-2.000000092E+024.2321160394E+01+
*       -3.396990726E+01               0
GRID*               6989               0-1.930767441E+024.2041394787E+01+
*       -3.000687838E+01               0
GRID*               6990               0-1.930767197E+023.4065807894E+01+
*       -3.900924238E+01               0
GRID*               6991               0-1.930767350E+023.9868076475E+01+
*       -4.062565318E+01               0
GRID*               6992               0-2.125000092E+024.2321161224E+01+
*       -3.396990643E+01               0
GRID*               6993               0-2.124999833E+022.3542321558E+01+
*       -4.920955986E+01               0
GRID*               6994               0-6.249999784E+01-1.075419527E-01+
*       -5.477717621E+01               0
GRID*               6995               0-5.853616936E+01-1.837536333E+00+
*       -5.122091505E+01               0
GRID*               6996               0-7.103617132E+01-8.001696822E+00+
*       -5.611504746E+01               0
GRID*               6997               0-5.853617135E+01-8.001698390E+00+
*       -5.611504737E+01               0
GRID*               6998               0-9.999999151E+01-4.307640823E+01+
*       3.4294809522E+01               0
GRID*               6999               0-9.999999168E+01-3.380588381E+01+
*       4.2642038074E+01               0
GRID*               7000               0-1.124999916E+02-3.380589526E+01+
*       4.2642031153E+01               0
GRID*               7001               0-8.749999164E+01-4.307639888E+01+
*       3.4294821450E+01               0
GRID*               7002               0-7.499999408E+01-4.307650150E+01+
*       3.4294687711E+01               0
GRID*               7003               0-8.749999412E+01-3.380598643E+01+
*       4.2641904334E+01               0
GRID*               7004               0-1.000000022E+02-4.866544976E+01+
*       2.3646139303E+01               0
GRID*               7005               0-1.124999899E+02-4.307633973E+01+
*       3.4294898791E+01               0
GRID*               7006               0-1.499999937E+023.4346746049E+01+
*       4.2971367598E+01               0
GRID*               7007               0-1.624999976E+024.2320997141E+01+
*       3.3970325423E+01               0
GRID*               7008               0-1.624999938E+023.4346747057E+01+
*       4.2971366589E+01               0
GRID*               7009               0-1.749999919E+023.4346848901E+01+
*       4.2971288444E+01               0
GRID*               7010               0-8.667629622E+02-5.012403895E+01+
*       -2.547216149E+01               0
GRID*               7011               0-8.792629621E+02-5.012402901E+01+
*       -2.547217418E+01               0
GRID*               7012               0-8.792629620E+02-5.519793772E+01+
*       -1.407597407E+01               0
GRID*               7013               0-8.625000009E+02-4.866539814E+01+
*       -2.364639855E+01               0
GRID*               7014               0-8.750000007E+02-5.373929692E+01+
*       -1.225021113E+01               0
GRID*               7015               0-8.792629628E+02-5.024839926E+01+
*       -1.385148968E+01               0
GRID*               7016               0-1.374999982E+024.2320979970E+01+
*       3.3970364044E+01               0
GRID*               7017               0-1.249999987E+024.2320966615E+01+
*       3.3970396284E+01               0
GRID*               7018               0-1.374999974E+024.9653341975E+01+
*       2.3878244997E+01               0
GRID*               7019               0-1.499999969E+024.9653355330E+01+
*       2.3878212758E+01               0
GRID*               7020               0-7.499999422E+01-3.380597697E+01+
*       4.2641910050E+01               0
GRID*               7021               0-4.999999724E+01-1.204506025E+01+
*       5.3327741055E+01               0
GRID*               7022               0-4.999999814E+01-1.073291605E-01+
*       5.4777143731E+01               0
GRID*               7023               0-6.249999634E+01-1.072099734E-01+
*       5.4777128041E+01               0
GRID*               7024               0-6.249999815E+011.2299030716E+01+
*       5.3473177613E+01               0
GRID*               7025               0-7.499999635E+011.2299149903E+01+
*       5.3473161923E+01               0
GRID*               7026               0-7.499999461E+01-1.204491036E+01+
*       5.3327806409E+01               0
GRID*               7027               0-7.499999628E+01-1.072191969E-01+
*       5.4777127487E+01               0
GRID*               7028               0-8.011116038E+01-1.264478909E+01+
*       5.0274671180E+01               0
GRID*               7029               0-8.011116525E+01-6.871646182E+00+
*       5.6618169488E+01               0
GRID*               7030               0-8.011116206E+01-7.070979233E-01+
*       5.1723992257E+01               0
GRID*               7031               0-8.011116535E+01-1.873576851E+01+
*       5.2763259736E+01               0
GRID*               7032               0-9.261116532E+01-6.871640055E+00+
*       5.6618169856E+01               0
GRID*               7033               0-6.249999478E+01-2.390902555E+01+
*       4.9472900974E+01               0
GRID*               7034               0-7.499999471E+01-2.390903269E+01+
*       4.9472896658E+01               0
GRID*               7035               0-2.499999963E+012.3542992599E+01+
*       4.9208969191E+01               0
GRID*               7036               0-2.499999964E+013.4346403273E+01+
*       4.2971636286E+01               0
GRID*               7037               0-1.249999953E+01-1.073853219E-01+
*       5.4777155136E+01               0
GRID*               7038               0-6.310458309E+00-1.408789709E+01+
*       4.9966476324E+01               0
GRID*               7039               0-6.310458309E+00-8.314407437E+00+
*       5.6310102237E+01               0
GRID*               7040               0-1.881045784E+01-2.150085292E+00+
*       5.1415948993E+01               0
GRID*               7041               0-1.249999966E+012.3542994801E+01+
*       4.9208968568E+01               0
GRID*               7042               0-1.249999996E+011.2298947863E+01+
*       5.3473190670E+01               0
GRID*               7043               0-1.250001177E+015.2531347172E+01+
*       1.2202095320E+01               0
GRID*               7044               0-1.249999985E+014.9653352975E+01+
*       2.3878232582E+01               0
GRID*               7045               0-1.249999924E+01-2.390928673E+01+
*       4.9472793951E+01               0
GRID*               7046               0-2.499999921E+01-2.390928805E+01+
*       4.9472793095E+01               0
GRID*               7047               0-8.917629621E+02-5.519793760E+01+
*       -1.407597498E+01               0
GRID*               7048               0-8.875000000E+02-4.866539767E+01+
*       -2.364635082E+01               0
GRID*               7049               0-8.917629621E+02-5.024840873E+01+
*       -1.385142927E+01               0
GRID*               7050               0-2.499999904E+01-3.380615806E+01+
*       4.2641665896E+01               0
GRID*               7051               0-8.250000015E+025.2531337531E+01+
*       -1.220211673E+01               0
GRID*               7052               0-1.249999976E+014.2320916899E+01+
*       3.3970490471E+01               0
GRID*               7053               0-8.750000003E+024.9653346315E+01+
*       -2.387824145E+01               0
GRID*               7054               0-8.625000008E+025.2531350176E+01+
*       1.2202088649E+01               0
GRID*               7055               0-8.750000011E+024.9653325106E+01+
*       2.3878293235E+01               0
GRID*               7056               0-8.625000004E+024.9653342530E+01+
*       -2.387824986E+01               0
GRID*               7057               0-8.750000005E+025.2531350176E+01+
*       1.2202088649E+01               0
GRID*               7058               0-2.875000162E+025.5125000000E+01+
*       -5.956212565E-15               0
GRID*               7059               0-3.000000159E+025.5125000000E+01+
*       -6.039195836E-15               0
GRID*               7060               0-3.000000062E+025.2531432048E+01+
*       -1.220190686E+01               0
GRID*               7061               0-3.125000063E+025.2531427516E+01+
*       -1.220191693E+01               0
GRID*               7062               0-1.249999907E+01-4.307666824E+01+
*       3.4294469786E+01               0
GRID*               7063               0-2.499999904E+01-4.307667263E+01+
*       3.4294464113E+01               0
GRID*               7064               0-8.749999561E+01-1.076871265E-01+
*       -5.477719573E+01               0
GRID*               7065               0-8.060287743E+01-4.101832955E+00+
*       -5.118765840E+01               0
GRID*               7066               0-9.310287712E+01-1.603959385E+01+
*       -4.973803410E+01               0
GRID*               7067               0-9.310288157E+01-1.026584402E+01+
*       -5.608177155E+01               0
GRID*               7068               0-7.500000140E+023.4345645954E+01+
*       4.2972216004E+01               0
GRID*               7069               0-7.374999974E+024.2320983736E+01+
*       3.3970332672E+01               0
GRID*               7070               0-7.374999946E+024.9653560662E+01+
*       2.3877732602E+01               0
GRID*               7071               0-7.750000036E+024.9653309806E+01+
*       2.3878336117E+01               0
GRID*               7072               0-7.625000026E+024.2320848563E+01+
*       3.3970658043E+01               0
GRID*               7073               0-4.999999715E+014.2320844219E+01+
*       -3.397066602E+01               0
GRID*               7074               0-4.999999719E+013.4346251894E+01+
*       -4.297175147E+01               0
GRID*               7075               0-1.249999976E+01-3.380619598E+01+
*       -4.264161561E+01               0
GRID*               7076               0-1.250000003E+01-4.307671470E+01+
*       -3.429441535E+01               0
GRID*               7077               0-2.499999979E+01-4.307670724E+01+
*       -3.429441888E+01               0
GRID*               7078               0-9.999999286E+01-1.078726286E-01+
*       -5.477722015E+01               0
GRID*               7079               0-9.999999243E+011.2298540757E+01+
*       -5.347322795E+01               0
GRID*               7080               0-1.072425140E+028.5796497742E-01+
*       -5.172926589E+01               0
GRID*               7081               0-1.072425204E+027.1005528044E+00+
*       -5.531936242E+01               0
GRID*               7082               0-1.072425208E+02-5.305860582E+00+
*       -5.662335462E+01               0
GRID*               7083               0-1.249999994E+012.3543002011E+01+
*       -4.920897087E+01               0
GRID*               7084               0-8.625000009E+024.2320892763E+01+
*       3.3970548828E+01               0
GRID*               7085               0-1.426131129E+013.2120721675E+01+
*       -4.700182162E+01               0
GRID*               7086               0-2.676131123E+012.1317313936E+01+
*       -5.323915641E+01               0
GRID*               7087               0-8.750000009E+024.2320892583E+01+
*       3.3970549007E+01               0
GRID*               7088               0-8.750000004E+022.3542992599E+01+
*       -4.920896919E+01               0
GRID*               7089               0-8.875000000E+021.2298947863E+01+
*       -5.347319067E+01               0
GRID*               7090               0-8.938955791E+021.3797384771E+01+
*       -4.923380975E+01               0
GRID*               7091               0-8.813955795E+022.5041429507E+01+
*       -4.496958827E+01               0
GRID*               7092               0-8.813955792E+022.0039442892E+01+
*       -5.282398171E+01               0
GRID*               7093               0-8.875000009E+023.4346356663E+01+
*       4.2971671119E+01               0
GRID*               7094               0-8.875000004E+02-1.204520572E+01+
*       5.3327673469E+01               0
GRID*               7095               0-8.375000012E+02-5.373929359E+01+
*       -1.225023996E+01               0
GRID*               7096               0-8.249999996E+02-4.866542271E+01+
*       -2.364628569E+01               0
GRID*               7097               0-8.250000059E+02-4.307650150E+01+
*       -3.429468771E+01               0
GRID*               7098               0-2.750000166E+025.5125000000E+01+
*       -6.025711054E-15               0
GRID*               7099               0-2.875000065E+025.2531432048E+01+
*       -1.220190686E+01               0
GRID*               7100               0-8.000000085E+02-4.307640823E+01+
*       -3.429480952E+01               0
GRID*               7101               0-8.124999997E+02-4.866543206E+01+
*       -2.364627376E+01               0
GRID*               7102               0-8.125000084E+02-4.307639888E+01+
*       -3.429482145E+01               0
GRID*               7103               0-1.374999887E+02-1.066479202E-01+
*       5.4777059516E+01               0
GRID*               7104               0-1.249999916E+02-1.068470844E-01+
*       5.4777085734E+01               0
GRID*               7105               0-1.374999910E+021.2299434462E+01+
*       5.3473133406E+01               0
GRID*               7106               0-8.000000051E+02-2.390953471E+01+
*       4.9472702049E+01               0
GRID*               7107               0-7.000000010E+02-4.866537427E+01+
*       2.3646341153E+01               0
GRID*               7108               0-7.125000010E+02-4.866537927E+01+
*       2.3646334766E+01               0
GRID*               7109               0-7.125000010E+02-5.373932043E+01+
*       -2.245172907E-01               0
GRID*               7110               0-7.125000013E+02-5.373929477E+01+
*       1.2250196134E+01               0
GRID*               7111               0-3.625000142E+025.5125000000E+01+
*       -5.996666912E-15               0
GRID*               7112               0-3.750000052E+025.2531262361E+01+
*       1.2202283632E+01               0
GRID*               7113               0-8.375000027E+024.2320844510E+01+
*       3.3970665728E+01               0
GRID*               7114               0-6.750000090E+02-3.380639153E+01+
*       4.2641280971E+01               0
GRID*               7115               0-8.125000062E+022.3542751154E+01+
*       4.9209182419E+01               0
GRID*               7116               0-8.125000086E+023.4345938613E+01+
*       4.2971991789E+01               0
GRID*               7117               0-8.250000044E+024.2320800221E+01+
*       3.3970772650E+01               0
GRID*               7118               0-8.000000092E+022.3542584780E+01+
*       4.9209310079E+01               0
GRID*               7119               0-7.125000054E+02-4.307688238E+01+
*       3.4294190021E+01               0
GRID*               7120               0-4.749999882E+024.9653639757E+01+
*       2.3877531882E+01               0
GRID*               7121               0-4.875000062E+025.2531375303E+01+
*       1.2202032858E+01               0
GRID*               7122               0-4.874999889E+024.9653673868E+01+
*       2.3877456142E+01               0
GRID*               7123               0-8.250000050E+024.9653243935E+01+
*       2.3878491455E+01               0
GRID*               7124               0-8.281087591E+024.6974494476E+01+
*       2.2535335954E+01               0
GRID*               7125               0-8.281087546E+024.4801530504E+01+
*       3.3153251203E+01               0
GRID*               7126               0-8.281087552E+025.2133974218E+01+
*       2.3060970009E+01               0
GRID*               7127               0-7.250000008E+02-4.866537770E+01+
*       2.3646346719E+01               0
GRID*               7128               0-8.792629630E+02-4.465968369E+01+
*       -2.449954256E+01               0
GRID*               7129               0-8.125000044E+024.2320800618E+01+
*       3.3970772253E+01               0
GRID*               7130               0-8.000000047E+024.2320791105E+01+
*       3.3970795217E+01               0
GRID*               7131               0-8.125000053E+024.9653234422E+01+
*       2.3878514420E+01               0
GRID*               7132               0-8.125000019E+025.2531361838E+01+
*       1.2202062755E+01               0
GRID*               7133               0-6.750000122E+023.4347072889E+01+
*       -4.297111650E+01               0
GRID*               7134               0-6.750000036E+024.2321033435E+01+
*       -3.397023968E+01               0
GRID*               7135               0-6.875000029E+024.2321015251E+01+
*       -3.397028358E+01               0
GRID*               7136               0-7.500000144E+021.2298155957E+01+
*       5.3473269567E+01               0
GRID*               7137               0-7.375000118E+02-1.204588438E+01+
*       5.3327388639E+01               0
GRID*               7138               0-8.750000006E+021.2298916272E+01+
*       5.3473188255E+01               0
GRID*               7139               0-8.875000001E+021.2298954888E+01+
*       5.3473188484E+01               0
GRID*               7140               0-8.875000000E+02-1.074088884E-01+
*       5.4777163516E+01               0
GRID*               7141               0-8.750000006E+02-1.074475047E-01+
*       5.4777163287E+01               0
GRID*               7142               0-6.750000054E+024.9653375249E+01+
*       -2.387815882E+01               0
GRID*               7143               0-6.875000047E+024.9653357065E+01+
*       -2.387820271E+01               0
GRID*               7144               0-6.625000056E+024.9653366407E+01+
*       -2.387817845E+01               0
GRID*               7145               0-6.625000036E+024.2321033077E+01+
*       -3.397024004E+01               0
GRID*               7146               0-8.125000047E+02-1.204545015E+01+
*       5.3327571303E+01               0
GRID*               7147               0-8.250000044E+02-1.076892533E-01+
*       5.4777195598E+01               0
GRID*               7148               0-6.750000013E+02-4.866537062E+01+
*       2.3646334920E+01               0
GRID*               7149               0-7.000000067E+02-4.307693617E+01+
*       3.4294119912E+01               0
GRID*               7150               0-5.875000027E+02-5.373934249E+01+
*       -2.245175937E-01               0
GRID*               7151               0-5.875000005E+02-5.373934542E+01+
*       1.2249900946E+01               0
GRID*               7152               0-6.250000007E+023.4346362133E+01+
*       4.2971665513E+01               0
GRID*               7153               0-6.374999878E+024.2321239261E+01+
*       3.3969720663E+01               0
GRID*               7154               0-6.375000007E+023.4346361177E+01+
*       4.2971666469E+01               0
GRID*               7155               0-6.499999878E+024.2321238304E+01+
*       3.3969721619E+01               0
GRID*               7156               0-1.249999998E+013.4346405660E+01+
*       4.2971640146E+01               0
GRID*               7157               0-2.499999973E+014.2320912810E+01+
*       3.3970494540E+01               0
GRID*               7158               0-5.749999966E+02-5.373936683E+01+
*       -1.224973197E+01               0
GRID*               7159               0-5.874999964E+02-5.373936845E+01+
*       -1.224971969E+01               0
GRID*               7160               0-5.749999945E+02-4.866534351E+01+
*       -2.364617825E+01               0
GRID*               7161               0-5.874999943E+02-4.866534513E+01+
*       -2.364616597E+01               0
GRID*               7162               0-6.249999946E+02-5.373936034E+01+
*       2.2477588162E-01               0
GRID*               7163               0-1.249999994E+01-2.390933143E+01+
*       -4.947278177E+01               0
GRID*               7164               0-6.125000005E+02-5.373933821E+01+
*       1.2249944623E+01               0
GRID*               7165               0-6.000000025E+02-5.373933996E+01+
*       -2.245313915E-01               0
GRID*               7166               0-6.375000099E+022.3542680691E+01+
*       4.9209281813E+01               0
GRID*               7167               0-6.500000085E+023.4345939807E+01+
*       4.2971989792E+01               0
GRID*               7168               0-5.249999809E+02-3.380722795E+01+
*       -4.264039339E+01               0
GRID*               7169               0-5.249999781E+02-4.307747613E+01+
*       -3.429341449E+01               0
GRID*               7170               0-5.374999781E+02-4.307747598E+01+
*       -3.429341469E+01               0
GRID*               7171               0-5.624999824E+02-3.380715358E+01+
*       -4.264048348E+01               0
GRID*               7172               0-5.499999813E+02-3.380719817E+01+
*       -4.264042537E+01               0
GRID*               7173               0-5.624999786E+02-4.307745768E+01+
*       -3.429343858E+01               0
GRID*               7174               0-5.749999797E+02-4.307741309E+01+
*       -3.429349669E+01               0
GRID*               7175               0-5.374999814E+02-3.380720794E+01+
*       -4.264041947E+01               0
GRID*               7176               0-4.999999818E+02-1.204622065E+01+
*       -5.332722594E+01               0
GRID*               7177               0-4.999999842E+02-2.391061881E+01+
*       -4.947220750E+01               0
GRID*               7178               0-5.124999841E+02-2.391061207E+01+
*       -4.947221158E+01               0
GRID*               7179               0-5.499999786E+02-4.307745596E+01+
*       -3.429344077E+01               0
GRID*               7180               0-5.250000289E+02-1.204692199E+01+
*       5.3326943986E+01               0
GRID*               7181               0-5.375000206E+02-1.087237206E-01+
*       5.4777341328E+01               0
GRID*               7182               0-4.500000277E+022.3544210547E+01+
*       -4.920795109E+01               0
GRID*               7183               0-4.500000147E+021.2299650118E+01+
*       -5.347312579E+01               0
GRID*               7184               0-4.625000212E+021.2300089581E+01+
*       -5.347306793E+01               0
GRID*               7185               0-4.750000213E+021.2300069720E+01+
*       -5.347307411E+01               0
GRID*               7186               0-4.500000125E+02-1.064558202E-01+
*       -5.477704571E+01               0
GRID*               7187               0-4.625000125E+02-1.064511835E-01+
*       -5.477704599E+01               0
GRID*               7188               0-1.072425164E+02-1.107961042E+01+
*       -5.027961717E+01               0
GRID*               7189               0-4.375000144E+021.2299681569E+01+
*       -5.347311600E+01               0
GRID*               7190               0-4.625000198E+02-4.307740177E+01+
*       3.4293511630E+01               0
GRID*               7191               0-4.750000172E+02-3.380714586E+01+
*       4.2640500761E+01               0
GRID*               7192               0-4.750000198E+02-4.307740631E+01+
*       3.4293505832E+01               0
GRID*               7193               0-3.750000125E+024.2321255068E+01+
*       -3.396968855E+01               0
GRID*               7194               0-3.875000120E+024.2321242188E+01+
*       -3.396971964E+01               0
GRID*               7195               0-3.750000115E+024.9653727407E+01+
*       -2.387733174E+01               0
GRID*               7196               0-3.875000110E+024.9653714527E+01+
*       -2.387736284E+01               0
GRID*               7197               0-3.374999758E+022.3543985732E+01+
*       4.9208115269E+01               0
GRID*               7198               0-3.249999776E+022.3543888638E+01+
*       4.9208189770E+01               0
GRID*               7199               0-3.374999795E+023.4347522901E+01+
*       4.2970772020E+01               0
GRID*               7200               0-3.499999777E+023.4347619995E+01+
*       4.2970697518E+01               0
GRID*               7201               0-3.625000062E+025.2531400339E+01+
*       -1.220197727E+01               0
GRID*               7202               0-8.000000059E+02-1.070592553E-01+
*       -5.477710761E+01               0
GRID*               7203               0-7.924149058E+021.6193532401E+00+
*       -5.174064688E+01               0
GRID*               7204               0-7.924149082E+02-1.031829890E+01+
*       -5.029142593E+01               0
GRID*               7205               0-7.924149002E+02-4.545342706E+00+
*       -5.663484473E+01               0
GRID*               7206               0-3.500000000E+02-2.390959611E+01+
*       4.9472634266E+01               0
GRID*               7207               0-3.499999727E+02-1.054348027E-01+
*       5.4776914294E+01               0
GRID*               7208               0-3.124999734E+02-1.204679149E+01+
*       -5.332700360E+01               0
GRID*               7209               0-3.249999795E+023.4347523868E+01+
*       4.2970771052E+01               0
GRID*               7210               0-3.374999748E+02-2.391107367E+01+
*       -4.947203354E+01               0
GRID*               7211               0-3.499999858E+02-3.380691884E+01+
*       -4.264074774E+01               0
GRID*               7212               0-3.499999734E+02-2.391116574E+01+
*       -4.947199540E+01               0
GRID*               7213               0-3.374999854E+02-3.380687339E+01+
*       -4.264077519E+01               0
GRID*               7214               0-2.499999782E+02-2.390813068E+01+
*       4.9473252097E+01               0
GRID*               7215               0-2.624999801E+02-2.390825090E+01+
*       4.9473202299E+01               0
GRID*               7216               0-2.375000040E+02-3.380651089E+01+
*       4.2641281234E+01               0
GRID*               7217               0-2.250000057E+02-4.307686550E+01+
*       3.4294211356E+01               0
GRID*               7218               0-1.249999996E+02-4.866538365E+01+
*       -2.364635579E+01               0
GRID*               7219               0-1.374999995E+02-4.866538488E+01+
*       -2.364634645E+01               0
GRID*               7220               0-2.499999799E+02-1.204379863E+01+
*       5.3328226592E+01               0
GRID*               7221               0-2.624999800E+02-1.204379640E+01+
*       5.3328226726E+01               0
GRID*               7222               0-1.875000041E+02-5.373932885E+01+
*       -2.249589539E-01               0
GRID*               7223               0-1.875000046E+02-5.373935548E+01+
*       1.2249785317E+01               0
GRID*               7224               0-2.000000045E+02-5.373935784E+01+
*       1.2249772533E+01               0
GRID*               7225               0-2.749999800E+02-2.390826673E+01+
*       4.9473192735E+01               0
GRID*               7226               0-2.874999841E+02-2.390852325E+01+
*       4.9473086479E+01               0
GRID*               7227               0-2.625000154E+02-4.307724538E+01+
*       3.4293715854E+01               0
GRID*               7228               0-2.623774908E+02-4.245360379E+01+
*       2.8718223131E+01               0
GRID*               7229               0-2.498774770E+02-4.791723936E+01+
*       2.9691777905E+01               0
GRID*               7230               0-2.623774771E+02-4.791722842E+01+
*       2.9691791869E+01               0
GRID*               7231               0-1.625000045E+02-5.373935192E+01+
*       1.2249807720E+01               0
GRID*               7232               0-8.749999977E+01-4.866538886E+01+
*       -2.364635569E+01               0
GRID*               7233               0-9.999999932E+01-5.373929328E+01+
*       -1.225021219E+01               0
GRID*               7234               0-8.375000017E+025.5125000000E+01+
*       -6.252877773E-15               0
GRID*               7235               0-8.375000038E+025.2246926386E+01+
*       1.1676321779E+01               0
GRID*               7236               0-7.499999877E+01-4.307674088E+01+
*       -3.429437495E+01               0
GRID*               7237               0-1.124999992E+02-5.373929431E+01+
*       -1.225020432E+01               0
GRID*               7238               0-3.000000056E+02-4.866534920E+01+
*       2.3646160769E+01               0
GRID*               7239               0-3.000000184E+02-4.307734179E+01+
*       3.4293589726E+01               0
GRID*               7240               0-3.125000202E+02-4.307741717E+01+
*       3.4293491489E+01               0
GRID*               7241               0-3.750000139E+025.5125000000E+01+
*       -6.079650183E-15               0
GRID*               7242               0-3.750000059E+025.2531400339E+01+
*       -1.220197727E+01               0
GRID*               7243               0-3.874999898E+024.9653491786E+01+
*       2.3877875708E+01               0
GRID*               7244               0-8.875000001E+024.2320916899E+01+
*       -3.397049047E+01               0
GRID*               7245               0-2.624999732E+021.2297399490E+01+
*       -5.347335881E+01               0
GRID*               7246               0-2.749999743E+02-1.090949244E-01+
*       -5.477738622E+01               0
GRID*               7247               0-2.749999733E+021.2297390868E+01+
*       -5.347336149E+01               0
GRID*               7248               0-2.249999854E+022.3542434546E+01+
*       -4.920947317E+01               0
GRID*               7249               0-2.374999743E+021.2297467151E+01+
*       -5.347335047E+01               0
GRID*               7250               0-2.374999854E+022.3542437722E+01+
*       -4.920947218E+01               0
GRID*               7251               0-2.499999742E+021.2297470326E+01+
*       -5.347334948E+01               0
GRID*               7252               0-7.249999948E+024.9653571458E+01+
*       2.3877708632E+01               0
GRID*               7253               0-7.250000037E+025.2531402428E+01+
*       1.2201972631E+01               0
GRID*               7254               0-7.375000035E+025.2531391632E+01+
*       1.2201996601E+01               0
GRID*               7255               0-7.500000030E+025.2531311399E+01+
*       -1.220217475E+01               0
GRID*               7256               0-8.060288159E+01-1.026584614E+01+
*       -5.608177142E+01               0
GRID*               7257               0-9.310288112E+01-2.212993070E+01+
*       -5.222690217E+01               0
GRID*               7258               0-2.249999762E+021.2297600280E+01+
*       -5.347333294E+01               0
GRID*               7259               0-7.875000021E+02-4.307676524E+01+
*       3.4294343045E+01               0
GRID*               7260               0-7.875000035E+02-3.380624391E+01+
*       4.2641513021E+01               0
GRID*               7261               0-8.000000026E+02-3.380620628E+01+
*       4.2641562058E+01               0
GRID*               7262               0-8.125000002E+02-4.866538886E+01+
*       2.3646355685E+01               0
GRID*               7263               0-8.250000012E+02-4.307674088E+01+
*       3.4294374951E+01               0
GRID*               7264               0-8.250000001E+02-4.866538803E+01+
*       2.3646361983E+01               0
GRID*               7265               0-8.125000013E+02-4.307673809E+01+
*       3.4294378518E+01               0
GRID*               7266               0-8.000000020E+02-4.307676869E+01+
*       3.4294338642E+01               0
GRID*               7267               0-8.125000024E+02-3.380622753E+01+
*       4.2641549225E+01               0
GRID*               7268               0-8.250000016E+02-3.380619693E+01+
*       4.2641589101E+01               0
GRID*               7269               0-8.170327768E+02-1.598626054E+01+
*       -4.943575831E+01               0
GRID*               7270               0-7.375000143E+02-1.204421502E+01+
*       -5.332806315E+01               0
GRID*               7271               0-7.375000141E+02-1.064078075E-01+
*       -5.477703382E+01               0
GRID*               7272               0-7.500000152E+02-2.390845973E+01+
*       -4.947312753E+01               0
GRID*               7273               0-2.125000054E+02-4.866538549E+01+
*       2.3646100362E+01               0
GRID*               7274               0-2.125000044E+02-5.373936033E+01+
*       1.2249759001E+01               0
GRID*               7275               0-7.499999564E+01-1.076892533E-01+
*       -5.477719560E+01               0
GRID*               7276               0-7.103616716E+01-1.837683634E+00+
*       -5.122093444E+01               0
GRID*               7277               0-7.250000082E+02-3.380593945E+01+
*       -4.264199282E+01               0
GRID*               7278               0-7.250000182E+02-2.390829090E+01+
*       -4.947319473E+01               0
GRID*               7279               0-7.000000170E+02-1.061647837E-01+
*       -5.477700807E+01               0
GRID*               7280               0-7.125000170E+02-1.204401899E+01+
*       -5.332813982E+01               0
GRID*               7281               0-7.500000111E+02-1.066170719E-01+
*       -5.477706137E+01               0
GRID*               7282               0-7.375000154E+02-2.390847416E+01+
*       -4.947311882E+01               0
GRID*               7283               0-1.249999886E+02-1.204447124E+01+
*       5.3327974941E+01               0
GRID*               7284               0-1.374999888E+02-1.204444039E+01+
*       5.3327976794E+01               0
GRID*               7285               0-1.624999921E+02-4.307641975E+01+
*       3.4294794375E+01               0
GRID*               7286               0-1.499999899E+02-4.307632993E+01+
*       3.4294911426E+01               0
GRID*               7287               0-1.624999896E+02-3.380584963E+01+
*       4.2642109876E+01               0
GRID*               7288               0-5.999999932E+022.3543551004E+01+
*       4.9208603387E+01               0
GRID*               7289               0-5.999999921E+023.4346835372E+01+
*       4.2971302156E+01               0
GRID*               7290               0-6.124999920E+023.4346834363E+01+
*       4.2971303165E+01               0
GRID*               7291               0-1.499999959E+02-4.307684268E+01+
*       -3.429424201E+01               0
GRID*               7292               0-1.499999994E+02-4.866538085E+01+
*       -2.364635160E+01               0
GRID*               7293               0-5.499999945E+02-5.373937137E+01+
*       2.2465371659E-01               0
GRID*               7294               0-5.500000008E+02-5.373935330E+01+
*       1.2249848550E+01               0
GRID*               7295               0-5.625000006E+02-5.373935106E+01+
*       1.2249865618E+01               0
GRID*               7296               0-5.625000028E+02-4.866535733E+01+
*       2.3646286478E+01               0
GRID*               7297               0-5.750000025E+02-4.866535508E+01+
*       2.3646303546E+01               0
GRID*               7298               0-5.375000007E+02-5.373935543E+01+
*       1.2249836977E+01               0
GRID*               7299               0-5.375000031E+02-4.866535363E+01+
*       2.3646276653E+01               0
GRID*               7300               0-5.500000028E+02-4.866535133E+01+
*       2.3646294130E+01               0
GRID*               7301               0-1.249999990E+02-5.373929077E+01+
*       -1.225022355E+01               0
GRID*               7302               0-4.875000257E+021.2300369368E+01+
*       -5.347303467E+01               0
GRID*               7303               0-4.875000189E+02-1.060074816E-01+
*       -5.477698839E+01               0
GRID*               7304               0-4.750000190E+02-1.060117201E-01+
*       -5.477698813E+01               0
GRID*               7305               0-4.874999818E+02-1.204622489E+01+
*       -5.332722568E+01               0
GRID*               7306               0-1.124999949E+022.3543187263E+01+
*       4.9208805361E+01               0
GRID*               7307               0-9.999999643E+012.3543107278E+01+
*       4.9208866734E+01               0
GRID*               7308               0-1.124999969E+023.4346572026E+01+
*       4.2971501594E+01               0
GRID*               7309               0-1.249999954E+023.4346652011E+01+
*       4.2971440220E+01               0
GRID*               7310               0-5.875000205E+023.4347524740E+01+
*       -4.297077018E+01               0
GRID*               7311               0-5.819475592E+022.5545946571E+01+
*       -4.503017704E+01               0
GRID*               7312               0-5.819475383E+023.1346296336E+01+
*       -4.664805651E+01               0
GRID*               7313               0-3.624999702E+021.2300623235E+01+
*       5.3473003476E+01               0
GRID*               7314               0-3.749999715E+021.2300539149E+01+
*       5.3473014545E+01               0
GRID*               7315               0-3.874999730E+022.3544120731E+01+
*       4.9208005278E+01               0
GRID*               7316               0-3.874999715E+021.2300541357E+01+
*       5.3473013858E+01               0
GRID*               7317               0-2.749999835E+023.4347305265E+01+
*       4.2970938413E+01               0
GRID*               7318               0-2.874999835E+023.4347304518E+01+
*       4.2970939159E+01               0
GRID*               7319               0-1.249999896E+014.9653323462E+01+
*       -2.387829704E+01               0
GRID*               7320               0-1.249999896E+014.2320892686E+01+
*       -3.397054893E+01               0
GRID*               7321               0-3.750000115E+02-1.204578788E+01+
*       5.3327403890E+01               0
GRID*               7322               0-3.874999766E+02-1.057041204E-01+
*       5.4776949166E+01               0
GRID*               7323               0-2.810394777E+022.4728867387E+01+
*       4.5810228468E+01               0
GRID*               7324               0-2.810394930E+021.9725833065E+01+
*       5.3665348049E+01               0
GRID*               7325               0-2.935394947E+023.0529438246E+01+
*       4.7427938080E+01               0
GRID*               7326               0-2.124999847E+023.4345574331E+01+
*       -4.297227043E+01               0
GRID*               7327               0-3.749999742E+022.3544055155E+01+
*       4.9208055596E+01               0
GRID*               7328               0-2.676131071E+011.5075210173E+01+
*       -4.964898641E+01               0
GRID*               7329               0-3.926130923E+011.5075113186E+01+
*       -4.964899918E+01               0
GRID*               7330               0-2.749999888E+02-4.307709870E+01+
*       -3.429390764E+01               0
GRID*               7331               0-2.874999979E+02-4.866536498E+01+
*       -2.364630465E+01               0
GRID*               7332               0-3.124999976E+02-4.866536114E+01+
*       -2.364629582E+01               0
GRID*               7333               0-4.999999689E+01-3.380607767E+01+
*       4.2641773807E+01               0
GRID*               7334               0-4.999999735E+01-2.390918466E+01+
*       4.9472835066E+01               0
GRID*               7335               0-2.999999993E+02-5.373934030E+01+
*       -1.224992878E+01               0
GRID*               7336               0-3.124999995E+02-5.373934542E+01+
*       -1.224990095E+01               0
GRID*               7337               0-1.249999899E+02-4.307634256E+01+
*       3.4294895175E+01               0
GRID*               7338               0-1.249999900E+02-3.380582677E+01+
*       4.2642120423E+01               0
GRID*               7339               0-1.374999898E+02-3.380583988E+01+
*       4.2642112501E+01               0
GRID*               7340               0-1.125000022E+02-4.866545259E+01+
*       2.3646135687E+01               0
GRID*               7341               0-8.749999899E+014.2320944447E+01+
*       3.3970434496E+01               0
GRID*               7342               0-9.999999823E+014.9653349214E+01+
*       2.3878231124E+01               0
GRID*               7343               0-9.999999907E+014.2320951552E+01+
*       3.3970427391E+01               0
GRID*               7344               0-7.625000025E+024.9653341975E+01+
*       -2.387824500E+01               0
GRID*               7345               0-7.750000012E+024.2320966615E+01+
*       -3.397039628E+01               0
GRID*               7346               0-7.750000023E+024.9653351712E+01+
*       -2.387822338E+01               0
GRID*               7347               0-2.676131043E+012.6319242826E+01+
*       -4.538480406E+01               0
GRID*               7348               0-1.072296538E+02-7.873245017E+00+
*       5.6572833840E+01               0
GRID*               7349               0-1.072296538E+02-1.973738294E+01+
*       5.2717918004E+01               0
GRID*               7350               0-1.197296541E+02-7.873213416E+00+
*       5.6572835738E+01               0
GRID*               7351               0-5.000001092E+015.2531354802E+01+
*       -1.220207838E+01               0
GRID*               7352               0-6.249999508E+014.9653236898E+01+
*       -2.387850708E+01               0
GRID*               7353               0-6.250001071E+015.2531361838E+01+
*       -1.220206275E+01               0
GRID*               7354               0-7.499999488E+014.9653243935E+01+
*       -2.387849146E+01               0
GRID*               7355               0-9.999999154E+01-2.390884931E+01+
*       4.9472970822E+01               0
GRID*               7356               0-1.124999882E+02-2.390864076E+01+
*       4.9473057208E+01               0
GRID*               7357               0-1.197296425E+02-1.364599266E+01+
*       5.0229501429E+01               0
GRID*               7358               0-1.197296456E+02-1.708368502E+00+
*       5.1678612222E+01               0
GRID*               7359               0-6.249999907E+013.4346445956E+01+
*       4.2971600847E+01               0
GRID*               7360               0-7.499999935E+014.2320935302E+01+
*       3.3970456572E+01               0
GRID*               7361               0-7.499999809E+013.4346495428E+01+
*       4.2971562887E+01               0
GRID*               7362               0-6.249999854E+01-3.380621519E+01+
*       -4.264157807E+01               0
GRID*               7363               0-4.999999938E+01-4.307672017E+01+
*       -3.429440200E+01               0
GRID*               7364               0-6.249999937E+01-4.307671809E+01+
*       -3.429440465E+01               0
GRID*               7365               0-2.498774810E+02-4.804172784E+01+
*       1.8070628196E+01               0
GRID*               7366               0-2.498774868E+02-4.245343903E+01+
*       2.8718437858E+01               0
GRID*               7367               0-3.749999928E+01-3.380620516E+01+
*       -4.264160006E+01               0
GRID*               7368               0-2.499999999E+01-4.866539041E+01+
*       -2.364636516E+01               0
GRID*               7369               0-8.749999817E+013.4346502533E+01+
*       4.2971555782E+01               0
GRID*               7370               0-9.999999690E+013.4346568308E+01+
*       4.2971505312E+01               0
GRID*               7371               0-3.749999980E+01-4.307670595E+01+
*       -3.429442053E+01               0
GRID*               7372               0-4.999999995E+01-4.866538950E+01+
*       -2.364636396E+01               0
GRID*               7373               0-8.938955791E+022.0039445094E+01+
*       -5.282398109E+01               0
GRID*               7374               0-8.938955791E+022.5041431894E+01+
*       -4.496959214E+01               0
GRID*               7375               0-8.938955791E+023.0842857657E+01+
*       -4.658664473E+01               0
GRID*               7376               0-8.281087557E+024.9852612380E+01+
*       1.0858907254E+01               0
GRID*               7377               0-8.281087557E+025.4727612380E+01+
*       1.0858907254E+01               0
GRID*               7378               0-8.000000086E+023.4345939010E+01+
*       4.2971991391E+01               0
GRID*               7379               0-8.250000029E+02-1.204534022E+01+
*       5.3327616836E+01               0
GRID*               7380               0-8.375000022E+02-1.075419527E-01+
*       5.4777176207E+01               0
GRID*               7381               0-8.375000029E+02-1.204534179E+01+
*       5.3327616742E+01               0
GRID*               7382               0-8.375000017E+02-2.390936230E+01+
*       4.9472769435E+01               0
GRID*               7383               0-8.500000015E+02-1.204525806E+01+
*       5.3327651427E+01               0
GRID*               7384               0-8.500000016E+02-2.390938056E+01+
*       4.9472758404E+01               0
GRID*               7385               0-2.318454534E+02-5.108177115E+01+
*       -7.034391207E+00               0
GRID*               7386               0-7.924149003E+02-1.640948063E+01+
*       -5.277992889E+01               0
GRID*               7387               0-1.426131129E+012.6319295912E+01+
*       -4.538476902E+01               0
GRID*               7388               0-8.250000019E+023.4346495428E+01+
*       -4.297156289E+01               0
GRID*               7389               0-8.325850941E+022.1798431103E+01+
*       -4.641927851E+01               0
GRID*               7390               0-8.325850920E+022.7599786106E+01+
*       -4.803638934E+01               0
GRID*               7391               0-8.325850923E+021.6796346262E+01+
*       -5.427373928E+01               0
GRID*               7392               0-8.250000054E+02-1.204491036E+01+
*       -5.332780641E+01               0
GRID*               7393               0-8.375000052E+02-2.390902555E+01+
*       -4.947290097E+01               0
GRID*               7394               0-8.500000026E+02-2.390918466E+01+
*       -4.947283507E+01               0
GRID*               7395               0-7.500000101E+02-4.307632993E+01+
*       -3.429491143E+01               0
GRID*               7396               0-7.624999967E+02-4.866545412E+01+
*       -2.364607378E+01               0
GRID*               7397               0-7.624999957E+02-5.373934705E+01+
*       -1.224984051E+01               0
GRID*               7398               0-7.749999963E+02-5.373934171E+01+
*       -1.224988103E+01               0
GRID*               7399               0-4.750000113E+025.5125000000E+01+
*       -6.133589311E-15               0
GRID*               7400               0-7.499999964E+02-5.373932438E+01+
*       2.2492696034E-01               0
GRID*               7401               0-7.374999955E+02-5.373935192E+01+
*       -1.224980772E+01               0
GRID*               7402               0-8.875000003E+023.4346407363E+01+
*       -4.297163222E+01               0
GRID*               7403               0-7.124999934E+024.2321090071E+01+
*       3.3970077034E+01               0
GRID*               7404               0-6.999999907E+024.2321160394E+01+
*       3.3969907263E+01               0
GRID*               7405               0-7.124999921E+024.9653641781E+01+
*       2.3877538861E+01               0
GRID*               7406               0-8.750002152E+015.5125000000E+01+
*       -5.848334308E-15               0
GRID*               7407               0-7.500002186E+015.5125000000E+01+
*       -5.917832797E-15               0
GRID*               7408               0-1.000000098E+025.2531370717E+01+
*       -1.220204304E+01               0
GRID*               7409               0-8.750001017E+015.2531370717E+01+
*       -1.220204304E+01               0
GRID*               7410               0-7.187782649E+02-6.554763480E+00+
*       5.6681592877E+01               0
GRID*               7411               0-7.375000043E+025.5125000000E+01+
*       -6.198938644E-15               0
GRID*               7412               0-8.750000004E+023.4346403273E+01+
*       -4.297163629E+01               0
GRID*               7413               0-8.813955791E+023.0842853567E+01+
*       -4.658664880E+01               0
GRID*               7414               0-7.500000150E+022.3542340985E+01+
*       4.9209520114E+01               0
GRID*               7415               0-7.625000126E+022.3542473417E+01+
*       4.9209418497E+01               0
GRID*               7416               0-8.750000001E+024.2320912810E+01+
*       -3.397049454E+01               0
GRID*               7417               0-8.932390800E+022.9799458903E+01+
*       4.7462745728E+01               0
GRID*               7418               0-8.807390809E+022.3997980054E+01+
*       4.5845728170E+01               0
GRID*               7419               0-8.807390801E+021.8996051164E+01+
*       5.3700080516E+01               0
GRID*               7420               0-6.554818239E+02-7.283663262E+00+
*       5.6412208937E+01               0
GRID*               7421               0-6.679818238E+02-7.283667844E+00+
*       5.6412208662E+01               0
GRID*               7422               0-6.679818250E+025.1228328069E+00+
*       5.5108182801E+01               0
GRID*               7423               0-7.375000152E+022.3542364196E+01+
*       4.9209512893E+01               0
GRID*               7424               0-7.250000023E+024.2320998149E+01+
*       -3.397032441E+01               0
GRID*               7425               0-7.375000017E+024.2320982981E+01+
*       -3.397036103E+01               0
GRID*               7426               0-7.250000038E+024.9653360294E+01+
*       -2.387819880E+01               0
GRID*               7427               0-7.375000032E+024.9653345126E+01+
*       -2.387823541E+01               0
GRID*               7428               0-5.053098979E+02-5.601882438E+01+
*       -5.863798500E+00               0
GRID*               7429               0-5.178098978E+02-5.601882245E+01+
*       -5.863808988E+00               0
GRID*               7430               0-8.625000001E+02-4.866539079E+01+
*       2.3646362312E+01               0
GRID*               7431               0-8.750000002E+02-4.307670724E+01+
*       3.4294418885E+01               0
GRID*               7432               0-8.750000000E+02-4.866539041E+01+
*       2.3646365160E+01               0
GRID*               7433               0-8.250000004E+02-5.373929657E+01+
*       1.2250196072E+01               0
GRID*               7434               0-8.375000003E+02-5.373929596E+01+
*       1.2250200696E+01               0
GRID*               7435               0-7.250000091E+022.3543324982E+01+
*       -4.920867407E+01               0
GRID*               7436               0-7.375000121E+021.2299613211E+01+
*       -5.347311354E+01               0
GRID*               7437               0-7.375000090E+022.3543345397E+01+
*       -4.920866772E+01               0
GRID*               7438               0-7.500000120E+021.2299633626E+01+
*       -5.347310719E+01               0
GRID*               7439               0-7.250000152E+021.2299822475E+01+
*       -5.347308599E+01               0
GRID*               7440               0-2.318454541E+02-5.603128693E+01+
*       -7.259032634E+00               0
GRID*               7441               0-2.443454539E+02-5.603131024E+01+
*       5.2156128865E+00               0
GRID*               7442               0-7.874999962E+02-5.373934004E+01+
*       -1.224989014E+01               0
GRID*               7443               0-6.499999943E+02-4.866536943E+01+
*       -2.364612092E+01               0
GRID*               7444               0-2.500000042E+02-5.373936290E+01+
*       1.2249745045E+01               0
GRID*               7445               0-2.499999982E+02-5.373933066E+01+
*       2.2452891809E-01               0
GRID*               7446               0-2.443454532E+02-5.108177301E+01+
*       -7.034377076E+00               0
GRID*               7447               0-2.443454547E+02-5.603129867E+01+
*       -7.258968864E+00               0
GRID*               7448               0-6.624999943E+02-4.866536980E+01+
*       -2.364611810E+01               0
GRID*               7449               0-6.375000043E+024.2321051869E+01+
*       -3.397019386E+01               0
GRID*               7450               0-6.375000144E+023.4347188751E+01+
*       -4.297102782E+01               0
GRID*               7451               0-6.500000043E+024.2321052449E+01+
*       -3.397019328E+01               0
GRID*               7452               0-6.500000144E+023.4347189331E+01+
*       -4.297102724E+01               0
GRID*               7453               0-6.250000165E+023.4347305265E+01+
*       -4.297093841E+01               0
GRID*               7454               0-6.319113002E+022.4428994619E+01+
*       -4.610495385E+01               0
GRID*               7455               0-6.444112980E+022.4428878105E+01+
*       -4.610504325E+01               0
GRID*               7456               0-6.319112832E+023.0229566224E+01+
*       -4.772266271E+01               0
GRID*               7457               0-6.125000165E+023.4347304518E+01+
*       -4.297093916E+01               0
GRID*               7458               0-6.250000051E+024.2321072202E+01+
*       -3.397014477E+01               0
GRID*               7459               0-6.125000072E+024.9653393402E+01+
*       -2.387811081E+01               0
GRID*               7460               0-6.250000072E+024.9653398738E+01+
*       -2.387809897E+01               0
GRID*               7461               0-6.749999943E+02-4.307686550E+01+
*       -3.429421136E+01               0
GRID*               7462               0-6.874999946E+02-4.866538549E+01+
*       -2.364610036E+01               0
GRID*               7463               0-6.874999946E+02-4.307688850E+01+
*       -3.429418200E+01               0
GRID*               7464               0-6.999999949E+02-4.866540849E+01+
*       -2.364607100E+01               0
GRID*               7465               0-6.624999888E+02-4.307709667E+01+
*       -3.429391009E+01               0
GRID*               7466               0-6.749999945E+02-4.866538585E+01+
*       -2.364609761E+01               0
GRID*               7467               0-6.624999957E+02-5.373936327E+01+
*       -1.224974223E+01               0
GRID*               7468               0-5.749999856E+023.4347187944E+01+
*       4.2971031378E+01               0
GRID*               7469               0-5.874999869E+024.2321266493E+01+
*       3.3969657837E+01               0
GRID*               7470               0-5.874999856E+023.4347186890E+01+
*       4.2971032432E+01               0
GRID*               7471               0-5.999999869E+024.2321265439E+01+
*       3.3969658891E+01               0
GRID*               7472               0-1.750000051E+024.9653571458E+01+
*       -2.387770863E+01               0
GRID*               7473               0-1.805767414E+024.2041324464E+01+
*       -3.000704815E+01               0
GRID*               7474               0-1.805767336E+024.7200557862E+01+
*       -3.053328478E+01               0
GRID*               7475               0-5.874999928E+022.3543509944E+01+
*       4.9208616162E+01               0
GRID*               7476               0-6.000000123E+02-3.380668988E+01+
*       4.2640971699E+01               0
GRID*               7477               0-6.000000243E+02-2.391084550E+01+
*       4.9472148259E+01               0
GRID*               7478               0-6.125000221E+02-2.391070163E+01+
*       4.9472207852E+01               0
GRID*               7479               0-5.625000146E+02-3.380687339E+01+
*       4.2640775193E+01               0
GRID*               7480               0-5.750000256E+02-2.391102821E+01+
*       4.9472060992E+01               0
GRID*               7481               0-5.750000132E+02-3.380681297E+01+
*       4.2640853930E+01               0
GRID*               7482               0-5.875000266E+02-1.204679149E+01+
*       5.3327003605E+01               0
GRID*               7483               0-5.250000238E+023.4347702417E+01+
*       -4.297063452E+01               0
GRID*               7484               0-5.375000257E+022.3544059517E+01+
*       -4.920805424E+01               0
GRID*               7485               0-5.375000238E+023.4347703455E+01+
*       -4.297063348E+01               0
GRID*               7486               0-5.000000070E+02-1.077920671E-01+
*       5.4777219688E+01               0
GRID*               7487               0-5.125000151E+02-1.083415653E-01+
*       5.4777292025E+01               0
GRID*               7488               0-5.125000060E+021.2298462806E+01+
*       5.3473257159E+01               0
GRID*               7489               0-5.249999772E+022.3544152985E+01+
*       4.9208058611E+01               0
GRID*               7490               0-5.250000142E+021.2297913308E+01+
*       5.3473329497E+01               0
GRID*               7491               0-4.125000215E+02-4.307746236E+01+
*       3.4293432488E+01               0
GRID*               7492               0-4.250000187E+02-3.380722222E+01+
*       4.2640407635E+01               0
GRID*               7493               0-4.250000214E+02-4.307746520E+01+
*       3.4293428858E+01               0
GRID*               7494               0-5.250000258E+022.3544055155E+01+
*       -4.920805560E+01               0
GRID*               7495               0-1.750000065E+024.2321089314E+01+
*       -3.397007779E+01               0
GRID*               7496               0-1.805767351E+023.9868075718E+01+
*       -4.062565394E+01               0
GRID*               7497               0-1.749999846E+023.4345568995E+01+
*       -4.297227490E+01               0
GRID*               7498               0-1.805767196E+023.4065804144E+01+
*       -3.900924526E+01               0
GRID*               7499               0-4.749999793E+02-2.391092856E+01+
*       -4.947207864E+01               0
GRID*               7500               0-4.874999810E+02-3.380723789E+01+
*       -4.264038720E+01               0
GRID*               7501               0-4.874999793E+02-2.391092561E+01+
*       -4.947208042E+01               0
GRID*               7502               0-4.999999810E+02-3.380723495E+01+
*       -4.264038898E+01               0
GRID*               7503               0-4.875000173E+02-3.380713155E+01+
*       4.2640509407E+01               0
GRID*               7504               0-4.749999813E+02-3.380722222E+01+
*       -4.264040764E+01               0
GRID*               7505               0-5.124999810E+02-3.380723469E+01+
*       -4.264038932E+01               0
GRID*               7506               0-4.749999955E+02-4.866533816E+01+
*       -2.364623740E+01               0
GRID*               7507               0-4.625000181E+02-3.380718460E+01+
*       4.2640450285E+01               0
GRID*               7508               0-1.999999789E+021.2297766578E+01+
*       -5.347331326E+01               0
GRID*               7509               0-1.999999800E+02-1.087260494E-01+
*       -5.477733503E+01               0
GRID*               7510               0-2.049148859E+021.6162962610E+00+
*       -5.174068330E+01               0
GRID*               7511               0-2.049149044E+027.8598432636E+00+
*       -5.533063696E+01               0
GRID*               7512               0-2.049149055E+02-4.546649363E+00+
*       -5.663465874E+01               0
GRID*               7513               0-2.124999763E+021.2297587971E+01+
*       -5.347333677E+01               0
GRID*               7514               0-2.174148833E+021.6161176547E+00+
*       -5.174070681E+01               0
GRID*               7515               0-1.749999834E+022.3542286560E+01+
*       -4.920957246E+01               0
GRID*               7516               0-1.874999791E+021.2297747637E+01+
*       -5.347331915E+01               0
GRID*               7517               0-1.874999832E+022.3542305501E+01+
*       -4.920956657E+01               0
GRID*               7518               0-5.000000055E+021.2298400730E+01+
*       5.3473276473E+01               0
GRID*               7519               0-7.499999781E+012.3543055584E+01+
*       4.9208912823E+01               0
GRID*               7520               0-4.749999945E+021.2299076011E+01+
*       5.3473195718E+01               0
GRID*               7521               0-4.874999949E+021.2299121367E+01+
*       5.3473181607E+01               0
GRID*               7522               0-2.499999949E+011.2298971404E+01+
*       5.3473182259E+01               0
GRID*               7523               0-4.249999740E+02-2.391124576E+01+
*       -4.947194898E+01               0
GRID*               7524               0-4.374999819E+02-3.380718460E+01+
*       -4.264045029E+01               0
GRID*               7525               0-4.374999741E+02-2.391125316E+01+
*       -4.947194450E+01               0
GRID*               7526               0-4.499999820E+02-3.380719200E+01+
*       -4.264044581E+01               0
GRID*               7527               0-2.125000094E+024.9653698452E+01+
*       -2.387740402E+01               0
GRID*               7528               0-2.250000109E+024.2321207748E+01+
*       -3.396979412E+01               0
GRID*               7529               0-2.625000169E+025.5125000000E+01+
*       -5.942727783E-15               0
GRID*               7530               0-8.500000010E+025.2531354802E+01+
*       1.2202078378E+01               0
GRID*               7531               0-2.750000065E+025.2531431932E+01+
*       -1.220190712E+01               0
GRID*               7532               0-6.250000224E+02-1.204653094E+01+
*       5.3327113313E+01               0
GRID*               7533               0-6.174306010E+02-1.369268004E+01+
*       4.9916142627E+01               0
GRID*               7534               0-8.625000010E+02-1.204516815E+01+
*       -5.332769636E+01               0
GRID*               7535               0-8.625000026E+02-2.390918015E+01+
*       -4.947283779E+01               0
GRID*               7536               0-2.250000092E+024.9653707253E+01+
*       -2.387738447E+01               0
GRID*               7537               0-8.375000032E+02-3.380608482E+01+
*       -4.264176949E+01               0
GRID*               7538               0-8.500000019E+02-1.073291605E-01+
*       -5.477714373E+01               0
GRID*               7539               0-8.625000017E+02-1.073156490E-01+
*       -5.477714454E+01               0
GRID*               7540               0-8.750000008E+02-1.204515464E+01+
*       -5.332769717E+01               0
GRID*               7541               0-4.124999962E+02-4.866534696E+01+
*       -2.364625556E+01               0
GRID*               7542               0-4.249999985E+02-5.373936365E+01+
*       -1.224977721E+01               0
GRID*               7543               0-4.249999961E+02-4.866534185E+01+
*       -2.364626209E+01               0
GRID*               7544               0-7.375000177E+021.2297932759E+01+
*       5.3473298949E+01               0
GRID*               7545               0-3.250000136E+022.3543861461E+01+
*       -4.920834644E+01               0
GRID*               7546               0-3.374999791E+021.2297676987E+01+
*       -5.347333537E+01               0
GRID*               7547               0-3.375000142E+022.3543799218E+01+
*       -4.920836580E+01               0
GRID*               7548               0-3.499999796E+021.2297614744E+01+
*       -5.347335474E+01               0
GRID*               7549               0-6.049305789E+02-1.978196407E+01+
*       5.2405435970E+01               0
GRID*               7550               0-3.125000057E+02-4.866534513E+01+
*       2.3646165968E+01               0
GRID*               7551               0-3.250000203E+02-4.307741309E+01+
*       3.4293496689E+01               0
GRID*               7552               0-3.250000055E+02-4.866534351E+01+
*       2.3646178249E+01               0
GRID*               7553               0-3.375000214E+02-4.307745768E+01+
*       3.4293438578E+01               0
GRID*               7554               0-3.375000176E+02-3.380715358E+01+
*       4.2640483483E+01               0
GRID*               7555               0-6.170107905E+021.9362589742E+01+
*       -5.346700095E+01               0
GRID*               7556               0-6.000000140E+02-1.204417277E+01+
*       -5.332807069E+01               0
GRID*               7557               0-3.124999777E+022.3543902507E+01+
*       4.9208185455E+01               0
GRID*               7558               0-3.250000114E+024.9653768911E+01+
*       -2.387723681E+01               0
GRID*               7559               0-2.874999940E+024.2321093260E+01+
*       3.3970093933E+01               0
GRID*               7560               0-2.999999940E+024.2321092513E+01+
*       3.3970094679E+01               0
GRID*               7561               0-6.045108079E+022.4365737364E+01+
*       -4.561179443E+01               0
GRID*               7562               0-2.749999948E+024.2321072202E+01+
*       3.3970144769E+01               0
GRID*               7563               0-6.125000181E+02-1.204391625E+01+
*       -5.332817695E+01               0
GRID*               7564               0-6.250000181E+02-1.204391662E+01+
*       -5.332817693E+01               0
GRID*               7565               0-9.999999405E+01-1.070592553E-01+
*       5.4777107607E+01               0
GRID*               7566               0-9.999999160E+01-1.204471139E+01+
*       5.3327886657E+01               0
GRID*               7567               0-9.261115731E+01-1.264459625E+01+
*       5.0274751059E+01               0
GRID*               7568               0-9.261115976E+01-7.069441088E-01+
*       5.1723972009E+01               0
GRID*               7569               0-5.250000150E+02-1.083468054E-01+
*       5.4777291710E+01               0
GRID*               7570               0-5.124999767E+022.3544090908E+01+
*       4.9208077925E+01               0
GRID*               7571               0-2.374999773E+02-1.088957892E-01+
*       -5.477735908E+01               0
GRID*               7572               0-8.749999163E+01-2.390883985E+01+
*       4.9472976538E+01               0
GRID*               7573               0-4.249999802E+02-4.307740631E+01+
*       -3.429350583E+01               0
GRID*               7574               0-4.374999959E+02-4.866534419E+01+
*       -2.364624430E+01               0
GRID*               7575               0-4.124999985E+02-5.373936347E+01+
*       -1.224977818E+01               0
GRID*               7576               0-2.374999821E+02-2.391027949E+01+
*       -4.947240070E+01               0
GRID*               7577               0-2.499999898E+02-3.380647071E+01+
*       -4.264119108E+01               0
GRID*               7578               0-2.749999819E+02-1.204391662E+01+
*       5.3328176927E+01               0
GRID*               7579               0-2.624999752E+02-1.056098730E-01+
*       5.4776937460E+01               0
GRID*               7580               0-2.749999752E+02-1.056076443E-01+
*       5.4776937594E+01               0
GRID*               7581               0-2.000000051E+02-4.866540849E+01+
*       2.3646071004E+01               0
GRID*               7582               0-2.125000054E+02-4.307688850E+01+
*       3.4294181998E+01               0
GRID*               7583               0-2.374999783E+02-2.390811458E+01+
*       4.9473261821E+01               0
GRID*               7584               0-2.499999900E+022.3542689313E+01+
*       -4.920927913E+01               0
GRID*               7585               0-2.249999868E+023.4345687319E+01+
*       -4.297218374E+01               0
GRID*               7586               0-2.374999868E+023.4345688216E+01+
*       -4.297218284E+01               0
GRID*               7587               0-2.499999915E+023.4345939807E+01+
*       -4.297198979E+01               0
GRID*               7588               0-2.500000121E+024.2321238304E+01+
*       -3.396972162E+01               0
GRID*               7589               0-2.624999993E+023.4346361177E+01+
*       -4.297166647E+01               0
GRID*               7590               0-2.749999979E+022.3543102061E+01+
*       -4.920895849E+01               0
GRID*               7591               0-2.749999993E+023.4346362133E+01+
*       -4.297166551E+01               0
GRID*               7592               0-1.749999947E+02-4.307688738E+01+
*       -3.429418363E+01               0
GRID*               7593               0-1.874999946E+02-4.307688238E+01+
*       -3.429419002E+01               0
GRID*               7594               0-1.749999848E+021.2299822475E+01+
*       5.3473085991E+01               0
GRID*               7595               0-1.555890281E+02-1.020802934E+00+
*       5.1958847363E+01               0
GRID*               7596               0-1.680890387E+025.2204141193E+00+
*       5.5549151120E+01               0
GRID*               7597               0-1.680890250E+02-1.020593670E+00+
*       5.1958819815E+01               0
GRID*               7598               0-1.749999860E+02-1.063880302E-01+
*       5.4777035009E+01               0
GRID*               7599               0-1.749999829E+02-1.204403176E+01+
*       5.3328139056E+01               0
GRID*               7600               0-1.680890219E+02-1.295823740E+01+
*       5.0509923862E+01               0
GRID*               7601               0-1.680890400E+02-7.185796386E+00+
*       5.6853100138E+01               0
GRID*               7602               0-1.624999938E+02-3.380629605E+01+
*       -4.264141643E+01               0
GRID*               7603               0-1.624999819E+02-2.390827648E+01+
*       4.9473203440E+01               0
GRID*               7604               0-1.555890247E+02-1.295842066E+01+
*       5.0509847953E+01               0
GRID*               7605               0-1.555890390E+02-1.905004110E+01+
*       5.2998164522E+01               0
GRID*               7606               0-1.499999929E+022.3543243553E+01+
*       4.9208745863E+01               0
GRID*               7607               0-1.624999910E+022.3543345397E+01+
*       4.9208667717E+01               0
GRID*               7608               0-2.499999970E+01-3.380619094E+01+
*       -4.264161859E+01               0
GRID*               7609               0-1.749999909E+022.3543324982E+01+
*       4.9208674069E+01               0
GRID*               7610               0-1.374999955E+023.4346654015E+01+
*       4.2971438217E+01               0
GRID*               7611               0-1.499999982E+024.2320981973E+01+
*       3.3970362040E+01               0
GRID*               7612               0-1.374999931E+022.3543262485E+01+
*       4.9208739973E+01               0
GRID*               7613               0-1.249999948E+022.3543170451E+01+
*       4.9208810592E+01               0
GRID*               7614               0-1.625000025E+024.2320983736E+01+
*       -3.397033267E+01               0
GRID*               7615               0-1.624999882E+02-1.204588438E+01+
*       -5.332738864E+01               0
GRID*               7616               0-1.624999864E+02-1.082984592E-01+
*       -5.477727799E+01               0
GRID*               7617               0-1.749999882E+02-1.204588083E+01+
*       -5.332738885E+01               0
GRID*               7618               0-1.624999958E+02-4.307683813E+01+
*       -3.429424782E+01               0
GRID*               7619               0-2.499999900E+014.2320892583E+01+
*       -3.397054901E+01               0
GRID*               7620               0-2.499999880E+014.9653325106E+01+
*       -2.387829324E+01               0
GRID*               7621               0-1.250001176E+015.2531350176E+01+
*       -1.220208865E+01               0
GRID*               7622               0-8.625000002E+024.2320912240E+01+
*       -3.397049511E+01               0
GRID*               7623               0-8.625000004E+023.4346402704E+01+
*       -4.297163686E+01               0
GRID*               7624               0-8.750000005E+021.2298971404E+01+
*       -5.347318226E+01               0
GRID*               7625               0-8.749999624E+011.2299135822E+01+
*       5.3473166304E+01               0
GRID*               7626               0-9.999999395E+011.2299289637E+01+
*       5.3473146055E+01               0
GRID*               7627               0-6.249999839E+01-4.866540483E+01+
*       2.3646421531E+01               0
GRID*               7628               0-7.500000039E+01-4.866542271E+01+
*       2.3646285689E+01               0
GRID*               7629               0-1.313618241E+023.2944265549E+01+
*       -4.076923799E+01               0
GRID*               7630               0-1.438618217E+023.2944133117E+01+
*       -4.076933961E+01               0
GRID*               7631               0-1.438618381E+024.0919470222E+01+
*       -3.176745695E+01               0
GRID*               7632               0-7.500000076E+01-5.373931148E+01+
*       1.2250104122E+01               0
GRID*               7633               0-8.750000026E+01-4.866543206E+01+
*       2.3646273760E+01               0
GRID*               7634               0-8.625000007E+02-1.074465346E-01+
*       5.4777163346E+01               0
GRID*               7635               0-1.124999965E+024.9653299672E+01+
*       -2.387835862E+01               0
GRID*               7636               0-9.999999433E+014.9653243301E+01+
*       -2.387849471E+01               0
GRID*               7637               0-1.053128105E+024.2376725604E+01+
*       -2.951950336E+01               0
GRID*               7638               0-1.178128126E+024.2376781975E+01+
*       -2.951936727E+01               0
GRID*               7639               0-1.053128146E+024.7536223737E+01+
*       -3.004509474E+01               0
GRID*               7640               0-8.125000013E+024.9653340069E+01+
*       -2.387825320E+01               0
GRID*               7641               0-8.125000004E+024.2320942407E+01+
*       -3.397044947E+01               0
GRID*               7642               0-1.249999973E+024.2320847973E+01+
*       -3.397065863E+01               0
GRID*               7643               0-1.249999884E+023.4345777797E+01+
*       -4.297211498E+01               0
GRID*               7644               0-1.313618330E+024.0919335726E+01+
*       -3.176778165E+01               0
GRID*               7645               0-1.313618358E+023.8746325789E+01+
*       -4.238580913E+01               0
GRID*               7646               0-1.249999963E+024.9653309806E+01+
*       -2.387833612E+01               0
GRID*               7647               0-8.000000008E+024.2320951552E+01+
*       -3.397042739E+01               0
GRID*               7648               0-8.000000017E+024.9653349214E+01+
*       -2.387823112E+01               0
GRID*               7649               0-7.875000018E+024.9653340367E+01+
*       -2.387825077E+01               0
GRID*               7650               0-8.000000055E+024.9653243301E+01+
*       2.3878494706E+01               0
GRID*               7651               0-1.053128154E+024.0203771542E+01+
*       -4.013739525E+01               0
GRID*               7652               0-1.178128154E+024.0203772039E+01+
*       -4.013739475E+01               0
GRID*               7653               0-7.625000140E+023.4345645364E+01+
*       4.2972216594E+01               0
GRID*               7654               0-7.750000025E+024.2320847973E+01+
*       3.3970658633E+01               0
GRID*               7655               0-2.810394690E+021.3485660552E+01+
*       5.0074891956E+01               0
GRID*               7656               0-2.499999841E+022.3543602138E+01+
*       4.9208432522E+01               0
GRID*               7657               0-2.565959275E+021.9788636675E+01+
*       5.3596599998E+01               0
GRID*               7658               0-2.565959141E+022.4791535169E+01+
*       4.5741575829E+01               0
GRID*               7659               0-2.624999856E+023.4347188751E+01+
*       4.2971027816E+01               0
GRID*               7660               0-2.690959290E+023.0592223288E+01+
*       4.7359195292E+01               0
GRID*               7661               0-8.500000032E+02-4.307659768E+01+
*       -3.429456206E+01               0
GRID*               7662               0-8.667629651E+02-4.465959879E+01+
*       -2.449965319E+01               0
GRID*               7663               0-6.500000102E+02-3.380647071E+01+
*       4.2641191085E+01               0
GRID*               7664               0-6.625000179E+02-2.391027949E+01+
*       4.9472400699E+01               0
GRID*               7665               0-6.625000104E+02-3.380645168E+01+
*       4.2641202577E+01               0
GRID*               7666               0-6.750000180E+02-2.391026047E+01+
*       4.9472412191E+01               0
GRID*               7667               0-8.875000009E+02-4.307666824E+01+
*       -3.429446979E+01               0
GRID*               7668               0-8.625000001E+02-5.373929950E+01+
*       1.2250182309E+01               0
GRID*               7669               0-8.750000000E+02-5.373930240E+01+
*       1.2250166523E+01               0
GRID*               7670               0-6.750000172E+02-1.204621296E+01+
*       5.3327248360E+01               0
GRID*               7671               0-6.875000172E+02-1.204621725E+01+
*       5.3327248103E+01               0
GRID*               7672               0-6.875000153E+02-2.391008911E+01+
*       4.9472483170E+01               0
GRID*               7673               0-1.999999899E+023.4346958594E+01+
*       4.2971204187E+01               0
GRID*               7674               0-1.999999970E+024.2321015304E+01+
*       3.3970283530E+01               0
GRID*               7675               0-2.124999963E+024.2321033488E+01+
*       3.3970239631E+01               0
GRID*               7676               0-1.500000199E+025.5125000000E+01+
*       -5.958287143E-15               0
GRID*               7677               0-1.625000195E+025.5125000000E+01+
*       -5.888788654E-15               0
GRID*               7678               0-1.625000087E+025.2531301195E+01+
*       1.2202197405E+01               0
GRID*               7679               0-5.999999944E+02-4.866534920E+01+
*       -2.364616077E+01               0
GRID*               7680               0-1.500000089E+025.2531311399E+01+
*       1.2202174749E+01               0
GRID*               7681               0-1.624999967E+024.9653345126E+01+
*       2.3878235414E+01               0
GRID*               7682               0-5.500000000E+02-2.390959611E+01+
*       -4.947263427E+01               0
GRID*               7683               0-8.000000020E+025.2531329983E+01+
*       -1.220213349E+01               0
GRID*               7684               0-8.125000018E+025.2531337531E+01+
*       -1.220211673E+01               0
GRID*               7685               0-4.624999770E+02-1.204653634E+01+
*       -5.332709832E+01               0
GRID*               7686               0-4.749999769E+02-1.204653170E+01+
*       -5.332709860E+01               0
GRID*               7687               0-4.375000036E+02-1.070613784E-01+
*       -5.477712543E+01               0
GRID*               7688               0-4.499999737E+02-1.204674168E+01+
*       -5.332701326E+01               0
GRID*               7689               0-4.250000055E+021.2299076011E+01+
*       -5.347319572E+01               0
GRID*               7690               0-8.375000058E+02-4.307648982E+01+
*       -3.429470262E+01               0
GRID*               7691               0-8.625000028E+023.4346251714E+01+
*       4.2971751651E+01               0
GRID*               7692               0-7.500000071E+022.3543243553E+01+
*       -4.920874586E+01               0
GRID*               7693               0-4.000000120E+024.2321243330E+01+
*       -3.396971850E+01               0
GRID*               7694               0-3.500000129E+024.2321263329E+01+
*       -3.396966702E+01               0
GRID*               7695               0-3.625000125E+024.2321253947E+01+
*       -3.396968967E+01               0
GRID*               7696               0-3.500000054E+025.2531257614E+01+
*       1.2202294173E+01               0
GRID*               7697               0-3.750000224E+023.4347622275E+01+
*       -4.297069760E+01               0
GRID*               7698               0-3.875000233E+022.3544090908E+01+
*       -4.920807792E+01               0
GRID*               7699               0-3.625000224E+023.4347621154E+01+
*       -4.297069872E+01               0
GRID*               7700               0-3.750000228E+022.3544152985E+01+
*       -4.920805861E+01               0
GRID*               7701               0-3.500000191E+023.4347443954E+01+
*       -4.297083468E+01               0
GRID*               7702               0-3.625000195E+022.3543975785E+01+
*       -4.920819458E+01               0
GRID*               7703               0-3.124999932E+024.2321114044E+01+
*       3.3970042701E+01               0
GRID*               7704               0-3.249999931E+024.2321113172E+01+
*       3.3970043573E+01               0
GRID*               7705               0-7.375000101E+02-2.390976015E+01+
*       4.9472619150E+01               0
GRID*               7706               0-7.250000127E+02-2.390992160E+01+
*       4.9472552272E+01               0
GRID*               7707               0-6.749999954E+02-5.373933997E+01+
*       2.2490329506E-01               0
GRID*               7708               0-6.749999956E+02-5.373936069E+01+
*       -1.224975625E+01               0
GRID*               7709               0-6.124999872E+024.2321257535E+01+
*       3.3969677972E+01               0
GRID*               7710               0-6.249999890E+024.9653764734E+01+
*       2.3877247752E+01               0
GRID*               7711               0-6.249999871E+024.2321256526E+01+
*       3.3969678982E+01               0
GRID*               7712               0-6.000000057E+025.2531432048E+01+
*       1.2201906863E+01               0
GRID*               7713               0-6.000000079E+025.5125000000E+01+
*       -6.201013222E-15               0
GRID*               7714               0-6.125000058E+025.2531431932E+01+
*       1.2201907121E+01               0
GRID*               7715               0-3.374999923E+024.2321134907E+01+
*       3.3969991102E+01               0
GRID*               7716               0-6.500000051E+025.2531428091E+01+
*       1.2201915648E+01               0
GRID*               7717               0-6.499999896E+024.9653743628E+01+
*       2.3877297961E+01               0
GRID*               7718               0-6.375000054E+025.2531428091E+01+
*       1.2201915648E+01               0
GRID*               7719               0-3.124999814E+023.4347416946E+01+
*       4.2970853095E+01               0
GRID*               7720               0-2.373774810E+02-4.804172821E+01+
*       1.8070625376E+01               0
GRID*               7721               0-1.749999821E+021.2297955970E+01+
*       -5.347329173E+01               0
GRID*               7722               0-4.125000120E+024.2321244484E+01+
*       -3.396971735E+01               0
GRID*               7723               0-1.749999924E+02-4.307639658E+01+
*       3.4294823948E+01               0
GRID*               7724               0-1.874999984E+02-5.373929302E+01+
*       -1.225020224E+01               0
GRID*               7725               0-1.999999985E+02-5.373929634E+01+
*       -1.225018418E+01               0
GRID*               7726               0-2.000000042E+02-5.373933218E+01+
*       -2.249408914E-01               0
GRID*               7727               0-1.499999850E+022.3542340985E+01+
*       -4.920952011E+01               0
GRID*               7728               0-1.499999856E+021.2298155957E+01+
*       -5.347326957E+01               0
GRID*               7729               0-1.624999823E+021.2297932759E+01+
*       -5.347329895E+01               0
GRID*               7730               0-8.749999986E+01-5.373930778E+01+
*       2.2452734347E-01               0
GRID*               7731               0-1.000000027E+02-5.373933055E+01+
*       1.2249962215E+01               0
GRID*               7732               0-8.749999942E+01-5.373929245E+01+
*       -1.225021849E+01               0
GRID*               7733               0-1.000000023E+02-5.373931521E+01+
*       -2.247836199E-01               0
GRID*               7734               0-2.625000058E+02-4.866535849E+01+
*       2.3646134883E+01               0
GRID*               7735               0-2.373774757E+02-5.299123025E+01+
*       1.8295416055E+01               0
GRID*               7736               0-2.498774756E+02-5.299123283E+01+
*       1.8295402031E+01               0
GRID*               7737               0-7.499999987E+01-4.866538803E+01+
*       -2.364636198E+01               0
GRID*               7738               0-7.499999960E+01-5.373929657E+01+
*       -1.225019607E+01               0
GRID*               7739               0-3.999999766E+02-1.057078336E-01+
*       5.4776948943E+01               0
GRID*               7740               0-3.999999742E+021.2300359160E+01+
*       5.3473037843E+01               0
GRID*               7741               0-4.124999743E+021.2300369368E+01+
*       5.3473034667E+01               0
GRID*               7742               0-4.124999723E+022.3544165821E+01+
*       4.9207971688E+01               0
GRID*               7743               0-4.249999742E+023.4347808660E+01+
*       4.2970553509E+01               0
GRID*               7744               0-1.874999846E+021.2299801243E+01+
*       5.3473092597E+01               0
GRID*               7745               0-1.999999815E+021.2300011717E+01+
*       5.3473064890E+01               0
GRID*               7746               0-1.825851039E+021.6204206888E+00+
*       5.1740642564E+01               0
GRID*               7747               0-1.950851175E+027.8614072451E+00+
*       5.5330980476E+01               0
GRID*               7748               0-1.950851008E+021.6206311629E+00+
*       5.1740614857E+01               0
GRID*               7749               0-4.499999883E+024.9653591066E+01+
*       2.3877643432E+01               0
GRID*               7750               0-6.999999923E+024.9653651928E+01+
*       2.3877516330E+01               0
GRID*               7751               0-4.999999776E+011.2298831903E+01+
*       -5.347319710E+01               0
GRID*               7752               0-7.000000042E+025.2531412575E+01+
*       1.2201950101E+01               0
GRID*               7753               0-7.000000053E+025.5125000000E+01+
*       -6.254952351E-15               0
GRID*               7754               0-7.125000040E+025.2531402428E+01+
*       1.2201972631E+01               0
GRID*               7755               0-7.125000050E+025.5125000000E+01+
*       -6.185453862E-15               0
GRID*               7756               0-1.072296458E+02-1.364620121E+01+
*       5.0229415043E+01               0
GRID*               7757               0-7.250000036E+025.2531301195E+01+
*       -1.220219741E+01               0
GRID*               7758               0-7.125000039E+025.2531301195E+01+
*       -1.220219741E+01               0
GRID*               7759               0-1.249999914E+013.4346356663E+01+
*       -4.297167112E+01               0
GRID*               7760               0-7.250000046E+025.5125000000E+01+
*       -6.268437133E-15               0
GRID*               7761               0-7.375000034E+025.2531311399E+01+
*       -1.220217475E+01               0
GRID*               7762               0-7.875000004E+02-4.866538710E+01+
*       2.3646351383E+01               0
GRID*               7763               0-8.749999655E+012.3543121359E+01+
*       4.9208862354E+01               0
GRID*               7764               0-7.874999967E+02-5.373932470E+01+
*       2.2485569251E-01               0
GRID*               7765               0-8.000000007E+02-5.373929328E+01+
*       1.2250212194E+01               0
GRID*               7766               0-7.999999977E+02-5.373931521E+01+
*       2.2478361994E-01               0
GRID*               7767               0-7.875000008E+02-5.373929431E+01+
*       1.2250204325E+01               0
GRID*               7768               0-1.124999938E+021.2299272824E+01+
*       5.3473151286E+01               0
GRID*               7769               0-8.125000006E+02-5.373929245E+01+
*       1.2250218492E+01               0
GRID*               7770               0-8.125000001E+02-5.373930778E+01+
*       -2.245273435E-01               0
GRID*               7771               0-9.261116521E+015.5347088368E+00+
*       5.5314208305E+01               0
GRID*               7772               0-3.375000130E+024.2321268275E+01+
*       -3.396965508E+01               0
GRID*               7773               0-3.375000144E+023.4347189036E+01+
*       -4.297103029E+01               0
GRID*               7774               0-7.250000171E+02-1.204403176E+01+
*       -5.332813906E+01               0
GRID*               7775               0-2.750000109E+024.9653764734E+01+
*       -2.387724775E+01               0
GRID*               7776               0-2.625000103E+024.9653747468E+01+
*       -2.387728943E+01               0
GRID*               7777               0-2.563604515E+024.2676746198E+01+
*       -2.880513419E+01               0
GRID*               7778               0-2.688604521E+024.2676763463E+01+
*       -2.880509251E+01               0
GRID*               7779               0-2.688604376E+024.7835862594E+01+
*       -2.933165900E+01               0
GRID*               7780               0-2.750000127E+024.2321256526E+01+
*       -3.396967898E+01               0
GRID*               7781               0-2.688604394E+024.0503354386E+01+
*       -3.942409023E+01               0
GRID*               7782               0-6.375000268E+021.2297399490E+01+
*       5.3473358805E+01               0
GRID*               7783               0-6.500000100E+022.3542689313E+01+
*       4.9209279130E+01               0
GRID*               7784               0-6.500000258E+021.2297470326E+01+
*       5.3473349480E+01               0
GRID*               7785               0-3.125000072E+022.3543509944E+01+
*       -4.920861616E+01               0
GRID*               7786               0-3.125000079E+023.4346836426E+01+
*       -4.297130110E+01               0
GRID*               7787               0-3.250000144E+023.4347187944E+01+
*       -4.297103138E+01               0
GRID*               7788               0-5.875000080E+024.9653411782E+01+
*       -2.387806593E+01               0
GRID*               7789               0-5.875000067E+024.2321114044E+01+
*       -3.397004270E+01               0
GRID*               7790               0-2.563604394E+024.0503353429E+01+
*       -3.942409118E+01               0
GRID*               7791               0-2.563604376E+024.7835858753E+01+
*       -2.933166753E+01               0
GRID*               7792               0-5.375000034E+02-5.373935153E+01+
*       -2.245261126E-01               0
GRID*               7793               0-2.563604309E+023.4701447701E+01+
*       -3.780740236E+01               0
GRID*               7794               0-5.624999967E+02-5.373936924E+01+
*       -1.224971889E+01               0
GRID*               7795               0-5.499999947E+02-4.866533995E+01+
*       -2.364619449E+01               0
GRID*               7796               0-5.624999945E+02-4.866534180E+01+
*       -2.364618044E+01               0
GRID*               7797               0-3.875000159E+02-2.391061207E+01+
*       4.9472211575E+01               0
GRID*               7798               0-3.750000091E+02-2.391018300E+01+
*       4.9472389305E+01               0
GRID*               7799               0-3.875000114E+02-1.204579159E+01+
*       5.3327403667E+01               0
GRID*               7800               0-4.000000182E+02-1.204622065E+01+
*       5.3327225938E+01               0
GRID*               7801               0-3.500000189E+022.3544054136E+01+
*       -4.920817020E+01               0
GRID*               7802               0-3.624999852E+021.2297991659E+01+
*       -5.347330512E+01               0
GRID*               7803               0-3.749999858E+021.2297913308E+01+
*       -5.347332950E+01               0
GRID*               7804               0-6.000000059E+025.2531259635E+01+
*       -1.220228968E+01               0
GRID*               7805               0-6.000000080E+024.9653414460E+01+
*       -2.387805998E+01               0
GRID*               7806               0-5.750000062E+025.2531256957E+01+
*       -1.220229563E+01               0
GRID*               7807               0-5.875000062E+025.2531259635E+01+
*       -1.220228968E+01               0
GRID*               7808               0-8.325850956E+021.0554525422E+01+
*       -5.068352761E+01               0
GRID*               7809               0-2.749999981E+02-4.866536289E+01+
*       -2.364632050E+01               0
GRID*               7810               0-3.249999993E+02-5.373934760E+01+
*       -1.224988442E+01               0
GRID*               7811               0-8.875000000E+02-4.307671470E+01+
*       3.4294415353E+01               0
GRID*               7812               0-1.250000033E+02-4.866546208E+01+
*       2.3646063614E+01               0
GRID*               7813               0-1.374999898E+02-4.307633789E+01+
*       3.4294901262E+01               0
GRID*               7814               0-8.450850923E+024.3899863863E+00+
*       -5.557770540E+01               0
GRID*               7815               0-8.450850938E+021.0554406234E+01+
*       -5.068354330E+01               0
GRID*               7816               0-8.500000018E+021.2299041474E+01+
*       -5.347317427E+01               0
GRID*               7817               0-8.450850922E+021.6796357020E+01+
*       -5.427373593E+01               0
GRID*               7818               0-6.249999825E+01-2.390936230E+01+
*       -4.947276943E+01               0
GRID*               7819               0-6.249999987E+01-4.866539011E+01+
*       -2.364635934E+01               0
GRID*               7820               0-7.750000084E+02-1.068470844E-01+
*       -5.477708573E+01               0
GRID*               7821               0-7.750000114E+02-1.204447124E+01+
*       -5.332797494E+01               0
GRID*               7822               0-7.799149084E+021.6195338092E+00+
*       -5.174062311E+01               0
GRID*               7823               0-7.799149000E+02-4.545311104E+00+
*       -5.663484663E+01               0
GRID*               7824               0-7.799149115E+02-1.031809035E+01+
*       -5.029151232E+01               0
GRID*               7825               0-8.125000018E+023.4346502533E+01+
*       -4.297155578E+01               0
GRID*               7826               0-7.875000101E+02-4.307633973E+01+
*       -3.429489879E+01               0
GRID*               7827               0-7.999999978E+02-4.866544976E+01+
*       -2.364613930E+01               0
GRID*               7828               0-8.000000002E+02-4.866538607E+01+
*       2.3646359252E+01               0
GRID*               7829               0-8.500000001E+02-4.866538950E+01+
*       2.3646363959E+01               0
GRID*               7830               0-8.625000002E+02-4.307670595E+01+
*       3.4294420532E+01               0
GRID*               7831               0-3.826013594E+02-5.116209470E+01+
*       -5.341898214E+00               0
GRID*               7832               0-8.375000006E+02-4.307671809E+01+
*       3.4294404650E+01               0
GRID*               7833               0-8.500000009E+02-3.380619240E+01+
*       4.2641607769E+01               0
GRID*               7834               0-8.500000006E+02-4.307672017E+01+
*       3.4294402002E+01               0
GRID*               7835               0-2.249999828E+02-1.204621296E+01+
*       -5.332724836E+01               0
GRID*               7836               0-2.249999774E+02-1.089003709E-01+
*       -5.477735880E+01               0
GRID*               7837               0-2.174148887E+02-1.032119494E+01+
*       -5.029059637E+01               0
GRID*               7838               0-2.174149054E+02-4.546645079E+00+
*       -5.663465899E+01               0
GRID*               7839               0-7.999999973E+02-5.373933055E+01+
*       -1.224996222E+01               0
GRID*               7840               0-7.125000127E+02-2.390991534E+01+
*       4.9472556058E+01               0
GRID*               7841               0-7.125000076E+02-3.380633559E+01+
*       4.2641354929E+01               0
GRID*               7842               0-6.875000217E+02-2.390808891E+01+
*       -4.947327548E+01               0
GRID*               7843               0-7.000000031E+02-3.380617090E+01+
*       -4.264170193E+01               0
GRID*               7844               0-7.000000154E+02-2.391008434E+01+
*       4.9472486052E+01               0
GRID*               7845               0-6.500000159E+022.3543602138E+01+
*       -4.920843252E+01               0
GRID*               7846               0-6.625000218E+021.2300171963E+01+
*       -5.347305135E+01               0
GRID*               7847               0-6.375000267E+021.2300511817E+01+
*       -5.347300661E+01               0
GRID*               7848               0-6.319113089E+021.3185787785E+01+
*       -5.036961733E+01               0
GRID*               7849               0-6.319112849E+021.9425960297E+01+
*       -5.396007343E+01               0
GRID*               7850               0-6.444112847E+021.9425979611E+01+
*       -5.396006742E+01               0
GRID*               7851               0-6.875000191E+02-1.204387030E+01+
*       -5.332819856E+01               0
GRID*               7852               0-7.000000029E+024.2321015304E+01+
*       -3.397028353E+01               0
GRID*               7853               0-6.375000248E+02-1.056098730E-01+
*       -5.477693746E+01               0
GRID*               7854               0-4.375000208E+02-4.307743670E+01+
*       3.4293465998E+01               0
GRID*               7855               0-4.250000207E+02-2.391092856E+01+
*       4.9472078636E+01               0
GRID*               7856               0-4.375000207E+02-2.391092684E+01+
*       4.9472079673E+01               0
GRID*               7857               0-4.000000190E+02-3.380723495E+01+
*       4.2640388984E+01               0
GRID*               7858               0-4.125000207E+02-2.391092561E+01+
*       4.9472080417E+01               0
GRID*               7859               0-4.125000190E+02-3.380723789E+01+
*       4.2640387203E+01               0
GRID*               7860               0-7.125000023E+024.2320998524E+01+
*       -3.397032404E+01               0
GRID*               7861               0-4.000000219E+02-4.307747804E+01+
*       3.4293412056E+01               0
GRID*               7862               0-4.500000207E+02-4.307744050E+01+
*       3.4293461154E+01               0
GRID*               7863               0-6.500000050E+025.2531272344E+01+
*       -1.220226147E+01               0
GRID*               7864               0-6.625000049E+025.2531281187E+01+
*       -1.220224183E+01               0
GRID*               7865               0-3.249999971E+02-5.373934467E+01+
*       2.2453411569E-01               0
GRID*               7866               0-3.374999970E+02-5.373934708E+01+
*       2.2452103557E-01               0
GRID*               7867               0-6.500000063E+024.9653385778E+01+
*       -2.387813168E+01               0
GRID*               7868               0-3.625000053E+02-4.866534010E+01+
*       2.3646194296E+01               0
GRID*               7869               0-3.750000051E+02-4.866533807E+01+
*       2.3646209681E+01               0
GRID*               7870               0-3.500000053E+02-4.866533995E+01+
*       2.3646194491E+01               0
GRID*               7871               0-6.750000046E+025.2531281187E+01+
*       -1.220224183E+01               0
GRID*               7872               0-6.875000044E+025.2531290969E+01+
*       -1.220222011E+01               0
GRID*               7873               0-7.000000046E+024.9653366847E+01+
*       -2.387818099E+01               0
GRID*               7874               0-2.749999992E+02-5.373933099E+01+
*       -1.224998386E+01               0
GRID*               7875               0-2.874999990E+02-5.373933308E+01+
*       -1.224996802E+01               0
GRID*               7876               0-2.624999982E+02-4.866536878E+01+
*       -2.364631298E+01               0
GRID*               7877               0-5.875000137E+02-3.380675197E+01+
*       4.2640890780E+01               0
GRID*               7878               0-6.000000128E+02-4.307715523E+01+
*       3.4293833813E+01               0
GRID*               7879               0-6.125000113E+02-4.307709268E+01+
*       3.4293915326E+01               0
GRID*               7880               0-1.999999969E+02-3.380617090E+01+
*       4.2641701930E+01               0
GRID*               7881               0-2.071936310E+02-3.067578487E+01+
*       4.1181927008E+01               0
GRID*               7882               0-2.196936324E+02-2.686976967E+01+
*       5.0501623558E+01               0
GRID*               7883               0-2.071936326E+02-2.686975374E+01+
*       5.0501633184E+01               0
GRID*               7884               0-2.071936136E+02-2.077777960E+01+
*       4.8013468779E+01               0
GRID*               7885               0-1.874999855E+02-1.204604983E+01+
*       -5.332731885E+01               0
GRID*               7886               0-1.999999846E+02-2.391008434E+01+
*       -4.947248605E+01               0
GRID*               7887               0-1.999999855E+02-1.204604589E+01+
*       -5.332731908E+01               0
GRID*               7888               0-2.124999847E+02-2.391008911E+01+
*       -4.947248317E+01               0
GRID*               7889               0-6.375000224E+02-1.204653577E+01+
*       5.3327113022E+01               0
GRID*               7890               0-6.500000246E+02-1.090289182E-01+
*       5.4777376604E+01               0
GRID*               7891               0-6.500000199E+02-1.204637658E+01+
*       5.3327178961E+01               0
GRID*               7892               0-2.196936124E+02-2.077770288E+01+
*       4.8013500559E+01               0
GRID*               7893               0-5.249999776E+023.4347622275E+01+
*       4.2970697595E+01               0
GRID*               7894               0-5.249999874E+024.2321255068E+01+
*       3.3969688548E+01               0
GRID*               7895               0-5.374999870E+024.2321264450E+01+
*       3.3969665898E+01               0
GRID*               7896               0-1.313618348E+024.6078787622E+01+
*       -3.229348661E+01               0
GRID*               7897               0-1.249999876E+022.3542448182E+01+
*       -4.920942635E+01               0
GRID*               7898               0-1.374999874E+022.3542473417E+01+
*       -4.920941850E+01               0
GRID*               7899               0-2.196936340E+02-1.500545841E+01+
*       5.4356588047E+01               0
GRID*               7900               0-5.124999874E+024.2321256210E+01+
*       3.3969687406E+01               0
GRID*               7901               0-5.249999884E+024.9653727407E+01+
*       2.3877331743E+01               0
GRID*               7902               0-5.125000063E+025.2531400339E+01+
*       1.2201977269E+01               0
GRID*               7903               0-5.124999888E+024.9653714527E+01+
*       2.3877362837E+01               0
GRID*               7904               0-8.749999859E+014.9653340069E+01+
*       2.3878253200E+01               0
GRID*               7905               0-4.541920930E+02-5.655004843E+01+
*       -3.113481841E+00               0
GRID*               7906               0-4.625000259E+02-2.391125316E+01+
*       4.9471944504E+01               0
GRID*               7907               0-3.749999915E+024.2321154551E+01+
*       3.3969940844E+01               0
GRID*               7908               0-2.625000068E+025.2531431932E+01+
*       -1.220190712E+01               0
GRID*               7909               0-2.500000068E+025.2531428091E+01+
*       -1.220191565E+01               0
GRID*               7910               0-2.500000103E+024.9653743628E+01+
*       -2.387729796E+01               0
GRID*               7911               0-2.500000172E+025.5125000000E+01+
*       -6.012226272E-15               0
GRID*               7912               0-2.375000176E+025.5125000000E+01+
*       -5.929243001E-15               0
GRID*               7913               0-2.250000179E+025.5125000000E+01+
*       -5.998741490E-15               0
GRID*               7914               0-2.500000069E+025.2531272344E+01+
*       1.2202261465E+01               0
GRID*               7915               0-2.375000072E+025.2531272344E+01+
*       1.2202261465E+01               0
GRID*               7916               0-8.625000006E+021.2298964541E+01+
*       -5.347318439E+01               0
GRID*               7917               0-8.750000006E+02-1.073925811E-01+
*       -5.477715467E+01               0
GRID*               7918               0-3.749999711E+02-1.204692199E+01+
*       -5.332694399E+01               0
GRID*               7919               0-8.625000011E+022.3543023733E+01+
*       -4.920894530E+01               0
GRID*               7920               0-3.625000219E+02-4.307747598E+01+
*       3.4293414688E+01               0
GRID*               7921               0-3.750000219E+02-4.307747613E+01+
*       3.4293414493E+01               0
GRID*               7922               0-3.500000187E+02-3.380719817E+01+
*       4.2640425372E+01               0
GRID*               7923               0-3.375000055E+02-4.866534180E+01+
*       2.3646180443E+01               0
GRID*               7924               0-3.500000214E+02-4.307745596E+01+
*       3.4293440772E+01               0
GRID*               7925               0-5.375000148E+021.2297991659E+01+
*       5.3473305119E+01               0
GRID*               7926               0-2.999999814E+023.4347417818E+01+
*       4.2970852223E+01               0
GRID*               7927               0-2.499999856E+023.4347189331E+01+
*       4.2971027236E+01               0
GRID*               7928               0-2.624999948E+024.2321072782E+01+
*       3.3970144189E+01               0
GRID*               7929               0-5.125000164E+02-3.380706208E+01+
*       4.2640584072E+01               0
GRID*               7930               0-4.875000257E+023.4347809785E+01+
*       -4.297055238E+01               0
GRID*               7931               0-4.124999827E+02-3.380713155E+01+
*       -4.264050941E+01               0
GRID*               7932               0-4.124999739E+02-2.391123145E+01+
*       -4.947195762E+01               0
GRID*               7933               0-4.124999813E+02-4.307735954E+01+
*       -3.429356679E+01               0
GRID*               7934               0-2.874999743E+02-1.090898971E-01+
*       -5.477738652E+01               0
GRID*               7935               0-2.999999745E+02-1.090803379E-01+
*       -5.477738526E+01               0
GRID*               7936               0-2.624999903E+02-4.307703683E+01+
*       -3.429398828E+01               0
GRID*               7937               0-2.874999735E+021.2297400427E+01+
*       -5.347336023E+01               0
GRID*               7938               0-2.874999981E+022.3543078774E+01+
*       -4.920896574E+01               0
GRID*               7939               0-2.999999737E+021.2297377140E+01+
*       -5.347336747E+01               0
GRID*               7940               0-2.625000041E+02-5.373936552E+01+
*       1.2249730800E+01               0
GRID*               7941               0-1.825851008E+02-1.031722304E+01+
*       5.0291746612E+01               0
GRID*               7942               0-1.825851189E+02-4.544782028E+00+
*       5.6634922887E+01               0
GRID*               7943               0-2.124999987E+02-5.373932449E+01+
*       2.2451571245E-01               0
GRID*               7944               0-2.124999989E+02-5.373930377E+01+
*       -1.225014383E+01               0
GRID*               7945               0-2.250000046E+02-5.373933997E+01+
*       -2.249032951E-01               0
GRID*               7946               0-1.950851190E+02-4.544769255E+00+
*       5.6634923654E+01               0
GRID*               7947               0-6.249999790E+012.3543066342E+01+
*       4.9208909476E+01               0
GRID*               7948               0-4.999999889E+012.3543016870E+01+
*       4.9208947437E+01               0
GRID*               7949               0-8.932390800E+021.2753986018E+01+
*       5.0109910746E+01               0
GRID*               7950               0-8.807390806E+021.2753947402E+01+
*       5.0109910518E+01               0
GRID*               7951               0-8.932390800E+022.3998033141E+01+
*       4.5845693128E+01               0
GRID*               7952               0-2.500002318E+015.5125000000E+01+
*       -5.890863232E-15               0
GRID*               7953               0-2.500001143E+015.2531350176E+01+
*       -1.220208865E+01               0
GRID*               7954               0-3.750001125E+015.2531354802E+01+
*       -1.220207838E+01               0
GRID*               7955               0-3.749999693E+014.9653276562E+01+
*       -2.387841043E+01               0
GRID*               7956               0-9.999999075E+012.3542584780E+01+
*       -4.920931008E+01               0
GRID*               7957               0-1.124999893E+021.2298329556E+01+
*       -5.347325575E+01               0
GRID*               7958               0-1.124999905E+022.3542609891E+01+
*       -4.920930227E+01               0
GRID*               7959               0-8.875000005E+02-1.073853219E-01+
*       -5.477715514E+01               0
GRID*               7960               0-8.045327774E+02-4.048415567E+00+
*       -5.088505914E+01               0
GRID*               7961               0-8.000000031E+023.4346568308E+01+
*       -4.297150531E+01               0
GRID*               7962               0-8.000000036E+022.3543107278E+01+
*       -4.920886673E+01               0
GRID*               7963               0-7.875000008E+024.2320955270E+01+
*       -3.397042367E+01               0
GRID*               7964               0-7.875000031E+023.4346572026E+01+
*       -4.297150159E+01               0
GRID*               7965               0-7.799149005E+027.8609893735E+00+
*       -5.533088841E+01               0
GRID*               7966               0-1.125000038E+02-5.373934004E+01+
*       1.2249890143E+01               0
GRID*               7967               0-1.125000033E+02-5.373932470E+01+
*       -2.248556925E-01               0
GRID*               7968               0-7.875000118E+02-2.390864076E+01+
*       -4.947305721E+01               0
GRID*               7969               0-7.499999990E+01-5.373930641E+01+
*       2.2453479268E-01               0
GRID*               7970               0-3.749999825E+01-1.073156490E-01+
*       5.4777144543E+01               0
GRID*               7971               0-2.499999944E+01-1.073925811E-01+
*       5.4777154670E+01               0
GRID*               7972               0-3.749999943E+011.2298964541E+01+
*       5.3473184394E+01               0
GRID*               7973               0-4.999999824E+011.2299041474E+01+
*       5.3473174266E+01               0
GRID*               7974               0-2.499999915E+01-1.204515464E+01+
*       5.3327697171E+01               0
GRID*               7975               0-7.750000116E+023.4345777797E+01+
*       4.2972114977E+01               0
GRID*               7976               0-3.749999895E+012.3543023733E+01+
*       4.9208945302E+01               0
GRID*               7977               0-6.750000238E+021.2297600280E+01+
*       5.3473332943E+01               0
GRID*               7978               0-6.750000226E+02-1.089003709E-01+
*       5.4777358803E+01               0
GRID*               7979               0-6.679818459E+02-1.120905110E+00+
*       5.1518256479E+01               0
GRID*               7980               0-1.197425208E+02-5.305857938E+00+
*       -5.662335478E+01               0
GRID*               7981               0-1.124023506E+02-1.042414208E+01+
*       -5.279105785E+01               0
GRID*               7982               0-5.875000024E+02-4.866536114E+01+
*       2.3646295815E+01               0
GRID*               7983               0-6.250000112E+02-4.307709870E+01+
*       3.4293907643E+01               0
GRID*               7984               0-6.374999889E+024.9653760893E+01+
*       2.3877256280E+01               0
GRID*               7985               0-1.197425143E+02-1.107974213E+01+
*       -5.027956261E+01               0
GRID*               7986               0-6.250000073E+025.5125000000E+01+
*       -6.214498004E-15               0
GRID*               7987               0-6.125000076E+025.5125000000E+01+
*       -6.131514733E-15               0
GRID*               7988               0-6.250000055E+025.2531264971E+01+
*       -1.220227784E+01               0
GRID*               7989               0-5.750000059E+025.2531427516E+01+
*       1.2201916927E+01               0
GRID*               7990               0-5.750000086E+025.5125000000E+01+
*       -6.187528440E-15               0
GRID*               7991               0-5.875000061E+025.2531432048E+01+
*       1.2201906863E+01               0
GRID*               7992               0-5.875000083E+025.5125000000E+01+
*       -6.270511711E-15               0
GRID*               7993               0-4.624999760E+02-2.391113390E+01+
*       -4.947199358E+01               0
GRID*               7994               0-4.374999737E+02-1.204674661E+01+
*       -5.332701296E+01               0
GRID*               7995               0-4.499999760E+02-2.391113219E+01+
*       -4.947199462E+01               0
GRID*               7996               0-4.499999793E+02-4.307744050E+01+
*       -3.429346115E+01               0
GRID*               7997               0-4.624999792E+02-4.307743670E+01+
*       -3.429346600E+01               0
GRID*               7998               0-8.500000004E+024.2320916427E+01+
*       -3.397048500E+01               0
GRID*               7999               0-3.874999940E+021.2298462806E+01+
*       -5.347325716E+01               0
GRID*               8000               0-3.999999930E+02-1.077920671E-01+
*       -5.477721969E+01               0
GRID*               8001               0-3.999999945E+021.2298400730E+01+
*       -5.347327647E+01               0
GRID*               8002               0-3.826013606E+02-5.611163352E+01+
*       6.9079424943E+00               0
GRID*               8003               0-3.749999850E+02-1.083468054E-01+
*       -5.477729171E+01               0
GRID*               8004               0-8.750000000E+02-5.373930376E+01+
*       -2.245363831E-01               0
GRID*               8005               0-2.875000112E+024.9653772638E+01+
*       -2.387722867E+01               0
GRID*               8006               0-8.124999993E+02-5.373931285E+01+
*       -1.225009667E+01               0
GRID*               8007               0-7.875000072E+02-1.078699846E-01+
*       5.4777220305E+01               0
GRID*               8008               0-7.875000095E+022.3542609891E+01+
*       4.9209302267E+01               0
GRID*               8009               0-7.750000124E+022.3542448182E+01+
*       4.9209426349E+01               0
GRID*               8010               0-7.875000116E+023.4345777300E+01+
*       4.2972115473E+01               0
GRID*               8011               0-1.499999898E+02-3.380583521E+01+
*       4.2642118588E+01               0
GRID*               8012               0-1.749999818E+02-2.390829090E+01+
*       4.9473194727E+01               0
GRID*               8013               0-6.625000257E+021.2297467151E+01+
*       5.3473350468E+01               0
GRID*               8014               0-6.554818479E+02-1.121038239E+00+
*       5.1518274005E+01               0
GRID*               8015               0-1.950850986E+02-1.031708240E+01+
*       5.0291804869E+01               0
GRID*               8016               0-1.825851177E+02-1.640904117E+01+
*       5.2779978558E+01               0
GRID*               8017               0-1.250000037E+02-5.373934171E+01+
*       1.2249881027E+01               0
GRID*               8018               0-6.045107889E+023.0166194923E+01+
*       -4.722959098E+01               0
GRID*               8019               0-8.750000071E+01-5.373931285E+01+
*       1.2250096673E+01               0
GRID*               8020               0-6.375000070E+025.5125000000E+01+
*       -6.144999516E-15               0
GRID*               8021               0-6.500000066E+025.5125000000E+01+
*       -6.227982786E-15               0
GRID*               8022               0-1.249999996E+01-4.866539065E+01+
*       -2.364636492E+01               0
GRID*               8023               0-2.499999998E+01-5.373930240E+01+
*       -1.225016652E+01               0
GRID*               8024               0-6.125000058E+025.2531264971E+01+
*       -1.220227784E+01               0
GRID*               8025               0-4.624999889E+024.9653622012E+01+
*       2.3877574721E+01               0
GRID*               8026               0-3.625000186E+02-3.380720794E+01+
*       4.2640419471E+01               0
GRID*               8027               0-3.750000191E+02-3.380722795E+01+
*       4.2640393387E+01               0
GRID*               8028               0-6.250000181E+022.3543699337E+01+
*       -4.920834913E+01               0
GRID*               8029               0-6.170108058E+022.4365624064E+01+
*       -4.561188137E+01               0
GRID*               8030               0-6.875000056E+025.5125000000E+01+
*       -6.171969080E-15               0
GRID*               8031               0-6.750000060E+025.5125000000E+01+
*       -6.241467569E-15               0
GRID*               8032               0-7.000000041E+025.2531290969E+01+
*       -1.220222011E+01               0
GRID*               8033               0-5.499999811E+022.3544054136E+01+
*       4.9208170202E+01               0
GRID*               8034               0-5.499999809E+023.4347443954E+01+
*       4.2970834684E+01               0
GRID*               8035               0-5.624999809E+023.4347442862E+01+
*       4.2970835776E+01               0
GRID*               8036               0-7.125000039E+024.9653350067E+01+
*       -2.387822150E+01               0
GRID*               8037               0-4.374999892E+024.2321213417E+01+
*       3.3969795601E+01               0
GRID*               8038               0-3.875000190E+02-3.380723469E+01+
*       4.2640389316E+01               0
GRID*               8039               0-4.000000158E+02-2.391061881E+01+
*       4.9472207505E+01               0
GRID*               8040               0-3.625000092E+02-2.391017323E+01+
*       4.9472395206E+01               0
GRID*               8041               0-4.125000258E+022.3544159591E+01+
*       -4.920800453E+01               0
GRID*               8042               0-3.624999969E+02-4.866535363E+01+
*       -2.364627665E+01               0
GRID*               8043               0-3.124999744E+02-1.090751671E-01+
*       -5.477738557E+01               0
GRID*               8044               0-3.249999734E+02-1.204678632E+01+
*       -5.332700392E+01               0
GRID*               8045               0-3.249999761E+02-1.089655425E-01+
*       -5.477737114E+01               0
GRID*               8046               0-4.125000048E+02-4.866534041E+01+
*       2.3646220322E+01               0
GRID*               8047               0-2.124999814E+021.2299990366E+01+
*       5.3473071532E+01               0
GRID*               8048               0-2.249999864E+022.3543506065E+01+
*       4.9208515695E+01               0
GRID*               8049               0-2.249999784E+021.2300192691E+01+
*       5.3473044898E+01               0
GRID*               8050               0-1.999999887E+022.3543413068E+01+
*       4.9208596793E+01               0
GRID*               8051               0-2.124999899E+023.4346958541E+01+
*       4.2971204240E+01               0
GRID*               8052               0-5.053098928E+02-5.106929521E+01+
*       -5.639177396E+00               0
GRID*               8053               0-4.000000048E+02-4.866533757E+01+
*       2.3646223953E+01               0
GRID*               8054               0-3.499999923E+024.2321133940E+01+
*       3.3969992069E+01               0
GRID*               8055               0-3.624999915E+024.2321155589E+01+
*       3.3969939806E+01               0
GRID*               8056               0-1.125000096E+025.2531380851E+01+
*       -1.220202054E+01               0
GRID*               8057               0-5.500000142E+02-3.380691884E+01+
*       4.2640747736E+01               0
GRID*               8058               0-5.443997811E+02-3.460184108E+01+
*       3.8724747434E+01               0
GRID*               8059               0-1.874999919E+023.4346849276E+01+
*       4.2971288068E+01               0
GRID*               8060               0-1.375000043E+02-5.373934705E+01+
*       1.2249840511E+01               0
GRID*               8061               0-1.375000033E+02-4.866545412E+01+
*       2.3646073778E+01               0
GRID*               8062               0-1.500000039E+02-4.866545945E+01+
*       2.3646033262E+01               0
GRID*               8063               0-1.250000031E+02-5.373932116E+01+
*       -2.248749196E-01               0
GRID*               8064               0-1.375000037E+02-5.373932650E+01+
*       -2.249154357E-01               0
GRID*               8065               0-3.749999964E+02-5.373935383E+01+
*       2.2454358961E-01               0
GRID*               8066               0-4.374999742E+023.4347807514E+01+
*       4.2970554656E+01               0
GRID*               8067               0-4.499999892E+024.2321212271E+01+
*       3.3969796747E+01               0
GRID*               8068               0-5.318997667E+02-4.006546183E+01+
*       3.9698321517E+01               0
GRID*               8069               0-5.250000173E+02-4.307731727E+01+
*       3.4293622159E+01               0
GRID*               8070               0-8.875000008E+02-2.390928673E+01+
*       -4.947279395E+01               0
GRID*               8071               0-8.875000001E+02-1.204520438E+01+
*       -5.332768200E+01               0
GRID*               8072               0-6.679818405E+02-1.305821770E+01+
*       5.0068146036E+01               0
GRID*               8073               0-8.625000007E+02-3.380620516E+01+
*       4.2641600065E+01               0
GRID*               8074               0-8.375000015E+02-3.380621519E+01+
*       4.2641578070E+01               0
GRID*               8075               0-8.250000031E+02-2.390944603E+01+
*       4.9472734750E+01               0
GRID*               8076               0-4.749999730E+022.3544221973E+01+
*       4.9207956667E+01               0
GRID*               8077               0-3.249999975E+02-4.866535508E+01+
*       -2.364630355E+01               0
GRID*               8078               0-4.375000230E+02-1.204653634E+01+
*       5.3327098317E+01               0
GRID*               8079               0-2.874999819E+02-1.204391625E+01+
*       5.3328176950E+01               0
GRID*               8080               0-7.124999950E+02-4.866540709E+01+
*       -2.364608162E+01               0
GRID*               8081               0-7.124999957E+02-5.373935644E+01+
*       -1.224978315E+01               0
GRID*               8082               0-7.249999956E+02-5.373935409E+01+
*       -1.224979593E+01               0
GRID*               8083               0-7.125000083E+02-3.380595482E+01+
*       -4.264198354E+01               0
GRID*               8084               0-6.875000033E+02-3.380618684E+01+
*       -4.264169230E+01               0
GRID*               8085               0-7.000000020E+02-4.307658054E+01+
*       -3.429458334E+01               0
GRID*               8086               0-7.250000076E+02-4.307639658E+01+
*       -3.429482395E+01               0
GRID*               8087               0-6.554818245E+02-1.914773437E+01+
*       5.2557361000E+01               0
GRID*               8088               0-2.374999801E+02-1.204638117E+01+
*       -5.332717869E+01               0
GRID*               8089               0-6.250000200E+02-2.390826673E+01+
*       -4.947319273E+01               0
GRID*               8090               0-6.375000199E+02-2.390825090E+01+
*       -4.947320230E+01               0
GRID*               8091               0-6.375000200E+02-1.204379640E+01+
*       -5.332822673E+01               0
GRID*               8092               0-6.500000218E+02-2.390813068E+01+
*       -4.947325210E+01               0
GRID*               8093               0-6.500000201E+02-1.204379863E+01+
*       -5.332822659E+01               0
GRID*               8094               0-6.554818432E+02-1.305838591E+01+
*       5.0068076362E+01               0
GRID*               8095               0-5.500000223E+023.4347619995E+01+
*       -4.297069752E+01               0
GRID*               8096               0-5.625000073E+02-1.204459679E+01+
*       -5.332789619E+01               0
GRID*               8097               0-5.750000073E+02-1.204459463E+01+
*       -5.332789632E+01               0
GRID*               8098               0-4.999999879E+024.2321243330E+01+
*       3.3969718500E+01               0
GRID*               8099               0-4.999999883E+024.9653689491E+01+
*       2.3877418426E+01               0
GRID*               8100               0-4.749999744E+023.4347800991E+01+
*       4.2970559930E+01               0
GRID*               8101               0-4.874999743E+023.4347799837E+01+
*       4.2970561084E+01               0
GRID*               8102               0-4.874999879E+024.2321244484E+01+
*       3.3969717346E+01               0
GRID*               8103               0-4.749999885E+024.2321228861E+01+
*       3.3969755063E+01               0
GRID*               8104               0-5.124999777E+023.4347623417E+01+
*       4.2970696453E+01               0
GRID*               8105               0-5.374999805E+022.3543975785E+01+
*       4.9208194579E+01               0
GRID*               8106               0-5.374999776E+023.4347621154E+01+
*       4.2970698716E+01               0
GRID*               8107               0-1.124999986E+024.2320962897E+01+
*       3.3970400002E+01               0
GRID*               8108               0-1.124999980E+024.9653340367E+01+
*       2.3878250766E+01               0
GRID*               8109               0-1.249999976E+024.9653351712E+01+
*       2.3878223377E+01               0
GRID*               8110               0-4.250000231E+02-1.204653170E+01+
*       5.3327098596E+01               0
GRID*               8111               0-4.374999875E+02-1.064511835E-01+
*       5.4777045987E+01               0
GRID*               8112               0-4.124999811E+02-1.060074817E-01+
*       5.4776988389E+01               0
GRID*               8113               0-4.125000182E+02-1.204622489E+01+
*       5.3327225683E+01               0
GRID*               8114               0-1.250000094E+025.2531321136E+01+
*       1.2202153129E+01               0
GRID*               8115               0-1.375000092E+025.2531311399E+01+
*       1.2202174749E+01               0
GRID*               8116               0-6.500000245E+021.2300356219E+01+
*       -5.347302709E+01               0
GRID*               8117               0-6.444113067E+021.3185632187E+01+
*       -5.036963782E+01               0
GRID*               8118               0-6.374999951E+02-5.373935042E+01+
*       2.2482980292E-01               0
GRID*               8119               0-6.375000097E+02-4.307703683E+01+
*       3.4293988282E+01               0
GRID*               8120               0-2.499999904E+02-4.307704272E+01+
*       -3.429398076E+01               0
GRID*               8121               0-2.624999980E+02-5.373933328E+01+
*       2.2451467280E-01               0
GRID*               8122               0-2.749999978E+02-5.373933526E+01+
*       2.2452972155E-01               0
GRID*               8123               0-2.875000039E+02-5.373936330E+01+
*       1.2249747663E+01               0
GRID*               8124               0-2.875000052E+02-5.373935903E+01+
*       -2.247659211E-01               0
GRID*               8125               0-3.749999904E+01-1.204516815E+01+
*       5.3327696359E+01               0
GRID*               8126               0-2.249999910E+02-3.380639153E+01+
*       -4.264128097E+01               0
GRID*               8127               0-2.249999820E+02-2.391026047E+01+
*       -4.947241219E+01               0
GRID*               8128               0-7.750000046E+023.4346652011E+01+
*       -4.297144022E+01               0
GRID*               8129               0-7.875000051E+022.3543187263E+01+
*       -4.920880536E+01               0
GRID*               8130               0-2.049148914E+02-1.032102358E+01+
*       -5.029066735E+01               0
GRID*               8131               0-2.174149046E+02-1.641069258E+01+
*       -5.277982282E+01               0
GRID*               8132               0-8.000000061E+021.2299289637E+01+
*       -5.347314606E+01               0
GRID*               8133               0-8.125000060E+02-1.070653823E-01+
*       -5.477710724E+01               0
GRID*               8134               0-7.875000034E+024.9653299672E+01+
*       2.3878358618E+01               0
GRID*               8135               0-1.053128067E+023.4401873509E+01+
*       -3.852069954E+01               0
GRID*               8136               0-1.178128037E+023.4401711799E+01+
*       -3.852082362E+01               0
GRID*               8137               0-7.500000050E+02-3.380624679E+01+
*       4.2641480617E+01               0
GRID*               8138               0-7.625000048E+02-3.380626613E+01+
*       4.2641468936E+01               0
GRID*               8139               0-7.125000081E+023.4346849276E+01+
*       -4.297128807E+01               0
GRID*               8140               0-7.250000081E+023.4346848901E+01+
*       -4.297128844E+01               0
GRID*               8141               0-7.375000079E+02-4.307641975E+01+
*       -3.429479437E+01               0
GRID*               8142               0-9.999999516E+014.2320791105E+01+
*       -3.397079522E+01               0
GRID*               8143               0-9.999999138E+013.4345939010E+01+
*       -4.297199139E+01               0
GRID*               8144               0-7.375000104E+02-3.380584963E+01+
*       -4.264210988E+01               0
GRID*               8145               0-6.499999905E+02-3.380674206E+01+
*       -4.264097997E+01               0
GRID*               8146               0-6.749999959E+02-3.380649480E+01+
*       -4.264129096E+01               0
GRID*               8147               0-6.999999958E+02-5.373933218E+01+
*       2.2494089142E-01               0
GRID*               8148               0-6.874999955E+02-5.373935820E+01+
*       -1.224976978E+01               0
GRID*               8149               0-6.999999955E+02-5.373935784E+01+
*       -1.224977253E+01               0
GRID*               8150               0-5.125000173E+02-4.307731173E+01+
*       3.4293629225E+01               0
GRID*               8151               0-4.875000038E+02-4.866534696E+01+
*       2.3646255562E+01               0
GRID*               8152               0-5.000000035E+02-4.866534461E+01+
*       2.3646273412E+01               0
GRID*               8153               0-7.187782763E+02-1.232896475E+01+
*       5.0337671732E+01               0
GRID*               8154               0-7.062782658E+02-1.841879799E+01+
*       5.2826760083E+01               0
GRID*               8155               0-4.249999828E+02-3.380714586E+01+
*       -4.264050076E+01               0
GRID*               8156               0-4.374999802E+02-4.307740177E+01+
*       -3.429351163E+01               0
GRID*               8157               0-1.124999884E+023.4345777300E+01+
*       -4.297211547E+01               0
GRID*               8158               0-6.624999960E+02-3.380651089E+01+
*       -4.264128123E+01               0
GRID*               8159               0-6.625000217E+02-2.390811458E+01+
*       -4.947326182E+01               0
GRID*               8160               0-2.374999896E+02-3.380645168E+01+
*       -4.264120258E+01               0
GRID*               8161               0-1.438618347E+022.7943021409E+01+
*       -4.862311265E+01               0
GRID*               8162               0-1.749999831E+02-1.085216572E-01+
*       -5.477730737E+01               0
GRID*               8163               0-6.249999718E+01-1.204506947E+01+
*       5.3327740501E+01               0
GRID*               8164               0-5.625000252E+02-2.391107367E+01+
*       4.9472033536E+01               0
GRID*               8165               0-5.875000237E+02-2.391090650E+01+
*       4.9472111409E+01               0
GRID*               8166               0-5.374999887E+024.9653744389E+01+
*       2.3877294036E+01               0
GRID*               8167               0-5.500000060E+025.2531417321E+01+
*       1.2201939562E+01               0
GRID*               8168               0-5.499999884E+024.9653753771E+01+
*       2.3877271387E+01               0
GRID*               8169               0-5.375000064E+025.2531417321E+01+
*       1.2201939562E+01               0
GRID*               8170               0-5.499999870E+024.2321263329E+01+
*       3.3969667019E+01               0
GRID*               8171               0-5.624999868E+024.2321268275E+01+
*       3.3969655080E+01               0
GRID*               8172               0-1.438618358E+023.8746326379E+01+
*       -4.238580854E+01               0
GRID*               8173               0-1.500000025E+024.2320983059E+01+
*       -3.397033335E+01               0
GRID*               8174               0-8.443227479E+02-4.822230095E+01+
*       1.8082550585E+01               0
GRID*               8175               0-8.443227485E+02-4.263363162E+01+
*       2.8730588628E+01               0
GRID*               8176               0-8.443227478E+02-4.809791756E+01+
*       2.9703297480E+01               0
GRID*               8177               0-6.750000146E+022.3542434546E+01+
*       4.9209473167E+01               0
GRID*               8178               0-6.875000200E+02-1.087217646E-01+
*       5.4777335291E+01               0
GRID*               8179               0-6.750000132E+023.4345687319E+01+
*       4.2972183738E+01               0
GRID*               8180               0-6.875000131E+023.4345686489E+01+
*       4.2972184568E+01               0
GRID*               8181               0-6.625000146E+022.3542437722E+01+
*       4.9209472179E+01               0
GRID*               8182               0-4.124999718E+02-1.204687271E+01+
*       -5.332696254E+01               0
GRID*               8183               0-3.874999849E+02-1.083415653E-01+
*       -5.477729203E+01               0
GRID*               8184               0-3.999999710E+02-1.204692364E+01+
*       -5.332694145E+01               0
GRID*               8185               0-3.000000037E+02-5.373936591E+01+
*       1.2249733485E+01               0
GRID*               8186               0-5.125000034E+02-4.866535015E+01+
*       2.3646266346E+01               0
GRID*               8187               0-8.318227478E+02-4.809791549E+01+
*       2.9703300127E+01               0
GRID*               8188               0-8.318227481E+02-5.317182403E+01+
*       1.8307134217E+01               0
GRID*               8189               0-4.499999958E+02-4.866533965E+01+
*       -2.364625010E+01               0
GRID*               8190               0-4.624999813E+02-3.380722050E+01+
*       -4.264040867E+01               0
GRID*               8191               0-3.874999710E+02-1.204692888E+01+
*       -5.332694113E+01               0
GRID*               8192               0-3.499999794E+02-1.087290026E-01+
*       -5.477734101E+01               0
GRID*               8193               0-3.624999711E+02-1.204692727E+01+
*       -5.332694367E+01               0
GRID*               8194               0-3.624999794E+02-1.087237206E-01+
*       -5.477734133E+01               0
GRID*               8195               0-8.318227480E+02-4.822230156E+01+
*       1.8082545961E+01               0
GRID*               8196               0-1.125000097E+025.2531321136E+01+
*       1.2202153129E+01               0
GRID*               8197               0-3.000000079E+023.4346835372E+01+
*       -4.297130216E+01               0
GRID*               8198               0-1.250002351E+015.5125000000E+01+
*       -5.807879961E-15               0
GRID*               8199               0-1.197425108E+028.5775377569E-01+
*       -5.172929369E+01               0
GRID*               8200               0-3.000000068E+022.3543551004E+01+
*       -4.920860339E+01               0
GRID*               8201               0-1.249999881E+02-2.390865222E+01+
*       4.9473050287E+01               0
GRID*               8202               0-4.999999999E+01-5.373930478E+01+
*       2.2453574113E-01               0
GRID*               8203               0-6.249999997E+01-5.373930580E+01+
*       2.2453016915E-01               0
GRID*               8204               0-2.249999878E+023.4347072889E+01+
*       4.2971116500E+01               0
GRID*               8205               0-2.249999963E+024.2321033435E+01+
*       3.3970239685E+01               0
GRID*               8206               0-2.374999956E+024.2321052806E+01+
*       3.3970192919E+01               0
GRID*               8207               0-8.406087575E+024.6974538766E+01+
*       2.2535229032E+01               0
GRID*               8208               0-8.406087550E+025.2133967182E+01+
*       2.3060985632E+01               0
GRID*               8209               0-2.499999955E+024.2321052449E+01+
*       3.3970193277E+01               0
GRID*               8210               0-1.250000205E+025.5125000000E+01+
*       -5.944802361E-15               0
GRID*               8211               0-1.375000202E+025.5125000000E+01+
*       -6.027785632E-15               0
GRID*               8212               0-1.375000091E+025.2531391632E+01+
*       -1.220199660E+01               0
GRID*               8213               0-2.374999843E+022.3543622865E+01+
*       4.9208426073E+01               0
GRID*               8214               0-8.917629621E+02-5.024840873E+01+
*       -1.825823354E+00               0
GRID*               8215               0-5.000000058E+025.2531375303E+01+
*       1.2202032858E+01               0
GRID*               8216               0-2.374999878E+023.4347072531E+01+
*       4.2971116857E+01               0
GRID*               8217               0-1.124999914E+02-1.068786862E-01+
*       5.4777083836E+01               0
GRID*               8218               0-1.249999911E+021.2299453393E+01+
*       5.3473127516E+01               0
GRID*               8219               0-7.499999445E+013.4346104987E+01+
*       -4.297186413E+01               0
GRID*               8220               0-7.499999402E+012.3542728233E+01+
*       -4.920918955E+01               0
GRID*               8221               0-8.749999382E+012.3542751154E+01+
*       -4.920918242E+01               0
GRID*               8222               0-8.875000000E+02-5.373930503E+01+
*       1.2250158100E+01               0
GRID*               8223               0-8.874999999E+02-5.373930639E+01+
*       -2.245448064E-01               0
GRID*               8224               0-6.875000167E+022.3542321558E+01+
*       4.9209559864E+01               0
GRID*               8225               0-6.875000237E+021.2297587971E+01+
*       5.3473336773E+01               0
GRID*               8226               0-1.500000012E+024.9653455084E+01+
*       -2.387798748E+01               0
GRID*               8227               0-2.499999936E+024.9653385778E+01+
*       2.3878131683E+01               0
GRID*               8228               0-2.624999935E+024.9653378405E+01+
*       2.3878148055E+01               0
GRID*               8229               0-1.125000209E+025.5125000000E+01+
*       -6.014300850E-15               0
GRID*               8230               0-8.375000009E+023.4346445956E+01+
*       -4.297160085E+01               0
GRID*               8231               0-8.500000011E+022.3543016870E+01+
*       -4.920894744E+01               0
GRID*               8232               0-8.500000011E+023.4346433838E+01+
*       -4.297161297E+01               0
GRID*               8233               0-6.875000045E+025.2531412575E+01+
*       1.2201950101E+01               0
GRID*               8234               0-1.625000086E+025.2531402428E+01+
*       -1.220197263E+01               0
GRID*               8235               0-8.450850931E+022.1798381631E+01+
*       -4.641931647E+01               0
GRID*               8236               0-7.000000153E+023.4345573501E+01+
*       4.2972271265E+01               0
GRID*               8237               0-7.625000012E+024.2320968619E+01+
*       -3.397039428E+01               0
GRID*               8238               0-7.625000045E+023.4346654015E+01+
*       -4.297143822E+01               0
GRID*               8239               0-8.917629621E+02-5.519793760E+01+
*       -1.601277637E+00               0
GRID*               8240               0-2.249999945E+024.9653375249E+01+
*       2.3878158816E+01               0
GRID*               8241               0-7.875000084E+02-3.380589526E+01+
*       -4.264203115E+01               0
GRID*               8242               0-2.250000073E+025.2531281187E+01+
*       1.2202241832E+01               0
GRID*               8243               0-2.374999943E+024.9653366407E+01+
*       2.3878178449E+01               0
GRID*               8244               0-5.750000095E+02-2.390897305E+01+
*       -4.947289465E+01               0
GRID*               8245               0-5.875000094E+02-2.390895916E+01+
*       -4.947290304E+01               0
GRID*               8246               0-6.500000225E+02-1.057654712E-01+
*       -5.477695794E+01               0
GRID*               8247               0-6.625000226E+02-1.057701616E-01+
*       -5.477695766E+01               0
GRID*               8248               0-5.250000067E+025.2531262361E+01+
*       -1.220228363E+01               0
GRID*               8249               0-5.375000068E+025.2531257614E+01+
*       -1.220229417E+01               0
GRID*               8250               0-4.624999956E+02-4.866534196E+01+
*       -2.364623256E+01               0
GRID*               8251               0-5.625000030E+02-5.373934708E+01+
*       -2.245210356E-01               0
GRID*               8252               0-5.750000029E+02-5.373934467E+01+
*       -2.245341157E-01               0
GRID*               8253               0-7.375000042E+02-4.307683813E+01+
*       3.4294247824E+01               0
GRID*               8254               0-4.125000051E+021.2299121367E+01+
*       -5.347318161E+01               0
GRID*               8255               0-3.624999993E+02-5.373935543E+01+
*       -1.224983698E+01               0
GRID*               8256               0-3.875000025E+02-5.373936542E+01+
*       1.2249752707E+01               0
GRID*               8257               0-7.875000047E+024.2320791602E+01+
*       3.3970794721E+01               0
GRID*               8258               0-8.000000083E+02-3.380588381E+01+
*       -4.264203807E+01               0
GRID*               8259               0-2.374999782E+021.2300171963E+01+
*       5.3473051347E+01               0
GRID*               8260               0-6.249999677E+012.3542875432E+01+
*       -4.920907660E+01               0
GRID*               8261               0-7.499999538E+011.2298703339E+01+
*       -5.347321066E+01               0
GRID*               8262               0-1.555890398E+02-7.185816163E+00+
*       5.6853098950E+01               0
GRID*               8263               0-1.881045755E+01-1.408784735E+01+
*       4.9966491493E+01               0
GRID*               8264               0-1.881045822E+01-8.314414697E+00+
*       5.6310101771E+01               0
GRID*               8265               0-6.310458309E+00-2.017854679E+01+
*       5.2455198551E+01               0
GRID*               8266               0-3.125000159E+02-3.380706607E+01+
*       4.2640589046E+01               0
GRID*               8267               0-1.250000093E+025.2531380851E+01+
*       -1.220202054E+01               0
GRID*               8268               0-3.249999757E+021.2297445704E+01+
*       -5.347336582E+01               0
GRID*               8269               0-3.374999994E+02-5.373935106E+01+
*       -1.224986562E+01               0
GRID*               8270               0-1.500000042E+02-5.373934899E+01+
*       1.2249829945E+01               0
GRID*               8271               0-3.499999719E+02-1.204687314E+01+
*       -5.332696609E+01               0
GRID*               8272               0-1.500000036E+02-5.373932438E+01+
*       -2.249269603E-01               0
GRID*               8273               0-1.000000212E+025.5125000000E+01+
*       -5.931317579E-15               0
GRID*               8274               0-1.375000014E+024.9653444302E+01+
*       -2.387801142E+01               0
GRID*               8275               0-5.125000238E+023.4347701328E+01+
*       -4.297063561E+01               0
GRID*               8276               0-5.625000063E+025.2531427516E+01+
*       1.2201916927E+01               0
GRID*               8277               0-5.624999886E+024.9653763966E+01+
*       2.3877248751E+01               0
GRID*               8278               0-5.999999886E+024.9653772754E+01+
*       2.3877228414E+01               0
GRID*               8279               0-7.625000090E+021.2299434462E+01+
*       -5.347313341E+01               0
GRID*               8280               0-7.625000069E+022.3543262485E+01+
*       -4.920873997E+01               0
GRID*               8281               0-4.624999727E+022.3544190522E+01+
*       4.9207966452E+01               0
GRID*               8282               0-8.875000000E+02-4.866539065E+01+
*       2.3646364918E+01               0
GRID*               8283               0-5.500000065E+025.2531257614E+01+
*       -1.220229417E+01               0
GRID*               8284               0-5.625000066E+025.2531256957E+01+
*       -1.220229563E+01               0
GRID*               8285               0-5.625000089E+025.5125000000E+01+
*       -6.104545169E-15               0
GRID*               8286               0-1.250000002E+01-5.373930503E+01+
*       -1.225015810E+01               0
GRID*               8287               0-2.500000002E+01-5.373930376E+01+
*       2.2453638313E-01               0
GRID*               8288               0-3.749999875E+01-5.373929193E+01+
*       1.2250249025E+01               0
GRID*               8289               0-3.749999870E+01-5.373929057E+01+
*       -2.244538808E-01               0
GRID*               8290               0-4.999999877E+01-5.373929257E+01+
*       1.2250245536E+01               0
GRID*               8291               0-3.750002285E+015.5125000000E+01+
*       -5.821364744E-15               0
GRID*               8292               0-8.932390800E+021.8996046341E+01+
*       5.3700082079E+01               0
GRID*               8293               0-5.750000143E+02-4.307721126E+01+
*       3.4293760624E+01               0
GRID*               8294               0-5.875000128E+02-4.307714917E+01+
*       3.4293841544E+01               0
GRID*               8295               0-6.249999555E+011.2298684602E+01+
*       -5.347321649E+01               0
GRID*               8296               0-6.375000246E+02-1.090240882E-01+
*       5.4777376894E+01               0
GRID*               8297               0-8.749999138E+013.4345938613E+01+
*       -4.297199179E+01               0
GRID*               8298               0-8.749999263E+011.2298517836E+01+
*       -5.347323508E+01               0
GRID*               8299               0-4.250000050E+02-5.373936830E+01+
*       -2.245866048E-01               0
GRID*               8300               0-3.624999841E+02-4.307725986E+01+
*       -3.429369697E+01               0
GRID*               8301               0-4.999999755E+023.4347737455E+01+
*       4.2970608950E+01               0
GRID*               8302               0-4.999999745E+022.3544204947E+01+
*       4.9207990422E+01               0
GRID*               8303               0-5.624999998E+02-2.390958398E+01+
*       -4.947264159E+01               0
GRID*               8304               0-4.624999980E+02-5.373936777E+01+
*       -1.224974477E+01               0
GRID*               8305               0-4.249999724E+022.3544176029E+01+
*       4.9207968512E+01               0
GRID*               8306               0-6.249999968E+01-5.373929596E+01+
*       -1.225020070E+01               0
GRID*               8307               0-3.375000033E+02-5.373936924E+01+
*       1.2249718889E+01               0
GRID*               8308               0-2.375000072E+025.2531428091E+01+
*       -1.220191565E+01               0
GRID*               8309               0-1.999999990E+02-4.866537427E+01+
*       -2.364634115E+01               0
GRID*               8310               0-2.875000183E+02-4.307734886E+01+
*       3.4293580703E+01               0
GRID*               8311               0-4.999999675E+014.9653281188E+01+
*       -2.387840016E+01               0
GRID*               8312               0-2.250000073E+025.2531421376E+01+
*       -1.220193056E+01               0
GRID*               8313               0-2.375000104E+024.9653736912E+01+
*       -2.387731287E+01               0
GRID*               8314               0-2.124999910E+02-3.380638676E+01+
*       -4.264128385E+01               0
GRID*               8315               0-1.500000088E+025.2531391632E+01+
*       -1.220199660E+01               0
GRID*               8316               0-1.625000053E+024.9653560662E+01+
*       -2.387773260E+01               0
GRID*               8317               0-5.250000060E+025.2531400339E+01+
*       1.2201977269E+01               0
GRID*               8318               0-5.250000099E+025.5125000000E+01+
*       -6.160558876E-15               0
GRID*               8319               0-2.124999866E+022.3543527416E+01+
*       4.9208509053E+01               0
GRID*               8320               0-1.874999889E+022.3543434300E+01+
*       4.9208590187E+01               0
GRID*               8321               0-1.874999831E+02-1.085177161E-01+
*       -5.477730761E+01               0
GRID*               8322               0-1.374999989E+02-5.373929200E+01+
*       -1.225021421E+01               0
GRID*               8323               0-7.500001044E+015.2531337531E+01+
*       1.2202116727E+01               0
GRID*               8324               0-8.750001025E+015.2531329983E+01+
*       1.2202133487E+01               0
GRID*               8325               0-5.000000269E+022.3544122940E+01+
*       -4.920800459E+01               0
GRID*               8326               0-3.749999741E+01-2.390918015E+01+
*       4.9472837791E+01               0
GRID*               8327               0-3.749999898E+01-3.380616257E+01+
*       4.2641663171E+01               0
GRID*               8328               0-2.999999736E+02-1.054917318E-01+
*       5.4776922406E+01               0
GRID*               8329               0-3.499999842E+02-4.307726569E+01+
*       -3.429368954E+01               0
GRID*               8330               0-3.624999737E+02-2.391119865E+01+
*       -4.947197551E+01               0
GRID*               8331               0-1.749999992E+02-4.866537770E+01+
*       -2.364634672E+01               0
GRID*               8332               0-3.000000056E+02-5.373936625E+01+
*       -2.247266819E-01               0
GRID*               8333               0-3.124999753E+021.2297486765E+01+
*       -5.347335304E+01               0
GRID*               8334               0-3.374999760E+02-1.089602854E-01+
*       -5.477737146E+01               0
GRID*               8335               0-6.375000064E+024.9653378405E+01+
*       -2.387814806E+01               0
GRID*               8336               0-6.625000122E+023.4347072531E+01+
*       -4.297111686E+01               0
GRID*               8337               0-3.124999872E+02-4.307714917E+01+
*       -3.429384154E+01               0
GRID*               8338               0-5.500000093E+025.5125000000E+01+
*       -6.174043658E-15               0
GRID*               8339               0-6.124999886E+024.9653772638E+01+
*       2.3877228671E+01               0
GRID*               8340               0-6.625000063E+025.5125000000E+01+
*       -6.158484298E-15               0
GRID*               8341               0-6.750000047E+025.2531421376E+01+
*       1.2201930559E+01               0
GRID*               8342               0-6.625000050E+025.2531421376E+01+
*       1.2201930559E+01               0
GRID*               8343               0-6.250000055E+025.2531431932E+01+
*       1.2201907121E+01               0
GRID*               8344               0-7.249999954E+02-4.866543921E+01+
*       -2.364604061E+01               0
GRID*               8345               0-4.874999742E+022.3544159591E+01+
*       4.9208004533E+01               0
GRID*               8346               0-5.500000158E+02-4.307726569E+01+
*       3.4293689539E+01               0
GRID*               8347               0-6.625000082E+02-4.307698256E+01+
*       3.4294059158E+01               0
GRID*               8348               0-5.000000106E+025.5125000000E+01+
*       -6.147074093E-15               0
GRID*               8349               0-1.874999990E+02-4.866537927E+01+
*       -2.364633477E+01               0
GRID*               8350               0-5.000000250E+023.4347766904E+01+
*       -4.297058529E+01               0
GRID*               8351               0-5.125000084E+024.2321153461E+01+
*       -3.396994193E+01               0
GRID*               8352               0-5.250000084E+024.2321154551E+01+
*       -3.396994084E+01               0
GRID*               8353               0-3.875000050E+02-4.866533972E+01+
*       2.3646207577E+01               0
GRID*               8354               0-3.875000219E+02-4.307747639E+01+
*       3.4293414160E+01               0
GRID*               8355               0-4.874999978E+02-5.373936510E+01+
*       -1.224975930E+01               0
GRID*               8356               0-5.375000159E+02-4.307725986E+01+
*       3.4293696974E+01               0
GRID*               8357               0-7.875000107E+021.2298329556E+01+
*       5.3473255750E+01               0
GRID*               8358               0-4.374999722E+022.3544190686E+01+
*       4.9207957266E+01               0
GRID*               8359               0-5.875000140E+02-1.204417382E+01+
*       -5.332807063E+01               0
GRID*               8360               0-1.000000099E+025.2531329983E+01+
*       1.2202133487E+01               0
GRID*               8361               0-8.749999455E+014.9653234422E+01+
*       -2.387851442E+01               0
GRID*               8362               0-8.749999516E+014.2320790708E+01+
*       -3.397079561E+01               0
GRID*               8363               0-8.125000033E+02-2.390942478E+01+
*       4.9472747583E+01               0
GRID*               8364               0-7.500000030E+024.9653355330E+01+
*       -2.387821276E+01               0
GRID*               8365               0-7.375000062E+023.4346747057E+01+
*       -4.297136659E+01               0
GRID*               8366               0-7.500000017E+024.2320981973E+01+
*       -3.397036204E+01               0
GRID*               8367               0-7.500000063E+023.4346746049E+01+
*       -4.297136760E+01               0
GRID*               8368               0-1.625000042E+02-4.866543628E+01+
*       2.3646062836E+01               0
GRID*               8369               0-7.125000024E+02-4.307661266E+01+
*       -3.429454234E+01               0
GRID*               8370               0-7.625000113E+02-1.066479202E-01+
*       -5.477705952E+01               0
GRID*               8371               0-6.625000085E+023.4345938910E+01+
*       4.2971990689E+01               0
GRID*               8372               0-6.874999905E+024.9653698452E+01+
*       2.3877404016E+01               0
GRID*               8373               0-5.625000144E+02-4.307720527E+01+
*       3.4293768276E+01               0
GRID*               8374               0-5.750000007E+02-5.373934760E+01+
*       1.2249884424E+01               0
GRID*               8375               0-6.624999895E+024.9653736912E+01+
*       2.3877312872E+01               0
GRID*               8376               0-5.125000285E+021.2300541357E+01+
*       -5.347301386E+01               0
GRID*               8377               0-6.874999907E+024.2321161224E+01+
*       3.3969906433E+01               0
GRID*               8378               0-5.000000092E+024.2321174707E+01+
*       -3.396989064E+01               0
GRID*               8379               0-5.000000068E+025.2531272046E+01+
*       -1.220226213E+01               0
GRID*               8380               0-5.125000101E+024.9653491786E+01+
*       -2.387787571E+01               0
GRID*               8381               0-5.125000071E+025.2531262361E+01+
*       -1.220228363E+01               0
GRID*               8382               0-7.499999549E+014.2320800221E+01+
*       -3.397077265E+01               0
GRID*               8383               0-2.688604386E+023.4701869071E+01+
*       -3.780707904E+01               0
GRID*               8384               0-5.125000103E+025.5125000000E+01+
*       -6.077575605E-15               0
GRID*               8385               0-2.624999901E+022.3542680691E+01+
*       -4.920928181E+01               0
GRID*               8386               0-6.249999682E+01-3.380608482E+01+
*       4.2641769491E+01               0
GRID*               8387               0-2.375000109E+024.2321208645E+01+
*       -3.396979322E+01               0
GRID*               8388               0-3.749999695E+01-4.307658774E+01+
*       3.4294574748E+01               0
GRID*               8389               0-2.125000076E+025.2531421376E+01+
*       -1.220193056E+01               0
GRID*               8390               0-5.853617004E+01-1.377525087E+01+
*       -4.977139036E+01               0
GRID*               8391               0-6.249999444E+013.4346104695E+01+
*       -4.297186442E+01               0
GRID*               8392               0-2.000000077E+025.2531412575E+01+
*       -1.220195010E+01               0
GRID*               8393               0-6.249999875E+01-5.373929359E+01+
*       1.2250239964E+01               0
GRID*               8394               0-5.053098992E+02-5.106928596E+01+
*       6.3860139792E+00               0
GRID*               8395               0-6.249999548E+014.2320799929E+01+
*       -3.397077294E+01               0
GRID*               8396               0-7.500001038E+015.2531361838E+01+
*       -1.220206275E+01               0
GRID*               8397               0-6.375000054E+025.2531272344E+01+
*       -1.220226147E+01               0
GRID*               8398               0-3.374999720E+02-1.204687839E+01+
*       -5.332696578E+01               0
GRID*               8399               0-5.375000096E+025.5125000000E+01+
*       -6.091060387E-15               0
GRID*               8400               0-7.249999961E+02-5.373932746E+01+
*       2.2494834122E-01               0
GRID*               8401               0-5.125000270E+022.3544120731E+01+
*       -4.920800528E+01               0
GRID*               8402               0-4.875000109E+025.5125000000E+01+
*       -6.216572582E-15               0
GRID*               8403               0-3.749999909E+01-4.866539814E+01+
*       2.3646398545E+01               0
GRID*               8404               0-2.499999921E+01-4.866538820E+01+
*       2.3646411230E+01               0
GRID*               8405               0-6.250002219E+015.5125000000E+01+
*       -5.834849526E-15               0
GRID*               8406               0-5.000002252E+015.5125000000E+01+
*       -5.904348014E-15               0
GRID*               8407               0-2.125000182E+025.5125000000E+01+
*       -5.915758219E-15               0
GRID*               8408               0-9.000000000E+02-4.866539333E+01+
*       -2.364635653E+01               0
GRID*               8409               0-9.000000000E+02-4.307671499E+01+
*       -3.429441515E+01               0
GRID*               8410               0-9.000000000E+02-5.373930630E+01+
*       -1.225015164E+01               0
GRID*               8411               0-9.000000000E+02-5.373930630E+01+
*       2.2454572706E-01               0
GRID*               8412               0-9.000000000E+02-5.373930630E+01+
*       1.2250151640E+01               0
GRID*               8413               0-9.000000000E+02-3.380620343E+01+
*       4.2641612062E+01               0
GRID*               8414               0-9.000000000E+02-4.307671499E+01+
*       3.4294415148E+01               0
GRID*               8415               0-9.000000000E+02-2.390933646E+01+
*       4.9472778764E+01               0
GRID*               8416               0-9.000000000E+02-4.866539333E+01+
*       2.3646356531E+01               0
GRID*               8417               0-9.000000000E+02-1.204519712E+01+
*       5.3327682501E+01               0
GRID*               8418               0-9.000000000E+02-1.074088664E-01+
*       5.4777163584E+01               0
GRID*               8419               0-9.000000000E+021.2298950045E+01+
*       5.3473189984E+01               0
GRID*               8420               0-9.000000000E+024.2320923556E+01+
*       3.3970481598E+01               0
GRID*               8421               0-9.000000000E+024.9653354353E+01+
*       2.3878229716E+01               0
GRID*               8422               0-9.000000000E+023.4346409748E+01+
*       4.2971636077E+01               0
GRID*               8423               0-9.000000000E+022.3542997169E+01+
*       4.9208972366E+01               0
GRID*               8424               0-9.000000000E+02-3.380620343E+01+
*       -4.264161206E+01               0
GRID*               8425               0-9.000000000E+02-2.390933646E+01+
*       -4.947277876E+01               0
GRID*               8426               0-9.000000000E+02-1.204519712E+01+
*       -5.332768250E+01               0
GRID*               8427               0-9.000000000E+02-1.074088664E-01+
*       -5.477716358E+01               0
GRID*               8428               0-9.000000000E+021.2298950045E+01+
*       -5.347318998E+01               0
GRID*               8429               0-9.000000000E+022.3542997169E+01+
*       -4.920897237E+01               0
GRID*               8430               0-9.000000000E+023.4346409748E+01+
*       -4.297163608E+01               0
GRID*               8431               0-9.000000000E+024.2320923556E+01+
*       -3.397048160E+01               0
GRID*               8432               0-9.000000000E+024.9653354353E+01+
*       -2.387822972E+01               0
GRID*               8433               0-9.000000000E+025.2531348551E+01+
*       1.2202092455E+01               0
GRID*               8434               0-9.000000000E+025.5125000000E+01+
*       -6.362830608E-15               0
GRID*               8435               0-9.000000000E+025.2531348551E+01+
*       -1.220209245E+01               0
GRID*               8436               0-2.499999791E+014.4493949860E+01+
*       -2.335240917E+01               0
GRID*               8437               0-2.499999827E+012.8544877814E+01+
*       -4.135465356E+01               0
GRID*               8438               0-2.499999883E+016.0568125095E+00+
*       -4.988301826E+01               0
GRID*               8439               0-2.499999913E+01-1.781870398E+01+
*       -4.698403856E+01               0
GRID*               8440               0-2.499999953E+01-3.761240579E+01+
*       -3.332173021E+01               0
GRID*               8441               0-2.499999992E+01-4.878977214E+01+
*       -1.202562276E+01               0
GRID*               8442               0-2.499999847E+01-4.878975845E+01+
*       1.2025726730E+01               0
GRID*               8443               0-2.499999814E+01-3.761232731E+01+
*       3.3321832495E+01               0
GRID*               8444               0-2.499999848E+01-1.781858729E+01+
*       4.6984086893E+01               0
GRID*               8445               0-2.499999905E+016.0569368235E+00+
*       4.9883001892E+01               0
GRID*               8446               0-2.499999932E+012.8544979213E+01+
*       4.1354575757E+01               0
GRID*               8447               0-2.499999952E+014.4493998286E+01+
*       2.3352292265E+01               0
GRID*               8448               0-4.999999419E+014.4493852772E+01+
*       -2.335264356E+01               0
GRID*               8449               0-4.999999425E+012.8544668122E+01+
*       -4.135481446E+01               0
GRID*               8450               0-4.999999588E+016.0566185360E+00+
*       -4.988304379E+01               0
GRID*               8451               0-4.999999724E+01-1.781881054E+01+
*       -4.698399442E+01               0
GRID*               8452               0-4.999999867E+01-3.761243423E+01+
*       -3.332169315E+01               0
GRID*               8453               0-4.999999982E+01-4.878977289E+01+
*       -1.202561706E+01               0
GRID*               8454               0-4.999999737E+01-4.878974847E+01+
*       1.2025802525E+01               0
GRID*               8455               0-4.999999396E+01-3.761215752E+01+
*       3.3322053767E+01               0
GRID*               8456               0-4.999999488E+01-1.781837149E+01+
*       4.6984176285E+01               0
GRID*               8457               0-4.999999668E+016.0570906877E+00+
*       4.9882981637E+01               0
GRID*               8458               0-4.999999797E+012.8545041481E+01+
*       4.1354527978E+01               0
GRID*               8459               0-4.999999911E+014.4494006658E+01+
*       2.3352272052E+01               0
GRID*               8460               0-7.499999084E+014.4493764192E+01+
*       -2.335285740E+01               0
GRID*               8461               0-7.499998876E+012.8544373724E+01+
*       -4.135504036E+01               0
GRID*               8462               0-7.499999148E+016.0563239348E+00+
*       -4.988308257E+01               0
GRID*               8463               0-7.499999444E+01-1.781897801E+01+
*       -4.698392505E+01               0
GRID*               8464               0-7.499999746E+01-3.761247981E+01+
*       -3.332163375E+01               0
GRID*               8465               0-7.499999967E+01-4.878977411E+01+
*       -1.202560782E+01               0
GRID*               8466               0-7.500000138E+01-4.878978424E+01+
*       1.2025530842E+01               0
GRID*               8467               0-7.499998876E+01-3.761194182E+01+
*       3.3322334885E+01               0
GRID*               8468               0-7.499998974E+01-1.781805327E+01+
*       4.6984308101E+01               0
GRID*               8469               0-7.499999309E+016.0573290619E+00+
*       4.9882950257E+01               0
GRID*               8470               0-7.499999600E+012.8545140424E+01+
*       4.1354452058E+01               0
GRID*               8471               0-7.499999854E+014.4494020173E+01+
*       2.3352239427E+01               0
GRID*               8472               0-9.999999018E+014.4493745167E+01+
*       -2.335290333E+01               0
GRID*               8473               0-9.999998262E+012.8544040976E+01+
*       -4.135529568E+01               0
GRID*               8474               0-9.999998598E+016.0559529305E+00+
*       -4.988313141E+01               0
GRID*               8475               0-9.999999086E+01-1.781919786E+01+
*       -4.698383398E+01               0
GRID*               8476               0-9.999999591E+01-3.761254100E+01+
*       -3.332155400E+01               0
GRID*               8477               0-9.999999948E+01-4.878977576E+01+
*       -1.202559522E+01               0
GRID*               8478               0-1.000000053E+02-4.878981964E+01+
*       1.2025261927E+01               0
GRID*               8479               0-9.999998388E+01-3.761173658E+01+
*       3.3322602364E+01               0
GRID*               8480               0-9.999998359E+01-1.781766758E+01+
*       4.6984467860E+01               0
GRID*               8481               0-9.999998850E+016.0576366910E+00+
*       4.9882909760E+01               0
GRID*               8482               0-9.999999347E+012.8545271974E+01+
*       4.1354351118E+01               0
GRID*               8483               0-9.999999780E+014.4494038462E+01+
*       2.3352195274E+01               0
GRID*               8484               0-1.249999945E+024.4493857910E+01+
*       -2.335263115E+01               0
GRID*               8485               0-1.249999767E+022.8543717557E+01+
*       -4.135554384E+01               0
GRID*               8486               0-1.249999797E+026.0555305270E+00+
*       -4.988318702E+01               0
GRID*               8487               0-1.249999866E+02-1.781946129E+01+
*       -4.698372486E+01               0
GRID*               8488               0-1.249999941E+02-3.761261625E+01+
*       -3.332145593E+01               0
GRID*               8489               0-1.249999992E+02-4.878977784E+01+
*       -1.202557948E+01               0
GRID*               8490               0-1.250000075E+02-4.878983861E+01+
*       1.2025117782E+01               0
GRID*               8491               0-1.249999807E+02-3.761159958E+01+
*       3.3322780903E+01               0
GRID*               8492               0-1.249999770E+02-1.781725049E+01+
*       4.6984640632E+01               0
GRID*               8493               0-1.249999831E+026.0579978291E+00+
*       4.9882862219E+01               0
GRID*               8494               0-1.249999905E+022.8545431944E+01+
*       4.1354228371E+01               0
GRID*               8495               0-1.249999969E+024.4494061152E+01+
*       2.3352140497E+01               0
GRID*               8496               0-1.500000048E+024.4494126903E+01+
*       -2.335198176E+01               0
GRID*               8497               0-1.499999719E+022.8543452692E+01+
*       -4.135574708E+01               0
GRID*               8498               0-1.499999732E+026.0550826377E+00+
*       -4.988324598E+01               0
GRID*               8499               0-1.499999819E+02-1.781975919E+01+
*       -4.698360146E+01               0
GRID*               8500               0-1.499999919E+02-3.761270396E+01+
*       -3.332134162E+01               0
GRID*               8501               0-1.499999990E+02-4.878978029E+01+
*       -1.202556081E+01               0
GRID*               8502               0-1.500000087E+02-4.878984928E+01+
*       1.2025036749E+01               0
GRID*               8503               0-1.499999805E+02-3.761159024E+01+
*       3.3322793077E+01               0
GRID*               8504               0-1.499999705E+02-1.781683929E+01+
*       4.6984810962E+01               0
GRID*               8505               0-1.499999773E+026.0583961575E+00+
*       4.9882809782E+01               0
GRID*               8506               0-1.499999870E+022.8545616013E+01+
*       4.1354087132E+01               0
GRID*               8507               0-1.499999959E+024.4494087861E+01+
*       2.3352076018E+01               0
GRID*               8508               0-1.750000129E+024.4494338060E+01+
*       -2.335147200E+01               0
GRID*               8509               0-1.749999691E+022.8543297421E+01+
*       -4.135586622E+01               0
GRID*               8510               0-1.749999666E+026.0546362417E+00+
*       -4.988330475E+01               0
GRID*               8511               0-1.749999768E+02-1.782008210E+01+
*       -4.698346771E+01               0
GRID*               8512               0-1.749999895E+02-3.761280247E+01+
*       -3.332121324E+01               0
GRID*               8513               0-1.749999987E+02-4.878978311E+01+
*       -1.202553941E+01               0
GRID*               8514               0-1.750000093E+02-4.878985513E+01+
*       1.2024992300E+01               0
GRID*               8515               0-1.749999849E+02-3.761176987E+01+
*       3.3322558974E+01               0
GRID*               8516               0-1.749999648E+02-1.781647277E+01+
*       4.6984962781E+01               0
GRID*               8517               0-1.749999711E+026.0588146864E+00+
*       4.9882754686E+01               0
GRID*               8518               0-1.749999833E+022.8545819700E+01+
*       4.1353930841E+01               0
GRID*               8519               0-1.749999947E+024.4494118197E+01+
*       2.3352002783E+01               0
GRID*               8520               0-2.000000183E+024.4494478707E+01+
*       -2.335113246E+01               0
GRID*               8521               0-1.999999694E+022.8543304920E+01+
*       -4.135586046E+01               0
GRID*               8522               0-1.999999605E+026.0542195750E+00+
*       -4.988335960E+01               0
GRID*               8523               0-1.999999715E+02-1.782042011E+01+
*       -4.698332769E+01               0
GRID*               8524               0-1.999999870E+02-3.761291006E+01+
*       -3.332107302E+01               0
GRID*               8525               0-1.999999983E+02-4.878978626E+01+
*       -1.202551550E+01               0
GRID*               8526               0-2.000000096E+02-4.878985793E+01+
*       1.2024971074E+01               0
GRID*               8527               0-1.999999953E+02-3.761220204E+01+
*       3.3321995753E+01               0
GRID*               8528               0-1.999999604E+02-1.781619149E+01+
*       4.6985079296E+01               0
GRID*               8529               0-1.999999649E+026.0592356344E+00+
*       4.9882699271E+01               0
GRID*               8530               0-1.999999793E+022.8546038336E+01+
*       4.1353763078E+01               0
GRID*               8531               0-1.999999935E+024.4494151757E+01+
*       2.3351921764E+01               0
GRID*               8532               0-2.250000218E+024.4494571754E+01+
*       -2.335090783E+01               0
GRID*               8533               0-2.249999736E+022.8543530896E+01+
*       -4.135568707E+01               0
GRID*               8534               0-2.249999553E+026.0538623624E+00+
*       -4.988340662E+01               0
GRID*               8535               0-2.249999661E+02-1.782076282E+01+
*       -4.698318573E+01               0
GRID*               8536               0-2.249999842E+02-3.761302495E+01+
*       -3.332092330E+01               0
GRID*               8537               0-2.249999979E+02-4.878978971E+01+
*       -1.202548931E+01               0
GRID*               8538               0-2.250000097E+02-4.878985865E+01+
*       1.2024965570E+01               0
GRID*               8539               0-2.250000101E+02-3.761281795E+01+
*       3.3321193062E+01               0
GRID*               8540               0-2.249999581E+02-1.781603804E+01+
*       4.6985142856E+01               0
GRID*               8541               0-2.249999590E+026.0596402828E+00+
*       4.9882646002E+01               0
GRID*               8542               0-2.249999751E+022.8546267032E+01+
*       4.1353587597E+01               0
GRID*               8543               0-2.249999921E+024.4494188125E+01+
*       2.3351833967E+01               0
GRID*               8544               0-2.500000241E+024.4494631073E+01+
*       -2.335076463E+01               0
GRID*               8545               0-2.499999830E+022.8544034078E+01+
*       -4.135530097E+01               0
GRID*               8546               0-2.499999514E+026.0535961044E+00+
*       -4.988344167E+01               0
GRID*               8547               0-2.499999608E+02-1.782109923E+01+
*       -4.698304639E+01               0
GRID*               8548               0-2.499999814E+02-3.761314525E+01+
*       -3.332076651E+01               0
GRID*               8549               0-2.499999975E+02-4.878979343E+01+
*       -1.202546104E+01               0
GRID*               8550               0-2.500000096E+02-4.878985791E+01+
*       1.2024971210E+01               0
GRID*               8551               0-2.500000212E+02-3.761328028E+01+
*       3.3320590534E+01               0
GRID*               8552               0-2.499999585E+02-1.781605752E+01+
*       4.6985134789E+01               0
GRID*               8553               0-2.499999536E+026.0600087945E+00+
*       4.9882597490E+01               0
GRID*               8554               0-2.499999708E+022.8546500631E+01+
*       4.1353408353E+01               0
GRID*               8555               0-2.499999906E+024.4494226868E+01+
*       2.3351740436E+01               0
GRID*               8556               0-2.750000255E+024.4494665604E+01+
*       -2.335068126E+01               0
GRID*               8557               0-2.749999985E+022.8544876818E+01+
*       -4.135465433E+01               0
GRID*               8558               0-2.749999493E+026.0534544319E+00+
*       -4.988346032E+01               0
GRID*               8559               0-2.749999558E+02-1.782141760E+01+
*       -4.698291451E+01               0
GRID*               8560               0-2.749999784E+02-3.761326900E+01+
*       -3.332060523E+01               0
GRID*               8561               0-2.749999971E+02-4.878979739E+01+
*       -1.202543095E+01               0
GRID*               8562               0-2.750000094E+02-4.878985609E+01+
*       1.2024985015E+01               0
GRID*               8563               0-2.750000292E+02-3.761360981E+01+
*       3.3320161080E+01               0
GRID*               8564               0-2.749999624E+02-1.781629796E+01+
*       4.6985035191E+01               0
GRID*               8565               0-2.749999490E+026.0603199908E+00+
*       4.9882556524E+01               0
GRID*               8566               0-2.749999666E+022.8546733660E+01+
*       4.1353229548E+01               0
GRID*               8567               0-2.749999891E+024.4494267534E+01+
*       2.3351642261E+01               0
GRID*               8568               0-3.000000261E+024.4494681412E+01+
*       -2.335064310E+01               0
GRID*               8569               0-3.000000159E+022.8545821278E+01+
*       -4.135392963E+01               0
GRID*               8570               0-2.999999497E+026.0534735504E+00+
*       -4.988345781E+01               0
GRID*               8571               0-2.999999514E+02-1.782170533E+01+
*       -4.698279532E+01               0
GRID*               8572               0-2.999999755E+02-3.761339410E+01+
*       -3.332044220E+01               0
GRID*               8573               0-2.999999966E+02-4.878980156E+01+
*       -1.202539925E+01               0
GRID*               8574               0-3.000000091E+02-4.878985347E+01+
*       1.2025004936E+01               0
GRID*               8575               0-3.000000347E+02-3.761383864E+01+
*       3.3319862850E+01               0
GRID*               8576               0-2.999999706E+02-1.781681100E+01+
*       4.6984822680E+01               0
GRID*               8577               0-2.999999457E+026.0605510719E+00+
*       4.9882526104E+01               0
GRID*               8578               0-2.999999624E+022.8546960259E+01+
*       4.1353055675E+01               0
GRID*               8579               0-2.999999875E+024.4494309650E+01+
*       2.3351540588E+01               0
GRID*               8580               0-3.250000262E+024.4494682791E+01+
*       -2.335063977E+01               0
GRID*               8581               0-3.250000289E+022.8546524313E+01+
*       -4.135339018E+01               0
GRID*               8582               0-3.249999529E+026.0536927995E+00+
*       -4.988342894E+01               0
GRID*               8583               0-3.249999476E+02-1.782194876E+01+
*       -4.698269449E+01               0
GRID*               8584               0-3.249999725E+02-3.761351828E+01+
*       -3.332028036E+01               0
GRID*               8585               0-3.249999961E+02-4.878980591E+01+
*       -1.202536621E+01               0
GRID*               8586               0-3.250000088E+02-4.878985024E+01+
*       1.2025029498E+01               0
GRID*               8587               0-3.250000383E+02-3.761398940E+01+
*       3.3319666377E+01               0
GRID*               8588               0-3.249999840E+02-1.781765261E+01+
*       4.6984474063E+01               0
GRID*               8589               0-3.249999439E+026.0606772641E+00+
*       4.9882509491E+01               0
GRID*               8590               0-3.249999586E+022.8547174103E+01+
*       4.1352891590E+01               0
GRID*               8591               0-3.249999859E+024.4494352711E+01+
*       2.3351436631E+01               0
GRID*               8592               0-3.500000258E+024.4494672900E+01+
*       -2.335066365E+01               0
GRID*               8593               0-3.500000383E+022.8547034149E+01+
*       -4.135299898E+01               0
GRID*               8594               0-3.499999598E+026.0541553652E+00+
*       -4.988336805E+01               0
GRID*               8595               0-3.499999448E+02-1.782213290E+01+
*       -4.698261821E+01               0
GRID*               8596               0-3.499999697E+02-3.761363911E+01+
*       -3.332012289E+01               0
GRID*               8597               0-3.499999956E+02-4.878981041E+01+
*       -1.202533207E+01               0
GRID*               8598               0-3.500000084E+02-4.878984654E+01+
*       1.2025057594E+01               0
GRID*               8599               0-3.500000405E+02-3.761407858E+01+
*       3.3319550155E+01               0
GRID*               8600               0-3.500000033E+02-1.781887446E+01+
*       4.6983967943E+01               0
GRID*               8601               0-3.499999440E+026.0606713716E+00+
*       4.9882510267E+01               0
GRID*               8602               0-3.499999551E+022.8547368291E+01+
*       4.1352742587E+01               0
GRID*               8603               0-3.499999843E+024.4494396181E+01+
*       2.3351331689E+01               0
GRID*               8604               0-3.750000251E+024.4494654136E+01+
*       -2.335070895E+01               0
GRID*               8605               0-3.750000449E+022.8547388549E+01+
*       -4.135272704E+01               0
GRID*               8606               0-3.749999709E+026.0549091958E+00+
*       -4.988326881E+01               0
GRID*               8607               0-3.749999431E+02-1.782224117E+01+
*       -4.698257336E+01               0
GRID*               8608               0-3.749999670E+02-3.761375392E+01+
*       -3.331997326E+01               0
GRID*               8609               0-3.749999951E+02-4.878981501E+01+
*       -1.202529712E+01               0
GRID*               8610               0-3.750000079E+02-4.878984249E+01+
*       1.2025088364E+01               0
GRID*               8611               0-3.750000415E+02-3.761411861E+01+
*       3.3319497987E+01               0
GRID*               8612               0-3.750000216E+02-1.782002871E+01+
*       4.6983489823E+01               0
GRID*               8613               0-3.749999465E+026.0605031996E+00+
*       4.9882532406E+01               0
GRID*               8614               0-3.749999521E+022.8547535212E+01+
*       4.1352614506E+01               0
GRID*               8615               0-3.749999826E+024.4494439478E+01+
*       2.3351227162E+01               0
GRID*               8616               0-4.000000242E+024.4494628376E+01+
*       -2.335077114E+01               0
GRID*               8617               0-4.000000491E+022.8547616626E+01+
*       -4.135255204E+01               0
GRID*               8618               0-3.999999871E+026.0560081921E+00+
*       -4.988312414E+01               0
GRID*               8619               0-3.999999430E+02-1.782225496E+01+
*       -4.698256765E+01               0
GRID*               8620               0-3.999999645E+02-3.761385976E+01+
*       -3.331983533E+01               0
GRID*               8621               0-3.999999946E+02-4.878981968E+01+
*       -1.202526164E+01               0
GRID*               8622               0-4.000000075E+02-4.878983818E+01+
*       1.2025121116E+01               0
GRID*               8623               0-4.000000415E+02-3.761411912E+01+
*       3.3319497322E+01               0
GRID*               8624               0-4.000000351E+02-1.782088684E+01+
*       4.6983134365E+01               0
GRID*               8625               0-3.999999519E+026.0601388049E+00+
*       4.9882580375E+01               0
GRID*               8626               0-3.999999497E+022.8547666365E+01+
*       4.1352513871E+01               0
GRID*               8627               0-3.999999811E+024.4494481970E+01+
*       2.3351124582E+01               0
GRID*               8628               0-4.250000230E+024.4494597130E+01+
*       -2.335084657E+01               0
GRID*               8629               0-4.250000515E+022.8547741390E+01+
*       -4.135245630E+01               0
GRID*               8630               0-4.250000084E+026.0574494656E+00+
*       -4.988293441E+01               0
GRID*               8631               0-4.249999447E+02-1.782215309E+01+
*       -4.698260985E+01               0
GRID*               8632               0-4.249999623E+02-3.761395330E+01+
*       -3.331971342E+01               0
GRID*               8633               0-4.249999941E+02-4.878982438E+01+
*       -1.202522593E+01               0
GRID*               8634               0-4.250000070E+02-4.878983368E+01+
*       1.2025155275E+01               0
GRID*               8635               0-4.250000408E+02-3.761408776E+01+
*       3.3319538187E+01               0
GRID*               8636               0-4.250000449E+02-1.782150045E+01+
*       4.6982880190E+01               0
GRID*               8637               0-4.249999608E+026.0595395087E+00+
*       4.9882659268E+01               0
GRID*               8638               0-4.249999482E+022.8547752127E+01+
*       4.1352448065E+01               0
GRID*               8639               0-4.249999795E+024.4494522953E+01+
*       2.3351025643E+01               0
GRID*               8640               0-4.500000217E+024.4494561640E+01+
*       -2.335093225E+01               0
GRID*               8641               0-4.500000523E+022.8547781440E+01+
*       -4.135242557E+01               0
GRID*               8642               0-4.500000262E+026.0586605820E+00+
*       -4.988277497E+01               0
GRID*               8643               0-4.499999486E+02-1.782191114E+01+
*       -4.698271007E+01               0
GRID*               8644               0-4.499999605E+02-3.761403076E+01+
*       -3.331961247E+01               0
GRID*               8645               0-4.499999936E+02-4.878982906E+01+
*       -1.202519036E+01               0
GRID*               8646               0-4.500000064E+02-4.878982906E+01+
*       1.2025190356E+01               0
GRID*               8647               0-4.500000395E+02-3.761403076E+01+
*       3.3319612467E+01               0
GRID*               8648               0-4.500000514E+02-1.782191114E+01+
*       4.6982710073E+01               0
GRID*               8649               0-4.499999738E+026.0586605820E+00+
*       4.9882774972E+01               0
GRID*               8650               0-4.499999477E+022.8547781440E+01+
*       4.1352425573E+01               0
GRID*               8651               0-4.499999781E+024.4494561640E+01+
*       2.3350932248E+01               0
GRID*               8652               0-4.750000202E+024.4494522953E+01+
*       -2.335102564E+01               0
GRID*               8653               0-4.750000518E+022.8547752127E+01+
*       -4.135244806E+01               0
GRID*               8654               0-4.750000392E+026.0595395087E+00+
*       -4.988265927E+01               0
GRID*               8655               0-4.749999551E+02-1.782150045E+01+
*       -4.698288019E+01               0
GRID*               8656               0-4.749999592E+02-3.761408776E+01+
*       -3.331953819E+01               0
GRID*               8657               0-4.749999930E+02-4.878983368E+01+
*       -1.202515528E+01               0
GRID*               8658               0-4.750000059E+02-4.878982438E+01+
*       1.2025225935E+01               0
GRID*               8659               0-4.750000377E+02-3.761395330E+01+
*       3.3319713419E+01               0
GRID*               8660               0-4.750000553E+02-1.782215309E+01+
*       4.6982609850E+01               0
GRID*               8661               0-4.749999916E+026.0574494656E+00+
*       4.9882934406E+01               0
GRID*               8662               0-4.749999485E+022.8547741390E+01+
*       4.1352456303E+01               0
GRID*               8663               0-4.749999768E+024.4494597130E+01+
*       2.3350846569E+01               0
GRID*               8664               0-5.000000187E+024.4494481970E+01+
*       -2.335112458E+01               0
GRID*               8665               0-5.000000503E+022.8547666365E+01+
*       -4.135251387E+01               0
GRID*               8666               0-5.000000481E+026.0601388049E+00+
*       -4.988258038E+01               0
GRID*               8667               0-4.999999649E+02-1.782088684E+01+
*       -4.698313436E+01               0
GRID*               8668               0-4.999999585E+02-3.761411912E+01+
*       -3.331949732E+01               0
GRID*               8669               0-4.999999925E+02-4.878983818E+01+
*       -1.202512112E+01               0
GRID*               8670               0-5.000000054E+02-4.878981968E+01+
*       1.2025261636E+01               0
GRID*               8671               0-5.000000355E+02-3.761385976E+01+
*       3.3319835328E+01               0
GRID*               8672               0-5.000000570E+02-1.782225496E+01+
*       4.6982567654E+01               0
GRID*               8673               0-5.000000129E+026.0560081921E+00+
*       4.9883124139E+01               0
GRID*               8674               0-4.999999509E+022.8547616626E+01+
*       4.1352552036E+01               0
GRID*               8675               0-4.999999756E+024.4494628376E+01+
*       2.3350771136E+01               0
GRID*               8676               0-5.250000171E+024.4494439478E+01+
*       -2.335122716E+01               0
GRID*               8677               0-5.250000479E+022.8547535212E+01+
*       -4.135261451E+01               0
GRID*               8678               0-5.250000535E+026.0605031996E+00+
*       -4.988253241E+01               0
GRID*               8679               0-5.249999784E+02-1.782002871E+01+
*       -4.698348982E+01               0
GRID*               8680               0-5.249999585E+02-3.761411861E+01+
*       -3.331949799E+01               0
GRID*               8681               0-5.249999921E+02-4.878984249E+01+
*       -1.202508836E+01               0
GRID*               8682               0-5.250000049E+02-4.878981501E+01+
*       1.2025297119E+01               0
GRID*               8683               0-5.250000330E+02-3.761375392E+01+
*       3.3319973261E+01               0
GRID*               8684               0-5.250000569E+02-1.782224117E+01+
*       4.6982573364E+01               0
GRID*               8685               0-5.250000291E+026.0549091958E+00+
*       4.9883268814E+01               0
GRID*               8686               0-5.249999551E+022.8547388549E+01+
*       4.1352727043E+01               0
GRID*               8687               0-5.249999746E+024.4494654136E+01+
*       2.3350708948E+01               0
GRID*               8688               0-5.500000155E+024.4494396181E+01+
*       -2.335133169E+01               0
GRID*               8689               0-5.500000449E+022.8547368291E+01+
*       -4.135274259E+01               0
GRID*               8690               0-5.500000560E+026.0606713716E+00+
*       -4.988251027E+01               0
GRID*               8691               0-5.499999967E+02-1.781887446E+01+
*       -4.698396794E+01               0
GRID*               8692               0-5.499999595E+02-3.761407858E+01+
*       -3.331955016E+01               0
GRID*               8693               0-5.499999916E+02-4.878984654E+01+
*       -1.202505759E+01               0
GRID*               8694               0-5.500000044E+02-4.878981041E+01+
*       1.2025332073E+01               0
GRID*               8695               0-5.500000303E+02-3.761363911E+01+
*       3.3320122891E+01               0
GRID*               8696               0-5.500000552E+02-1.782213290E+01+
*       4.6982618212E+01               0
GRID*               8697               0-5.500000402E+026.0541553652E+00+
*       4.9883368050E+01               0
GRID*               8698               0-5.499999617E+022.8547034149E+01+
*       4.1352998978E+01               0
GRID*               8699               0-5.499999739E+024.4494672900E+01+
*       2.3350663649E+01               0
GRID*               8700               0-5.750000139E+024.4494352711E+01+
*       -2.335143663E+01               0
GRID*               8701               0-5.750000414E+022.8547174103E+01+
*       -4.135289159E+01               0
GRID*               8702               0-5.750000561E+026.0606772641E+00+
*       -4.988250949E+01               0
GRID*               8703               0-5.750000160E+02-1.781765261E+01+
*       -4.698447406E+01               0
GRID*               8704               0-5.749999617E+02-3.761398940E+01+
*       -3.331966638E+01               0
GRID*               8705               0-5.749999912E+02-4.878985024E+01+
*       -1.202502950E+01               0
GRID*               8706               0-5.750000039E+02-4.878980591E+01+
*       1.2025366208E+01               0
GRID*               8707               0-5.750000275E+02-3.761351828E+01+
*       3.3320280365E+01               0
GRID*               8708               0-5.750000524E+02-1.782194876E+01+
*       4.6982694490E+01               0
GRID*               8709               0-5.750000471E+026.0536927995E+00+
*       4.9883428943E+01               0
GRID*               8710               0-5.749999711E+022.8546524313E+01+
*       4.1353390182E+01               0
GRID*               8711               0-5.749999736E+024.4494682791E+01+
*       2.3350639770E+01               0
GRID*               8712               0-6.000000122E+024.4494309650E+01+
*       -2.335154059E+01               0
GRID*               8713               0-6.000000376E+022.8546960259E+01+
*       -4.135305568E+01               0
GRID*               8714               0-6.000000543E+026.0605510719E+00+
*       -4.988252610E+01               0
GRID*               8715               0-6.000000294E+02-1.781681100E+01+
*       -4.698482268E+01               0
GRID*               8716               0-5.999999653E+02-3.761383864E+01+
*       -3.331986285E+01               0
GRID*               8717               0-5.999999909E+02-4.878985347E+01+
*       -1.202500494E+01               0
GRID*               8718               0-6.000000034E+02-4.878980156E+01+
*       1.2025399252E+01               0
GRID*               8719               0-6.000000245E+02-3.761339410E+01+
*       3.3320442204E+01               0
GRID*               8720               0-6.000000486E+02-1.782170533E+01+
*       4.6982795323E+01               0
GRID*               8721               0-6.000000503E+026.0534735504E+00+
*       4.9883457805E+01               0
GRID*               8722               0-5.999999841E+022.8545821278E+01+
*       4.1353929630E+01               0
GRID*               8723               0-5.999999737E+024.4494681412E+01+
*       2.3350643101E+01               0
GRID*               8724               0-6.250000107E+024.4494267534E+01+
*       -2.335164226E+01               0
GRID*               8725               0-6.250000334E+022.8546733660E+01+
*       -4.135322955E+01               0
GRID*               8726               0-6.250000510E+026.0603199908E+00+
*       -4.988255652E+01               0
GRID*               8727               0-6.250000376E+02-1.781629796E+01+
*       -4.698503519E+01               0
GRID*               8728               0-6.249999708E+02-3.761360981E+01+
*       -3.332016108E+01               0
GRID*               8729               0-6.249999906E+02-4.878985609E+01+
*       -1.202498501E+01               0
GRID*               8730               0-6.250000029E+02-4.878979739E+01+
*       1.2025430947E+01               0
GRID*               8731               0-6.250000216E+02-3.761326900E+01+
*       3.3320605230E+01               0
GRID*               8732               0-6.250000442E+02-1.782141760E+01+
*       4.6982914509E+01               0
GRID*               8733               0-6.250000507E+026.0534544319E+00+
*       4.9883460322E+01               0
GRID*               8734               0-6.250000015E+022.8544876818E+01+
*       4.1354654326E+01               0
GRID*               8735               0-6.249999743E+024.4494665604E+01+
*       2.3350681263E+01               0
GRID*               8736               0-6.500000091E+024.4494226868E+01+
*       -2.335174044E+01               0
GRID*               8737               0-6.500000292E+022.8546500631E+01+
*       -4.135340835E+01               0
GRID*               8738               0-6.500000464E+026.0600087945E+00+
*       -4.988259749E+01               0
GRID*               8739               0-6.500000415E+02-1.781605752E+01+
*       -4.698513479E+01               0
GRID*               8740               0-6.499999788E+02-3.761328028E+01+
*       -3.332059053E+01               0
GRID*               8741               0-6.499999904E+02-4.878985791E+01+
*       -1.202497121E+01               0
GRID*               8742               0-6.500000025E+02-4.878979343E+01+
*       1.2025461044E+01               0
GRID*               8743               0-6.500000186E+02-3.761314525E+01+
*       3.3320766507E+01               0
GRID*               8744               0-6.500000392E+02-1.782109923E+01+
*       4.6983046387E+01               0
GRID*               8745               0-6.500000486E+026.0535961044E+00+
*       4.9883441672E+01               0
GRID*               8746               0-6.500000170E+022.8544034078E+01+
*       4.1355300971E+01               0
GRID*               8747               0-6.499999756E+024.4494631073E+01+
*       2.3350764626E+01               0
GRID*               8748               0-6.750000077E+024.4494188125E+01+
*       -2.335183397E+01               0
GRID*               8749               0-6.750000249E+022.8546267032E+01+
*       -4.135358760E+01               0
GRID*               8750               0-6.750000410E+026.0596402828E+00+
*       -4.988264600E+01               0
GRID*               8751               0-6.750000419E+02-1.781603804E+01+
*       -4.698514286E+01               0
GRID*               8752               0-6.749999899E+02-3.761281795E+01+
*       -3.332119306E+01               0
GRID*               8753               0-6.749999903E+02-4.878985865E+01+
*       -1.202496557E+01               0
GRID*               8754               0-6.750000021E+02-4.878978971E+01+
*       1.2025489307E+01               0
GRID*               8755               0-6.750000158E+02-3.761302495E+01+
*       3.3320923296E+01               0
GRID*               8756               0-6.750000339E+02-1.782076282E+01+
*       4.6983185735E+01               0
GRID*               8757               0-6.750000447E+026.0538623624E+00+
*       4.9883406621E+01               0
GRID*               8758               0-6.750000264E+022.8543530896E+01+
*       4.1355687069E+01               0
GRID*               8759               0-6.749999779E+024.4494571754E+01+
*       2.3350907830E+01               0
GRID*               8760               0-7.000000063E+024.4494151757E+01+
*       -2.335192176E+01               0
GRID*               8761               0-7.000000207E+022.8546038336E+01+
*       -4.135376308E+01               0
GRID*               8762               0-7.000000351E+026.0592356344E+00+
*       -4.988269927E+01               0
GRID*               8763               0-7.000000396E+02-1.781619149E+01+
*       -4.698507930E+01               0
GRID*               8764               0-7.000000047E+02-3.761220204E+01+
*       -3.332199575E+01               0
GRID*               8765               0-6.999999904E+02-4.878985793E+01+
*       -1.202497107E+01               0
GRID*               8766               0-7.000000017E+02-4.878978626E+01+
*       1.2025515504E+01               0
GRID*               8767               0-7.000000130E+02-3.761291006E+01+
*       3.3321073021E+01               0
GRID*               8768               0-7.000000285E+02-1.782042011E+01+
*       4.6983327694E+01               0
GRID*               8769               0-7.000000395E+026.0542195750E+00+
*       4.9883359597E+01               0
GRID*               8770               0-7.000000306E+022.8543304920E+01+
*       4.1355860464E+01               0
GRID*               8771               0-6.999999815E+024.4494478707E+01+
*       2.3351132459E+01               0
GRID*               8772               0-7.250000050E+024.4494118197E+01+
*       -2.335200278E+01               0
GRID*               8773               0-7.250000167E+022.8545819700E+01+
*       -4.135393084E+01               0
GRID*               8774               0-7.250000289E+026.0588146863E+00+
*       -4.988275469E+01               0
GRID*               8775               0-7.250000352E+02-1.781647277E+01+
*       -4.698496278E+01               0
GRID*               8776               0-7.250000151E+02-3.761176987E+01+
*       -3.332255897E+01               0
GRID*               8777               0-7.249999907E+02-4.878985513E+01+
*       -1.202499230E+01               0
GRID*               8778               0-7.250000013E+02-4.878978311E+01+
*       1.2025539411E+01               0
GRID*               8779               0-7.250000105E+02-3.761280247E+01+
*       3.3321213239E+01               0
GRID*               8780               0-7.250000232E+02-1.782008210E+01+
*       4.6983467707E+01               0
GRID*               8781               0-7.250000334E+026.0546362417E+00+
*       4.9883304746E+01               0
GRID*               8782               0-7.250000309E+022.8543297421E+01+
*       4.1355866217E+01               0
GRID*               8783               0-7.249999869E+024.4494338060E+01+
*       2.3351472001E+01               0
GRID*               8784               0-7.500000039E+024.4494087861E+01+
*       -2.335207602E+01               0
GRID*               8785               0-7.500000130E+022.8545616013E+01+
*       -4.135408713E+01               0
GRID*               8786               0-7.500000227E+026.0583961575E+00+
*       -4.988280978E+01               0
GRID*               8787               0-7.500000295E+02-1.781683929E+01+
*       -4.698481096E+01               0
GRID*               8788               0-7.500000195E+02-3.761159024E+01+
*       -3.332279308E+01               0
GRID*               8789               0-7.499999913E+02-4.878984928E+01+
*       -1.202503675E+01               0
GRID*               8790               0-7.500000010E+02-4.878978029E+01+
*       1.2025560809E+01               0
GRID*               8791               0-7.500000081E+02-3.761270396E+01+
*       3.3321341619E+01               0
GRID*               8792               0-7.500000181E+02-1.781975919E+01+
*       4.6983601463E+01               0
GRID*               8793               0-7.500000268E+026.0550826376E+00+
*       4.9883245981E+01               0
GRID*               8794               0-7.500000281E+022.8543452692E+01+
*       4.1355747076E+01               0
GRID*               8795               0-7.499999949E+024.4494126903E+01+
*       2.3351981764E+01               0
GRID*               8796               0-7.750000028E+024.4494061152E+01+
*       -2.335214050E+01               0
GRID*               8797               0-7.750000095E+022.8545431944E+01+
*       -4.135422837E+01               0
GRID*               8798               0-7.750000169E+026.0579978291E+00+
*       -4.988286222E+01               0
GRID*               8799               0-7.750000230E+02-1.781725049E+01+
*       -4.698464063E+01               0
GRID*               8800               0-7.750000193E+02-3.761159958E+01+
*       -3.332278090E+01               0
GRID*               8801               0-7.749999925E+02-4.878983861E+01+
*       -1.202511778E+01               0
GRID*               8802               0-7.750000008E+02-4.878977784E+01+
*       1.2025579483E+01               0
GRID*               8803               0-7.750000059E+02-3.761261625E+01+
*       3.3321455926E+01               0
GRID*               8804               0-7.750000134E+02-1.781946129E+01+
*       4.6983724862E+01               0
GRID*               8805               0-7.750000203E+026.0555305270E+00+
*       4.9883187020E+01               0
GRID*               8806               0-7.750000233E+022.8543717557E+01+
*       4.1355543842E+01               0
GRID*               8807               0-7.750000052E+024.4493857910E+01+
*       2.3352631153E+01               0
GRID*               8808               0-8.000000020E+024.4494038462E+01+
*       -2.335219527E+01               0
GRID*               8809               0-8.000000065E+022.8545271974E+01+
*       -4.135435112E+01               0
GRID*               8810               0-8.000000115E+026.0576366910E+00+
*       -4.988290976E+01               0
GRID*               8811               0-8.000000164E+02-1.781766758E+01+
*       -4.698446786E+01               0
GRID*               8812               0-8.000000161E+02-3.761173658E+01+
*       -3.332260236E+01               0
GRID*               8813               0-7.999999947E+02-4.878981964E+01+
*       -1.202526193E+01               0
GRID*               8814               0-8.000000005E+02-4.878977576E+01+
*       1.2025595221E+01               0
GRID*               8815               0-8.000000041E+02-3.761254100E+01+
*       3.3321554000E+01               0
GRID*               8816               0-8.000000091E+02-1.781919786E+01+
*       4.6983833983E+01               0
GRID*               8817               0-8.000000140E+026.0559529305E+00+
*       4.9883131414E+01               0
GRID*               8818               0-8.000000174E+022.8544040976E+01+
*       4.1355295678E+01               0
GRID*               8819               0-8.000000096E+024.4493745167E+01+
*       2.3352903330E+01               0
GRID*               8820               0-8.250000012E+024.4494020173E+01+
*       -2.335223943E+01               0
GRID*               8821               0-8.250000040E+022.8545140424E+01+
*       -4.135445206E+01               0
GRID*               8822               0-8.250000069E+026.0573290619E+00+
*       -4.988295026E+01               0
GRID*               8823               0-8.250000103E+02-1.781805327E+01+
*       -4.698430810E+01               0
GRID*               8824               0-8.250000112E+02-3.761194182E+01+
*       -3.332233488E+01               0
GRID*               8825               0-8.249999986E+02-4.878978424E+01+
*       -1.202553084E+01               0
GRID*               8826               0-8.250000003E+02-4.878977411E+01+
*       1.2025607817E+01               0
GRID*               8827               0-8.250000025E+02-3.761247981E+01+
*       3.3321633753E+01               0
GRID*               8828               0-8.250000056E+02-1.781897801E+01+
*       4.6983925050E+01               0
GRID*               8829               0-8.250000085E+026.0563239348E+00+
*       4.9883082574E+01               0
GRID*               8830               0-8.250000112E+022.8544373724E+01+
*       4.1355040356E+01               0
GRID*               8831               0-8.250000089E+024.4493764192E+01+
*       2.3352857401E+01               0
GRID*               8832               0-8.500000007E+024.4494006658E+01+
*       -2.335227205E+01               0
GRID*               8833               0-8.500000020E+022.8545041481E+01+
*       -4.135452798E+01               0
GRID*               8834               0-8.500000033E+026.0570906876E+00+
*       -4.988298164E+01               0
GRID*               8835               0-8.500000051E+02-1.781837149E+01+
*       -4.698417628E+01               0
GRID*               8836               0-8.500000060E+02-3.761215752E+01+
*       -3.332205377E+01               0
GRID*               8837               0-8.500000026E+02-4.878974847E+01+
*       -1.202580252E+01               0
GRID*               8838               0-8.500000002E+02-4.878977289E+01+
*       1.2025617064E+01               0
GRID*               8839               0-8.500000013E+02-3.761243423E+01+
*       3.3321693151E+01               0
GRID*               8840               0-8.500000028E+02-1.781881054E+01+
*       4.6983994421E+01               0
GRID*               8841               0-8.500000041E+026.0566185359E+00+
*       4.9883043792E+01               0
GRID*               8842               0-8.500000057E+022.8544668122E+01+
*       4.1354814461E+01               0
GRID*               8843               0-8.500000056E+024.4493852772E+01+
*       2.3352643557E+01               0
GRID*               8844               0-8.750000002E+024.4493998286E+01+
*       -2.335229227E+01               0
GRID*               8845               0-8.750000007E+022.8544979213E+01+
*       -4.135457576E+01               0
GRID*               8846               0-8.750000009E+026.0569368235E+00+
*       -4.988300189E+01               0
GRID*               8847               0-8.750000015E+02-1.781858729E+01+
*       -4.698408689E+01               0
GRID*               8848               0-8.750000019E+02-3.761232731E+01+
*       -3.332183249E+01               0
GRID*               8849               0-8.750000015E+02-4.878975845E+01+
*       -1.202572673E+01               0
GRID*               8850               0-8.750000001E+02-4.878977214E+01+
*       1.2025622760E+01               0
GRID*               8851               0-8.750000005E+02-3.761240579E+01+
*       3.3321730209E+01               0
GRID*               8852               0-8.750000009E+02-1.781870398E+01+
*       4.6984038558E+01               0
GRID*               8853               0-8.750000012E+026.0568125095E+00+
*       4.9883018257E+01               0
GRID*               8854               0-8.750000017E+022.8544877814E+01+
*       4.1354653562E+01               0
GRID*               8855               0-8.750000018E+024.4493949860E+01+
*       2.3352409173E+01               0
GRID*               8856               0-3.749999614E+014.4493904027E+01+
*       -2.335251982E+01               0
GRID*               8857               0-3.749999614E+013.7612251631E+01+
*       -3.332193112E+01               0
GRID*               8858               0-2.499999802E+013.7612327308E+01+
*       -3.332183249E+01               0
GRID*               8859               0-4.999999385E+013.7612157523E+01+
*       -3.332205377E+01               0
GRID*               8860               0-3.749999650E+012.8544786407E+01+
*       -4.135472370E+01               0
GRID*               8861               0-4.999999488E+011.7818371489E+01+
*       -4.698417628E+01               0
GRID*               8862               0-3.749999690E+011.7818494341E+01+
*       -4.698412540E+01               0
GRID*               8863               0-3.749999756E+016.0567295878E+00+
*       -4.988302917E+01               0
GRID*               8864               0-2.499999848E+011.7818587294E+01+
*       -4.698408689E+01               0
GRID*               8865               0-4.999999668E+01-6.057090688E+00+
*       -4.988298164E+01               0
GRID*               8866               0-3.749999803E+01-6.057002256E+00+
*       -4.988299328E+01               0
GRID*               8867               0-3.749999831E+01-1.781874912E+01+
*       -4.698401986E+01               0
GRID*               8868               0-2.499999905E+01-6.056936823E+00+
*       -4.988300189E+01               0
GRID*               8869               0-4.999999797E+01-2.854504148E+01+
*       -4.135452798E+01               0
GRID*               8870               0-3.749999873E+01-2.854500551E+01+
*       -4.135455558E+01               0
GRID*               8871               0-3.749999915E+01-3.761241777E+01+
*       -3.332171459E+01               0
GRID*               8872               0-2.499999932E+01-2.854497921E+01+
*       -4.135457576E+01               0
GRID*               8873               0-4.999999933E+01-4.449400666E+01+
*       -2.335227205E+01               0
GRID*               8874               0-3.749999956E+01-4.449400181E+01+
*       -2.335228377E+01               0
GRID*               8875               0-3.749999987E+01-4.878977245E+01+
*       -1.202562037E+01               0
GRID*               8876               0-2.499999975E+01-4.449399829E+01+
*       -2.335229227E+01               0
GRID*               8877               0-5.000000000E+01-5.025000000E+01+
*       8.3879848728E-13               0
GRID*               8878               0-3.750000000E+01-5.025000000E+01+
*       8.5924557877E-13               0
GRID*               8879               0-3.749999755E+01-4.878975018E+01+
*       1.2025789564E+01               0
GRID*               8880               0-2.500000000E+01-5.025000000E+01+
*       8.8279624665E-13               0
GRID*               8881               0-4.999999441E+01-4.449385277E+01+
*       2.3352643557E+01               0
GRID*               8882               0-3.749999637E+01-4.449390403E+01+
*       2.3352519821E+01               0
GRID*               8883               0-3.749999626E+01-3.761225163E+01+
*       3.3321931121E+01               0
GRID*               8884               0-2.499999814E+01-4.449394986E+01+
*       2.3352409173E+01               0
GRID*               8885               0-4.999999425E+01-2.854466812E+01+
*       4.1354814461E+01               0
GRID*               8886               0-3.749999650E+01-2.854478641E+01+
*       4.1354723700E+01               0
GRID*               8887               0-3.749999690E+01-1.781849434E+01+
*       4.6984125397E+01               0
GRID*               8888               0-2.499999827E+01-2.854487781E+01+
*       4.1354653562E+01               0
GRID*               8889               0-4.999999588E+01-6.056618536E+00+
*       4.9883043792E+01               0
GRID*               8890               0-3.749999756E+01-6.056729588E+00+
*       4.9883029173E+01               0
GRID*               8891               0-3.749999803E+016.0570022556E+00+
*       4.9882993278E+01               0
GRID*               8892               0-2.499999883E+01-6.056812509E+00+
*       4.9883018257E+01               0
GRID*               8893               0-4.999999724E+011.7818810536E+01+
*       4.6983994421E+01               0
GRID*               8894               0-3.749999831E+011.7818749120E+01+
*       4.6984019861E+01               0
GRID*               8895               0-3.749999873E+012.8545005512E+01+
*       4.1354555577E+01               0
GRID*               8896               0-2.499999913E+011.7818703982E+01+
*       4.6984038558E+01               0
GRID*               8897               0-4.999999856E+013.7612434228E+01+
*       3.3321693151E+01               0
GRID*               8898               0-3.749999903E+013.7612417774E+01+
*       3.3321714595E+01               0
GRID*               8899               0-3.749999933E+014.4494001807E+01+
*       2.3352283765E+01               0
GRID*               8900               0-2.499999941E+013.7612405793E+01+
*       3.3321730209E+01               0
GRID*               8901               0-6.249999233E+014.4493803628E+01+
*       -2.335276220E+01               0
GRID*               8902               0-6.249999130E+013.7612051917E+01+
*       -3.332219140E+01               0
GRID*               8903               0-7.499998865E+013.7611941818E+01+
*       -3.332233488E+01               0
GRID*               8904               0-6.249999164E+012.8544528643E+01+
*       -4.135492149E+01               0
GRID*               8905               0-7.499998974E+011.7818053265E+01+
*       -4.698430810E+01               0
GRID*               8906               0-6.249999247E+011.7818223018E+01+
*       -4.698423779E+01               0
GRID*               8907               0-6.249999384E+016.0564823167E+00+
*       -4.988306172E+01               0
GRID*               8908               0-7.499999309E+01-6.057329062E+00+
*       -4.988295026E+01               0
GRID*               8909               0-6.249999502E+01-6.057200254E+00+
*       -4.988296721E+01               0
GRID*               8910               0-6.249999594E+01-1.781888718E+01+
*       -4.698396267E+01               0
GRID*               8911               0-7.499999600E+01-2.854514042E+01+
*       -4.135445206E+01               0
GRID*               8912               0-6.249999706E+01-2.854508662E+01+
*       -4.135449334E+01               0
GRID*               8913               0-6.249999811E+01-3.761245497E+01+
*       -3.332166612E+01               0
GRID*               8914               0-7.499999875E+01-4.449402017E+01+
*       -2.335223943E+01               0
GRID*               8915               0-6.249999906E+01-4.449401280E+01+
*       -2.335225724E+01               0
GRID*               8916               0-6.249999975E+01-4.878977344E+01+
*       -1.202561287E+01               0
GRID*               8917               0-7.500000000E+01-5.025000000E+01+
*       8.5486405916E-13               0
GRID*               8918               0-6.250000000E+01-5.025000000E+01+
*       8.4610101995E-13               0
GRID*               8919               0-6.249999856E+01-4.878975907E+01+
*       1.2025722058E+01               0
GRID*               8920               0-7.499999106E+01-4.449376419E+01+
*       2.3352857401E+01               0
GRID*               8921               0-6.249999255E+01-4.449380363E+01+
*       2.3352762196E+01               0
GRID*               8922               0-6.249999141E+01-3.761205192E+01+
*       3.3322191398E+01               0
GRID*               8923               0-7.499998876E+01-2.854437372E+01+
*       4.1355040356E+01               0
GRID*               8924               0-6.249999164E+01-2.854452864E+01+
*       4.1354921485E+01               0
GRID*               8925               0-6.249999247E+01-1.781822302E+01+
*       4.6984237785E+01               0
GRID*               8926               0-7.499999148E+01-6.056323935E+00+
*       4.9883082574E+01               0
GRID*               8927               0-6.249999384E+01-6.056482317E+00+
*       4.9883061724E+01               0
GRID*               8928               0-6.249999502E+016.0572002538E+00+
*       4.9882967213E+01               0
GRID*               8929               0-7.499999444E+011.7818978006E+01+
*       4.6983925050E+01               0
GRID*               8930               0-6.249999594E+011.7818887184E+01+
*       4.6983962671E+01               0
GRID*               8931               0-6.249999706E+012.8545086620E+01+
*       4.1354493342E+01               0
GRID*               8932               0-7.499999735E+013.7612479805E+01+
*       3.3321633753E+01               0
GRID*               8933               0-6.249999800E+013.7612454968E+01+
*       3.3321666121E+01               0
GRID*               8934               0-6.249999884E+014.4494012796E+01+
*       2.3352257236E+01               0
GRID*               8935               0-8.749999003E+014.4493742127E+01+
*       -2.335291067E+01               0
GRID*               8936               0-8.749998609E+013.7611834313E+01+
*       -3.332247499E+01               0
GRID*               8937               0-9.999998377E+013.7611736577E+01+
*       -3.332260236E+01               0
GRID*               8938               0-8.749998572E+012.8544209198E+01+
*       -4.135516660E+01               0
GRID*               8939               0-9.999998359E+011.7817667583E+01+
*       -4.698446786E+01               0
GRID*               8940               0-8.749998676E+011.7817866631E+01+
*       -4.698438541E+01               0
GRID*               8941               0-8.749998884E+016.0561464400E+00+
*       -4.988310594E+01               0
GRID*               8942               0-9.999998850E+01-6.057636691E+00+
*       -4.988290976E+01               0
GRID*               8943               0-8.749999090E+01-6.057475191E+00+
*       -4.988293102E+01               0
GRID*               8944               0-8.749999274E+01-1.781908193E+01+
*       -4.698388200E+01               0
GRID*               8945               0-9.999999347E+01-2.854527197E+01+
*       -4.135435112E+01               0
GRID*               8946               0-8.749999480E+01-2.854520238E+01+
*       -4.135440452E+01               0
GRID*               8947               0-8.749999673E+01-3.761250855E+01+
*       -3.332159630E+01               0
GRID*               8948               0-9.999999802E+01-4.449403846E+01+
*       -2.335219527E+01               0
GRID*               8949               0-8.749999840E+01-4.449402874E+01+
*       -2.335221874E+01               0
GRID*               8950               0-8.749999958E+01-4.878977488E+01+
*       -1.202560193E+01               0
GRID*               8951               0-1.000000000E+02-5.025000000E+01+
*       7.5701012131E-13               0
GRID*               8952               0-8.750000000E+01-5.025000000E+01+
*       8.3441696767E-13               0
GRID*               8953               0-8.750000369E+01-4.878980486E+01+
*       1.2025374190E+01               0
GRID*               8954               0-9.999999039E+01-4.449374517E+01+
*       2.3352903330E+01               0
GRID*               8955               0-8.749999025E+01-4.449374213E+01+
*       2.3352910670E+01               0
GRID*               8956               0-8.749998620E+01-3.761183431E+01+
*       3.3322474990E+01               0
GRID*               8957               0-9.999998262E+01-2.854404098E+01+
*       4.1355295678E+01               0
GRID*               8958               0-8.749998572E+01-2.854420920E+01+
*       4.1355166600E+01               0
GRID*               8959               0-8.749998676E+01-1.781786663E+01+
*       4.6984385410E+01               0
GRID*               8960               0-9.999998598E+01-6.055952930E+00+
*       4.9883131414E+01               0
GRID*               8961               0-8.749998884E+01-6.056146440E+00+
*       4.9883105940E+01               0
GRID*               8962               0-8.749999090E+016.0574751913E+00+
*       4.9882931020E+01               0
GRID*               8963               0-9.999999086E+011.7819197857E+01+
*       4.6983833983E+01               0
GRID*               8964               0-8.749999274E+011.7819081927E+01+
*       4.6983882004E+01               0
GRID*               8965               0-8.749999480E+012.8545202382E+01+
*       4.1354404517E+01               0
GRID*               8966               0-9.999999580E+013.7612541000E+01+
*       3.3321554000E+01               0
GRID*               8967               0-8.749999662E+013.7612508547E+01+
*       3.3321596295E+01               0
GRID*               8968               0-8.749999819E+014.4494028744E+01+
*       2.3352218736E+01               0
GRID*               8969               0-1.124999916E+024.4493781129E+01+
*       -2.335281651E+01               0
GRID*               8970               0-1.124999819E+023.7611655877E+01+
*       -3.332270754E+01               0
GRID*               8971               0-1.249999806E+023.7611599582E+01+
*       -3.332278090E+01               0
GRID*               8972               0-1.124999796E+022.8543875063E+01+
*       -4.135542299E+01               0
GRID*               8973               0-1.249999770E+021.7817250487E+01+
*       -4.698464063E+01               0
GRID*               8974               0-1.124999803E+021.7817460662E+01+
*       -4.698455357E+01               0
GRID*               8975               0-1.124999829E+026.0557465571E+00+
*       -4.988315858E+01               0
GRID*               8976               0-1.249999831E+02-6.057997829E+00+
*       -4.988286222E+01               0
GRID*               8977               0-1.124999859E+02-6.057811577E+00+
*       -4.988288674E+01               0
GRID*               8978               0-1.124999888E+02-1.781932469E+01+
*       -4.698378145E+01               0
GRID*               8979               0-1.249999905E+02-2.854543194E+01+
*       -4.135422837E+01               0
GRID*               8980               0-1.124999920E+02-2.854534867E+01+
*       -4.135429227E+01               0
GRID*               8981               0-1.124999950E+02-3.761257697E+01+
*       -3.332150712E+01               0
GRID*               8982               0-1.249999971E+02-4.449406115E+01+
*       -2.335214050E+01               0
GRID*               8983               0-1.124999976E+02-4.449404928E+01+
*       -2.335216916E+01               0
GRID*               8984               0-1.124999994E+02-4.878977675E+01+
*       -1.202558773E+01               0
GRID*               8985               0-1.250000000E+02-5.025000000E+01+
*       7.7307569320E-13               0
GRID*               8986               0-1.125000000E+02-5.025000000E+01+
*       7.9352278469E-13               0
GRID*               8987               0-1.125000066E+02-4.878983050E+01+
*       1.2025179392E+01               0
GRID*               8988               0-1.249999947E+02-4.449385791E+01+
*       2.3352631153E+01               0
GRID*               8989               0-1.124999918E+02-4.449378113E+01+
*       2.3352816514E+01               0
GRID*               8990               0-1.124999820E+02-3.761165588E+01+
*       3.3322707537E+01               0
GRID*               8991               0-1.249999767E+02-2.854371756E+01+
*       4.1355543842E+01               0
GRID*               8992               0-1.124999796E+02-2.854387506E+01+
*       4.1355422985E+01               0
GRID*               8993               0-1.124999803E+02-1.781746066E+01+
*       4.6984553572E+01               0
GRID*               8994               0-1.249999797E+02-6.055530527E+00+
*       4.9883187020E+01               0
GRID*               8995               0-1.124999829E+02-6.055746557E+00+
*       4.9883158581E+01               0
GRID*               8996               0-1.124999859E+026.0578115769E+00+
*       4.9882886737E+01               0
GRID*               8997               0-1.249999866E+021.7819461289E+01+
*       4.6983724862E+01               0
GRID*               8998               0-1.124999888E+021.7819324686E+01+
*       4.6983781446E+01               0
GRID*               8999               0-1.124999920E+022.8545348673E+01+
*       4.1354292266E+01               0
GRID*               9000               0-1.249999939E+023.7612616254E+01+
*       3.3321455926E+01               0
GRID*               9001               0-1.124999949E+023.7612576969E+01+
*       3.3321507124E+01               0
GRID*               9002               0-1.124999974E+024.4494049280E+01+
*       2.3352169157E+01               0
GRID*               9003               0-1.374999993E+024.4493983502E+01+
*       -2.335232796E+01               0
GRID*               9004               0-1.374999800E+023.7611575171E+01+
*       -3.332281272E+01               0
GRID*               9005               0-1.499999804E+023.7611590241E+01+
*       -3.332279308E+01               0
GRID*               9006               0-1.374999741E+022.8543574661E+01+
*       -4.135565349E+01               0
GRID*               9007               0-1.499999705E+021.7816839286E+01+
*       -4.698481096E+01               0
GRID*               9008               0-1.374999737E+021.7817041763E+01+
*       -4.698472709E+01               0
GRID*               9009               0-1.374999765E+026.0553081089E+00+
*       -4.988321630E+01               0
GRID*               9010               0-1.499999773E+02-6.058396158E+00+
*       -4.988280978E+01               0
GRID*               9011               0-1.374999803E+02-6.058193389E+00+
*       -4.988283647E+01               0
GRID*               9012               0-1.374999843E+02-1.781960651E+01+
*       -4.698366471E+01               0
GRID*               9013               0-1.499999870E+02-2.854561601E+01+
*       -4.135408713E+01               0
GRID*               9014               0-1.374999888E+02-2.854552124E+01+
*       -4.135415985E+01               0
GRID*               9015               0-1.374999930E+02-3.761265865E+01+
*       -3.332140067E+01               0
GRID*               9016               0-1.499999961E+02-4.449408786E+01+
*       -2.335207602E+01               0
GRID*               9017               0-1.374999966E+02-4.449407403E+01+
*       -2.335210941E+01               0
GRID*               9018               0-1.374999991E+02-4.878977902E+01+
*       -1.202557050E+01               0
GRID*               9019               0-1.500000000E+02-5.025000000E+01+
*       7.3218151021E-13               0
GRID*               9020               0-1.375000000E+02-5.025000000E+01+
*       7.5116809517E-13               0
GRID*               9021               0-1.375000082E+02-4.878984471E+01+
*       1.2025071484E+01               0
GRID*               9022               0-1.500000050E+02-4.449412690E+01+
*       2.3351981764E+01               0
GRID*               9023               0-1.374999995E+02-4.449398350E+01+
*       2.3352327956E+01               0
GRID*               9024               0-1.374999801E+02-3.761157517E+01+
*       3.3322812717E+01               0
GRID*               9025               0-1.499999719E+02-2.854345269E+01+
*       4.1355747076E+01               0
GRID*               9026               0-1.374999741E+02-2.854357466E+01+
*       4.1355653487E+01               0
GRID*               9027               0-1.374999737E+02-1.781704176E+01+
*       4.6984727091E+01               0
GRID*               9028               0-1.499999732E+02-6.055082638E+00+
*       4.9883245981E+01               0
GRID*               9029               0-1.374999765E+02-6.055308109E+00+
*       4.9883216300E+01               0
GRID*               9030               0-1.374999803E+026.0581933894E+00+
*       4.9882836475E+01               0
GRID*               9031               0-1.499999819E+021.7819759193E+01+
*       4.6983601463E+01               0
GRID*               9032               0-1.374999843E+021.7819606515E+01+
*       4.6983664706E+01               0
GRID*               9033               0-1.374999888E+022.8545521242E+01+
*       4.1354159851E+01               0
GRID*               9034               0-1.499999918E+023.7612703963E+01+
*       3.3321341619E+01               0
GRID*               9035               0-1.374999929E+023.7612658654E+01+
*       3.3321400668E+01               0
GRID*               9036               0-1.374999964E+024.4494074028E+01+
*       2.3352109412E+01               0
GRID*               9037               0-1.625000093E+024.4494243271E+01+
*       -2.335170084E+01               0
GRID*               9038               0-1.624999820E+023.7611652519E+01+
*       -3.332271191E+01               0
GRID*               9039               0-1.749999848E+023.7611769871E+01+
*       -3.332255897E+01               0
GRID*               9040               0-1.624999702E+022.8543358089E+01+
*       -4.135581967E+01               0
GRID*               9041               0-1.749999648E+021.7816472774E+01+
*       -4.698496278E+01               0
GRID*               9042               0-1.624999675E+021.7816647954E+01+
*       -4.698489022E+01               0
GRID*               9043               0-1.624999698E+026.0548575202E+00+
*       -4.988327562E+01               0
GRID*               9044               0-1.749999711E+02-6.058814686E+00+
*       -4.988275469E+01               0
GRID*               9045               0-1.624999742E+02-6.058603988E+00+
*       -4.988278242E+01               0
GRID*               9046               0-1.624999794E+02-1.781991813E+01+
*       -4.698353563E+01               0
GRID*               9047               0-1.749999833E+02-2.854581970E+01+
*       -4.135393084E+01               0
GRID*               9048               0-1.624999852E+02-2.854571569E+01+
*       -4.135401065E+01               0
GRID*               9049               0-1.624999908E+02-3.761275197E+01+
*       -3.332127905E+01               0
GRID*               9050               0-1.749999949E+02-4.449411820E+01+
*       -2.335200278E+01               0
GRID*               9051               0-1.624999955E+02-4.449410260E+01+
*       -2.335204044E+01               0
GRID*               9052               0-1.624999988E+02-4.878978166E+01+
*       -1.202555044E+01               0
GRID*               9053               0-1.750000000E+02-5.025000000E+01+
*       7.4678657556E-13               0
GRID*               9054               0-1.625000000E+02-5.025000000E+01+
*       7.6723366706E-13               0
GRID*               9055               0-1.625000090E+02-4.878985267E+01+
*       1.2025010977E+01               0
GRID*               9056               0-1.750000131E+02-4.449433806E+01+
*       2.3351472001E+01               0
GRID*               9057               0-1.625000095E+02-4.449424327E+01+
*       2.3351700837E+01               0
GRID*               9058               0-1.624999821E+02-3.761165252E+01+
*       3.3322711913E+01               0
GRID*               9059               0-1.749999691E+02-2.854329742E+01+
*       4.1355866217E+01               0
GRID*               9060               0-1.624999702E+02-2.854335809E+01+
*       4.1355819667E+01               0
GRID*               9061               0-1.624999675E+02-1.781664795E+01+
*       4.6984890216E+01               0
GRID*               9062               0-1.749999666E+02-6.054636242E+00+
*       4.9883304746E+01               0
GRID*               9063               0-1.624999698E+02-6.054857520E+00+
*       4.9883275616E+01               0
GRID*               9064               0-1.624999742E+026.0586039881E+00+
*       4.9882782422E+01               0
GRID*               9065               0-1.749999768E+021.7820082100E+01+
*       4.6983467707E+01               0
GRID*               9066               0-1.624999794E+021.7819918129E+01+
*       4.6983535627E+01               0
GRID*               9067               0-1.624999852E+022.8545715691E+01+
*       4.1354010648E+01               0
GRID*               9068               0-1.749999894E+023.7612802471E+01+
*       3.3321213239E+01               0
GRID*               9069               0-1.624999907E+023.7612751973E+01+
*       3.3321279050E+01               0
GRID*               9070               0-1.624999953E+024.4494102600E+01+
*       2.3352040435E+01               0
GRID*               9071               0-1.875000159E+024.4494415483E+01+
*       -2.335128509E+01               0
GRID*               9072               0-1.874999892E+023.7611950316E+01+
*       -3.332232381E+01               0
GRID*               9073               0-1.999999952E+023.7612202038E+01+
*       -3.332199575E+01               0
GRID*               9074               0-1.874999688E+022.8543277407E+01+
*       -4.135588157E+01               0
GRID*               9075               0-1.999999604E+021.7816191489E+01+
*       -4.698507930E+01               0
GRID*               9076               0-1.874999624E+021.7816318868E+01+
*       -4.698502653E+01               0
GRID*               9077               0-1.874999635E+026.0544223723E+00+
*       -4.988333290E+01               0
GRID*               9078               0-1.999999649E+02-6.059235634E+00+
*       -4.988269927E+01               0
GRID*               9079               0-1.874999680E+02-6.059026004E+00+
*       -4.988272687E+01               0
GRID*               9080               0-1.874999741E+02-1.782024985E+01+
*       -4.698339822E+01               0
GRID*               9081               0-1.999999793E+02-2.854603834E+01+
*       -4.135376308E+01               0
GRID*               9082               0-1.874999813E+02-2.854592745E+01+
*       -4.135384816E+01               0
GRID*               9083               0-1.874999883E+02-3.761285524E+01+
*       -3.332114447E+01               0
GRID*               9084               0-1.999999936E+02-4.449415176E+01+
*       -2.335192176E+01               0
GRID*               9085               0-1.874999943E+02-4.449413460E+01+
*       -2.335196318E+01               0
GRID*               9086               0-1.874999985E+02-4.878978464E+01+
*       -1.202552776E+01               0
GRID*               9087               0-2.000000000E+02-5.025000000E+01+
*       7.0589239258E-13               0
GRID*               9088               0-1.875000000E+02-5.025000000E+01+
*       7.2633948407E-13               0
GRID*               9089               0-1.875000095E+02-4.878985684E+01+
*       1.2024979345E+01               0
GRID*               9090               0-2.000000185E+02-4.449447871E+01+
*       2.3351132459E+01               0
GRID*               9091               0-1.875000160E+02-4.449441548E+01+
*       2.3351285091E+01               0
GRID*               9092               0-1.874999893E+02-3.761195032E+01+
*       3.3322323810E+01               0
GRID*               9093               0-1.999999694E+02-2.854330492E+01+
*       4.1355860464E+01               0
GRID*               9094               0-1.874999688E+02-2.854327741E+01+
*       4.1355881574E+01               0
GRID*               9095               0-1.874999624E+02-1.781631887E+01+
*       4.6985026533E+01               0
GRID*               9096               0-1.999999605E+02-6.054219575E+00+
*       4.9883359597E+01               0
GRID*               9097               0-1.874999635E+02-6.054422372E+00+
*       4.9883332900E+01               0
GRID*               9098               0-1.874999680E+026.0590260040E+00+
*       4.9882726867E+01               0
GRID*               9099               0-1.999999715E+021.7820420110E+01+
*       4.6983327694E+01               0
GRID*               9100               0-1.874999741E+021.7820249854E+01+
*       4.6983398219E+01               0
GRID*               9101               0-1.874999813E+022.8545927449E+01+
*       4.1353848163E+01               0
GRID*               9102               0-1.999999869E+023.7612910062E+01+
*       3.3321073021E+01               0
GRID*               9103               0-1.874999882E+023.7612855241E+01+
*       3.3321144466E+01               0
GRID*               9104               0-1.874999941E+024.4494134599E+01+
*       2.3351963184E+01               0
GRID*               9105               0-2.125000202E+024.4494530164E+01+
*       -2.335100823E+01               0
GRID*               9106               0-2.125000030E+023.7612522980E+01+
*       -3.332157749E+01               0
GRID*               9107               0-2.250000100E+023.7612817953E+01+
*       -3.332119306E+01               0
GRID*               9108               0-2.124999709E+022.8543387005E+01+
*       -4.135579748E+01               0
GRID*               9109               0-2.249999581E+021.7816038045E+01+
*       -4.698514286E+01               0
GRID*               9110               0-2.124999590E+021.7816096033E+01+
*       -4.698511884E+01               0
GRID*               9111               0-2.124999577E+026.0540316135E+00+
*       -4.988338434E+01               0
GRID*               9112               0-2.249999590E+02-6.059640283E+00+
*       -4.988264600E+01               0
GRID*               9113               0-2.124999619E+02-6.059441207E+00+
*       -4.988267221E+01               0
GRID*               9114               0-2.124999688E+02-1.782059155E+01+
*       -4.698325668E+01               0
GRID*               9115               0-2.249999751E+02-2.854626703E+01+
*       -4.135358760E+01               0
GRID*               9116               0-2.124999772E+02-2.854615174E+01+
*       -4.135367606E+01               0
GRID*               9117               0-2.124999856E+02-3.761296671E+01+
*       -3.332099920E+01               0
GRID*               9118               0-2.249999923E+02-4.449418812E+01+
*       -2.335183397E+01               0
GRID*               9119               0-2.124999930E+02-4.449416962E+01+
*       -2.335187865E+01               0
GRID*               9120               0-2.124999981E+02-4.878978795E+01+
*       -1.202550268E+01               0
GRID*               9121               0-2.250000000E+02-5.025000000E+01+
*       6.9420834030E-13               0
GRID*               9122               0-2.125000000E+02-5.025000000E+01+
*       7.4240505596E-13               0
GRID*               9123               0-2.125000097E+02-4.878985850E+01+
*       1.2024966692E+01               0
GRID*               9124               0-2.250000220E+02-4.449457175E+01+
*       2.3350907830E+01               0
GRID*               9125               0-2.125000204E+02-4.449453016E+01+
*       2.3351008234E+01               0
GRID*               9126               0-2.125000030E+02-3.761252298E+01+
*       3.3321577485E+01               0
GRID*               9127               0-2.249999736E+02-2.854353090E+01+
*       4.1355687069E+01               0
GRID*               9128               0-2.124999709E+02-2.854338700E+01+
*       4.1355797479E+01               0
GRID*               9129               0-2.124999590E+02-1.781609603E+01+
*       4.6985118836E+01               0
GRID*               9130               0-2.249999553E+02-6.053862362E+00+
*       4.9883406621E+01               0
GRID*               9131               0-2.124999577E+02-6.054031614E+00+
*       4.9883384340E+01               0
GRID*               9132               0-2.124999619E+026.0594412073E+00+
*       4.9882672209E+01               0
GRID*               9133               0-2.249999661E+021.7820762821E+01+
*       4.6983185735E+01               0
GRID*               9134               0-2.124999688E+021.7820591550E+01+
*       4.6983256679E+01               0
GRID*               9135               0-2.124999772E+022.8546151742E+01+
*       4.1353676060E+01               0
GRID*               9136               0-2.249999841E+023.7613024948E+01+
*       3.3320923296E+01               0
GRID*               9137               0-2.124999855E+023.7612966708E+01+
*       3.3320999197E+01               0
GRID*               9138               0-2.124999928E+024.4494169616E+01+
*       2.3351878649E+01               0
GRID*               9139               0-2.375000231E+024.4494604985E+01+
*       -2.335082760E+01               0
GRID*               9140               0-2.375000161E+023.7613068232E+01+
*       -3.332086689E+01               0
GRID*               9141               0-2.500000211E+023.7613280280E+01+
*       -3.332059053E+01               0
GRID*               9142               0-2.374999776E+022.8543744032E+01+
*       -4.135552353E+01               0
GRID*               9143               0-2.499999585E+021.7816057522E+01+
*       -4.698513479E+01               0
GRID*               9144               0-2.374999579E+021.7816023241E+01+
*       -4.698514899E+01               0
GRID*               9145               0-2.374999531E+026.0537158168E+00+
*       -4.988342591E+01               0
GRID*               9146               0-2.499999536E+02-6.060008794E+00+
*       -4.988259749E+01               0
GRID*               9147               0-2.374999562E+02-6.059830345E+00+
*       -4.988262098E+01               0
GRID*               9148               0-2.374999634E+02-1.782093253E+01+
*       -4.698311544E+01               0
GRID*               9149               0-2.499999708E+02-2.854650063E+01+
*       -4.135340835E+01               0
GRID*               9150               0-2.374999729E+02-2.854638355E+01+
*       -4.135349819E+01               0
GRID*               9151               0-2.374999828E+02-3.761308454E+01+
*       -3.332084563E+01               0
GRID*               9152               0-2.499999908E+02-4.449422687E+01+
*       -2.335174044E+01               0
GRID*               9153               0-2.374999915E+02-4.449420723E+01+
*       -2.335178785E+01               0
GRID*               9154               0-2.374999977E+02-4.878979153E+01+
*       -1.202547542E+01               0
GRID*               9155               0-2.500000000E+02-5.025000000E+01+
*       6.5185365078E-13               0
GRID*               9156               0-2.375000000E+02-5.025000000E+01+
*       6.7376124881E-13               0
GRID*               9157               0-2.375000097E+02-4.878985844E+01+
*       1.2024967211E+01               0
GRID*               9158               0-2.500000243E+02-4.449463107E+01+
*       2.3350764626E+01               0
GRID*               9159               0-2.375000233E+02-4.449460499E+01+
*       2.3350827604E+01               0
GRID*               9160               0-2.375000161E+02-3.761306823E+01+
*       3.3320866886E+01               0
GRID*               9161               0-2.499999830E+02-2.854403408E+01+
*       4.1355300971E+01               0
GRID*               9162               0-2.374999776E+02-2.854374403E+01+
*       4.1355523527E+01               0
GRID*               9163               0-2.374999579E+02-1.781602324E+01+
*       4.6985148988E+01               0
GRID*               9164               0-2.499999514E+02-6.053596104E+00+
*       4.9883441672E+01               0
GRID*               9165               0-2.374999531E+02-6.053715817E+00+
*       4.9883425913E+01               0
GRID*               9166               0-2.374999562E+026.0598303450E+00+
*       4.9882620982E+01               0
GRID*               9167               0-2.499999608E+021.7821099228E+01+
*       4.6983046387E+01               0
GRID*               9168               0-2.374999634E+021.7820932527E+01+
*       4.6983115438E+01               0
GRID*               9169               0-2.374999729E+022.8546383553E+01+
*       4.1353498189E+01               0
GRID*               9170               0-2.499999813E+023.7613145254E+01+
*       3.3320766507E+01               0
GRID*               9171               0-2.374999827E+023.7613084544E+01+
*       3.3320845627E+01               0
GRID*               9172               0-2.374999914E+024.4494207227E+01+
*       2.3351787851E+01               0
GRID*               9173               0-2.625000249E+024.4494651006E+01+
*       -2.335071650E+01               0
GRID*               9174               0-2.625000255E+023.7613459361E+01+
*       -3.332035715E+01               0
GRID*               9175               0-2.750000291E+023.7613609806E+01+
*       -3.332016108E+01               0
GRID*               9176               0-2.624999899E+022.8544408946E+01+
*       -4.135501333E+01               0
GRID*               9177               0-2.749999624E+021.7816297964E+01+
*       -4.698503519E+01               0
GRID*               9178               0-2.624999600E+021.7816146988E+01+
*       -4.698509773E+01               0
GRID*               9179               0-2.624999501E+026.0535074983E+00+
*       -4.988345334E+01               0
GRID*               9180               0-2.749999490E+02-6.060319991E+00+
*       -4.988255652E+01               0
GRID*               9181               0-2.624999512E+02-6.060172940E+00+
*       -4.988257588E+01               0
GRID*               9182               0-2.624999583E+02-1.782126143E+01+
*       -4.698297920E+01               0
GRID*               9183               0-2.749999666E+02-2.854673366E+01+
*       -4.135322955E+01               0
GRID*               9184               0-2.624999687E+02-2.854661757E+01+
*       -4.135331862E+01               0
GRID*               9185               0-2.624999799E+02-3.761320683E+01+
*       -3.332068626E+01               0
GRID*               9186               0-2.749999893E+02-4.449426753E+01+
*       -2.335164226E+01               0
GRID*               9187               0-2.624999900E+02-4.449424699E+01+
*       -2.335169186E+01               0
GRID*               9188               0-2.624999973E+02-4.878979538E+01+
*       -1.202544621E+01               0
GRID*               9189               0-2.750000000E+02-5.025000000E+01+
*       6.4016959850E-13               0
GRID*               9190               0-2.625000000E+02-5.025000000E+01+
*       6.5915618346E-13               0
GRID*               9191               0-2.625000096E+02-4.878985712E+01+
*       1.2024977236E+01               0
GRID*               9192               0-2.750000256E+02-4.449466560E+01+
*       2.3350681263E+01               0
GRID*               9193               0-2.625000251E+02-4.449465101E+01+
*       2.3350716504E+01               0
GRID*               9194               0-2.625000255E+02-3.761345936E+01+
*       3.3320357148E+01               0
GRID*               9195               0-2.749999985E+02-2.854487682E+01+
*       4.1354654326E+01               0
GRID*               9196               0-2.624999899E+02-2.854440895E+01+
*       4.1355013330E+01               0
GRID*               9197               0-2.624999600E+02-1.781614699E+01+
*       4.6985097730E+01               0
GRID*               9198               0-2.749999493E+02-6.053454432E+00+
*       4.9883460322E+01               0
GRID*               9199               0-2.624999501E+02-6.053507498E+00+
*       4.9883453336E+01               0
GRID*               9200               0-2.624999512E+026.0601729404E+00+
*       4.9882575882E+01               0
GRID*               9201               0-2.749999558E+021.7821417599E+01+
*       4.6982914509E+01               0
GRID*               9202               0-2.624999583E+021.7821261433E+01+
*       4.6982979197E+01               0
GRID*               9203               0-2.624999687E+022.8546617573E+01+
*       4.1353318622E+01               0
GRID*               9204               0-2.749999783E+023.7613269004E+01+
*       3.3320605230E+01               0
GRID*               9205               0-2.624999798E+023.7613206827E+01+
*       3.3320686263E+01               0
GRID*               9206               0-2.624999899E+024.4494246989E+01+
*       2.3351691859E+01               0
GRID*               9207               0-2.875000259E+024.4494675547E+01+
*       -2.335065726E+01               0
GRID*               9208               0-2.875000321E+023.7613735223E+01+
*       -3.331999763E+01               0
GRID*               9209               0-3.000000346E+023.7613838642E+01+
*       -3.331986285E+01               0
GRID*               9210               0-2.875000078E+022.8545382220E+01+
*       -4.135426652E+01               0
GRID*               9211               0-2.999999706E+021.7816810998E+01+
*       -4.698482268E+01               0
GRID*               9212               0-2.874999659E+021.7816517020E+01+
*       -4.698494445E+01               0
GRID*               9213               0-2.874999492E+026.0534415145E+00+
*       -4.988346202E+01               0
GRID*               9214               0-2.999999457E+02-6.060551072E+00+
*       -4.988252610E+01               0
GRID*               9215               0-2.874999472E+02-6.060447043E+00+
*       -4.988253980E+01               0
GRID*               9216               0-2.874999535E+02-1.782156612E+01+
*       -4.698285299E+01               0
GRID*               9217               0-2.999999624E+02-2.854696026E+01+
*       -4.135305568E+01               0
GRID*               9218               0-2.874999645E+02-2.854684815E+01+
*       -4.135314170E+01               0
GRID*               9219               0-2.874999770E+02-3.761333152E+01+
*       -3.332052376E+01               0
GRID*               9220               0-2.999999877E+02-4.449430965E+01+
*       -2.335154059E+01               0
GRID*               9221               0-2.874999885E+02-4.449428844E+01+
*       -2.335159179E+01               0
GRID*               9222               0-2.874999968E+02-4.878979945E+01+
*       -1.202541528E+01               0
GRID*               9223               0-3.000000000E+02-5.025000000E+01+
*       5.9781490898E-13               0
GRID*               9224               0-2.875000000E+02-5.025000000E+01+
*       6.1826200047E-13               0
GRID*               9225               0-2.875000093E+02-4.878985487E+01+
*       1.2024994313E+01               0
GRID*               9226               0-3.000000262E+02-4.449468141E+01+
*       2.3350643101E+01               0
GRID*               9227               0-2.875000260E+02-4.449467555E+01+
*       2.3350657258E+01               0
GRID*               9228               0-2.875000322E+02-3.761373522E+01+
*       3.3319997631E+01               0
GRID*               9229               0-3.000000159E+02-2.854582128E+01+
*       4.1353929630E+01               0
GRID*               9230               0-2.875000078E+02-2.854538222E+01+
*       4.1354266525E+01               0
GRID*               9231               0-2.874999659E+02-1.781651702E+01+
*       4.6984944453E+01               0
GRID*               9232               0-2.999999497E+02-6.053473550E+00+
*       4.9883457805E+01               0
GRID*               9233               0-2.874999492E+02-6.053441514E+00+
*       4.9883462023E+01               0
GRID*               9234               0-2.874999472E+026.0604470431E+00+
*       4.9882539798E+01               0
GRID*               9235               0-2.999999514E+021.7821705332E+01+
*       4.6982795323E+01               0
GRID*               9236               0-2.874999535E+021.7821566122E+01+
*       4.6982852987E+01               0
GRID*               9237               0-2.874999645E+022.8546848146E+01+
*       4.1353141701E+01               0
GRID*               9238               0-2.999999754E+023.7613394096E+01+
*       3.3320442204E+01               0
GRID*               9239               0-2.874999769E+023.7613331519E+01+
*       3.3320523757E+01               0
GRID*               9240               0-2.874999883E+024.4494288442E+01+
*       2.3351591787E+01               0
GRID*               9241               0-3.125000262E+024.4494683686E+01+
*       -2.335063761E+01               0
GRID*               9242               0-3.125000366E+023.7613922634E+01+
*       -3.331975339E+01               0
GRID*               9243               0-3.250000382E+023.7613989398E+01+
*       -3.331966638E+01               0
GRID*               9244               0-3.125000229E+022.8546199738E+01+
*       -4.135363923E+01               0
GRID*               9245               0-3.249999840E+021.7817652609E+01+
*       -4.698447406E+01               0
GRID*               9246               0-3.124999766E+021.7817187036E+01+
*       -4.698466692E+01               0
GRID*               9247               0-3.124999509E+026.0535555593E+00+
*       -4.988344701E+01               0
GRID*               9248               0-3.249999439E+02-6.060677264E+00+
*       -4.988250949E+01               0
GRID*               9249               0-3.124999446E+02-6.060628916E+00+
*       -4.988251586E+01               0
GRID*               9250               0-3.124999494E+02-1.782183349E+01+
*       -4.698274224E+01               0
GRID*               9251               0-3.249999586E+02-2.854717410E+01+
*       -4.135289159E+01               0
GRID*               9252               0-3.124999605E+02-2.854706919E+01+
*       -4.135297209E+01               0
GRID*               9253               0-3.124999740E+02-3.761345645E+01+
*       -3.332036094E+01               0
GRID*               9254               0-3.249999861E+02-4.449435271E+01+
*       -2.335143663E+01               0
GRID*               9255               0-3.124999869E+02-4.449433109E+01+
*       -2.335148882E+01               0
GRID*               9256               0-3.124999964E+02-4.878980372E+01+
*       -1.202538288E+01               0
GRID*               9257               0-3.250000000E+02-5.025000000E+01+
*       5.5692072600E-13               0
GRID*               9258               0-3.125000000E+02-5.025000000E+01+
*       6.0511744166E-13               0
GRID*               9259               0-3.125000090E+02-4.878985192E+01+
*       1.2025016713E+01               0
GRID*               9260               0-3.250000263E+02-4.449468279E+01+
*       2.3350639770E+01               0
GRID*               9261               0-3.125000263E+02-4.449468369E+01+
*       2.3350637609E+01               0
GRID*               9262               0-3.125000367E+02-3.761392263E+01+
*       3.3319753387E+01               0
GRID*               9263               0-3.250000289E+02-2.854652431E+01+
*       4.1353390182E+01               0
GRID*               9264               0-3.125000229E+02-2.854619974E+01+
*       4.1353639233E+01               0
GRID*               9265               0-3.124999766E+02-1.781718704E+01+
*       4.6984666915E+01               0
GRID*               9266               0-3.249999529E+02-6.053692800E+00+
*       4.9883428943E+01               0
GRID*               9267               0-3.124999509E+02-6.053555559E+00+
*       4.9883447009E+01               0
GRID*               9268               0-3.124999446E+026.0606289160E+00+
*       4.9882515856E+01               0
GRID*               9269               0-3.249999476E+021.7821948758E+01+
*       4.6982694490E+01               0
GRID*               9270               0-3.124999494E+021.7821833485E+01+
*       4.6982742238E+01               0
GRID*               9271               0-3.124999605E+022.8547069192E+01+
*       4.1352972089E+01               0
GRID*               9272               0-3.249999725E+023.7613518277E+01+
*       3.3320280365E+01               0
GRID*               9273               0-3.124999739E+023.7613456448E+01+
*       3.3320360943E+01               0
GRID*               9274               0-3.124999867E+024.4494331095E+01+
*       2.3351488816E+01               0
GRID*               9275               0-3.375000260E+024.4494679090E+01+
*       -2.335064870E+01               0
GRID*               9276               0-3.375000395E+023.7614040830E+01+
*       -3.331959935E+01               0
GRID*               9277               0-3.500000404E+023.7614078577E+01+
*       -3.331955016E+01               0
GRID*               9278               0-3.375000340E+022.8546800780E+01+
*       -4.135317805E+01               0
GRID*               9279               0-3.500000033E+021.7818874456E+01+
*       -4.698396794E+01               0
GRID*               9280               0-3.374999929E+021.7818215556E+01+
*       -4.698424088E+01               0
GRID*               9281               0-3.374999559E+026.0538907951E+00+
*       -4.988340288E+01               0
GRID*               9282               0-3.499999440E+02-6.060671372E+00+
*       -4.988251027E+01               0
GRID*               9283               0-3.374999437E+02-6.060692637E+00+
*       -4.988250747E+01               0
GRID*               9284               0-3.374999460E+02-1.782204923E+01+
*       -4.698265287E+01               0
GRID*               9285               0-3.499999551E+02-2.854736829E+01+
*       -4.135274259E+01               0
GRID*               9286               0-3.374999568E+02-2.854727411E+01+
*       -4.135281485E+01               0
GRID*               9287               0-3.374999711E+02-3.761357927E+01+
*       -3.332020087E+01               0
GRID*               9288               0-3.499999844E+02-4.449439618E+01+
*       -2.335133169E+01               0
GRID*               9289               0-3.374999852E+02-4.449437443E+01+
*       -2.335138420E+01               0
GRID*               9290               0-3.374999959E+02-4.878980814E+01+
*       -1.202534926E+01               0
GRID*               9291               0-3.500000000E+02-5.025000000E+01+
*       5.7298629788E-13               0
GRID*               9292               0-3.375000000E+02-5.025000000E+01+
*       5.6568376521E-13               0
GRID*               9293               0-3.375000086E+02-4.878984844E+01+
*       1.2025043163E+01               0
GRID*               9294               0-3.500000260E+02-4.449467290E+01+
*       2.3350663649E+01               0
GRID*               9295               0-3.375000262E+02-4.449467909E+01+
*       2.3350648705E+01               0
GRID*               9296               0-3.375000396E+02-3.761404083E+01+
*       3.3319599348E+01               0
GRID*               9297               0-3.500000383E+02-2.854703415E+01+
*       4.1352998978E+01               0
GRID*               9298               0-3.375000340E+02-2.854680078E+01+
*       4.1353178045E+01               0
GRID*               9299               0-3.374999929E+02-1.781821556E+01+
*       4.6984240876E+01               0
GRID*               9300               0-3.499999598E+02-6.054155365E+00+
*       4.9883368050E+01               0
GRID*               9301               0-3.374999559E+02-6.053890795E+00+
*       4.9883402878E+01               0
GRID*               9302               0-3.374999437E+026.0606926375E+00+
*       4.9882507468E+01               0
GRID*               9303               0-3.499999448E+021.7822132902E+01+
*       4.6982618212E+01               0
GRID*               9304               0-3.374999460E+021.7822049235E+01+
*       4.6982652870E+01               0
GRID*               9305               0-3.374999568E+022.8547274111E+01+
*       4.1352814852E+01               0
GRID*               9306               0-3.499999696E+023.7613639109E+01+
*       3.3320122891E+01               0
GRID*               9307               0-3.374999710E+023.7613579273E+01+
*       3.3320200872E+01               0
GRID*               9308               0-3.374999851E+024.4494374430E+01+
*       2.3351384198E+01               0
GRID*               9309               0-3.625000255E+024.4494664500E+01+
*       -2.335068393E+01               0
GRID*               9310               0-3.625000411E+023.7614104079E+01+
*       -3.331951692E+01               0
GRID*               9311               0-3.750000414E+023.7614118606E+01+
*       -3.331949799E+01               0
GRID*               9312               0-3.625000419E+022.8547228791E+01+
*       -4.135284963E+01               0
GRID*               9313               0-3.750000216E+021.7820028708E+01+
*       -4.698348982E+01               0
GRID*               9314               0-3.625000131E+021.7819492310E+01+
*       -4.698371201E+01               0
GRID*               9315               0-3.624999648E+026.0544926593E+00+
*       -4.988332365E+01               0
GRID*               9316               0-3.749999465E+02-6.060503200E+00+
*       -4.988253241E+01               0
GRID*               9317               0-3.624999449E+02-6.060609594E+00+
*       -4.988251840E+01               0
GRID*               9318               0-3.624999438E+02-1.782219763E+01+
*       -4.698259140E+01               0
GRID*               9319               0-3.749999521E+02-2.854753521E+01+
*       -4.135261451E+01               0
GRID*               9320               0-3.624999535E+02-2.854745567E+01+
*       -4.135267554E+01               0
GRID*               9321               0-3.624999683E+02-3.761369745E+01+
*       -3.332004686E+01               0
GRID*               9322               0-3.749999828E+02-4.449443948E+01+
*       -2.335122716E+01               0
GRID*               9323               0-3.624999836E+02-4.449441789E+01+
*       -2.335127928E+01               0
GRID*               9324               0-3.624999954E+02-4.878981269E+01+
*       -1.202531468E+01               0
GRID*               9325               0-3.750000000E+02-5.025000000E+01+
*       5.3209211490E-13               0
GRID*               9326               0-3.625000000E+02-5.025000000E+01+
*       5.2478958222E-13               0
GRID*               9327               0-3.625000082E+02-4.878984455E+01+
*       1.2025072692E+01               0
GRID*               9328               0-3.750000253E+02-4.449465414E+01+
*       2.3350708948E+01               0
GRID*               9329               0-3.625000257E+02-4.449466450E+01+
*       2.3350683929E+01               0
GRID*               9330               0-3.625000411E+02-3.761410408E+01+
*       3.3319516920E+01               0
GRID*               9331               0-3.750000449E+02-2.854738855E+01+
*       4.1352727043E+01               0
GRID*               9332               0-3.625000419E+02-2.854722879E+01+
*       4.1352849627E+01               0
GRID*               9333               0-3.625000131E+02-1.781949231E+01+
*       4.6983712013E+01               0
GRID*               9334               0-3.749999709E+02-6.054909196E+00+
*       4.9883268814E+01               0
GRID*               9335               0-3.624999648E+02-6.054492659E+00+
*       4.9883323647E+01               0
GRID*               9336               0-3.624999449E+026.0606095939E+00+
*       4.9882518400E+01               0
GRID*               9337               0-3.749999431E+021.7822241173E+01+
*       4.6982573364E+01               0
GRID*               9338               0-3.624999438E+021.7822197632E+01+
*       4.6982591400E+01               0
GRID*               9339               0-3.624999535E+022.8547455668E+01+
*       4.1352675541E+01               0
GRID*               9340               0-3.749999669E+023.7613753922E+01+
*       3.3319973261E+01               0
GRID*               9341               0-3.624999682E+023.7613697445E+01+
*       3.3320046864E+01               0
GRID*               9342               0-3.624999835E+024.4494417889E+01+
*       2.3351279281E+01               0
GRID*               9343               0-3.875000247E+024.4494642029E+01+
*       -2.335073818E+01               0
GRID*               9344               0-3.875000416E+023.7614123284E+01+
*       -3.331949189E+01               0
GRID*               9345               0-4.000000415E+023.7614119116E+01+
*       -3.331949732E+01               0
GRID*               9346               0-3.875000472E+022.8547516820E+01+
*       -4.135262862E+01               0
GRID*               9347               0-4.000000351E+021.7820886836E+01+
*       -4.698313436E+01               0
GRID*               9348               0-3.875000289E+021.7820491289E+01+
*       -4.698329821E+01               0
GRID*               9349               0-3.874999783E+026.0554119072E+00+
*       -4.988320264E+01               0
GRID*               9350               0-3.999999519E+02-6.060138805E+00+
*       -4.988258038E+01               0
GRID*               9351               0-3.874999488E+02-6.060347823E+00+
*       -4.988255286E+01               0
GRID*               9352               0-3.874999429E+02-1.782226113E+01+
*       -4.698256510E+01               0
GRID*               9353               0-3.999999497E+02-2.854766636E+01+
*       -4.135251387E+01               0
GRID*               9354               0-3.874999508E+02-2.854760583E+01+
*       -4.135256032E+01               0
GRID*               9355               0-3.874999657E+02-3.761380816E+01+
*       -3.331990257E+01               0
GRID*               9356               0-3.999999812E+02-4.449448197E+01+
*       -2.335112458E+01               0
GRID*               9357               0-3.874999820E+02-4.449446087E+01+
*       -2.335117553E+01               0
GRID*               9358               0-3.874999949E+02-4.878981734E+01+
*       -1.202527942E+01               0
GRID*               9359               0-4.000000000E+02-5.025000000E+01+
*       5.4815768679E-13               0
GRID*               9360               0-3.875000000E+02-5.025000000E+01+
*       5.6860477828E-13               0
GRID*               9361               0-3.875000077E+02-4.878984036E+01+
*       1.2025104531E+01               0
GRID*               9362               0-4.000000243E+02-4.449462838E+01+
*       2.3350771136E+01               0
GRID*               9363               0-3.875000248E+02-4.449464203E+01+
*       2.3350738176E+01               0
GRID*               9364               0-3.875000416E+02-3.761412328E+01+
*       3.3319491891E+01               0
GRID*               9365               0-4.000000491E+02-2.854761663E+01+
*       4.1352552036E+01               0
GRID*               9366               0-3.875000472E+02-2.854751682E+01+
*       4.1352628619E+01               0
GRID*               9367               0-3.875000289E+02-1.782049129E+01+
*       4.6983298210E+01               0
GRID*               9368               0-3.999999871E+02-6.056008192E+00+
*       4.9883124139E+01               0
GRID*               9369               0-3.874999783E+02-6.055411907E+00+
*       4.9883202635E+01               0
GRID*               9370               0-3.874999488E+026.0603478230E+00+
*       4.9882552860E+01               0
GRID*               9371               0-3.999999430E+021.7822254958E+01+
*       4.6982567654E+01               0
GRID*               9372               0-3.874999429E+021.7822261132E+01+
*       4.6982565096E+01               0
GRID*               9373               0-3.874999508E+022.8547605831E+01+
*       4.1352560319E+01               0
GRID*               9374               0-3.999999644E+023.7613859760E+01+
*       3.3319835328E+01               0
GRID*               9375               0-3.874999656E+023.7613808161E+01+
*       3.3319902574E+01               0
GRID*               9376               0-3.874999818E+024.4494460867E+01+
*       2.3351175527E+01               0
GRID*               9377               0-4.125000236E+024.4494613356E+01+
*       -2.335080740E+01               0
GRID*               9378               0-4.125000412E+023.7614107004E+01+
*       -3.331951311E+01               0
GRID*               9379               0-4.250000408E+023.7614087760E+01+
*       -3.331953819E+01               0
GRID*               9380               0-4.125000505E+022.8547690672E+01+
*       -4.135249522E+01               0
GRID*               9381               0-4.250000449E+021.7821500451E+01+
*       -4.698288019E+01               0
GRID*               9382               0-4.125000405E+021.7821221409E+01+
*       -4.698299578E+01               0
GRID*               9383               0-4.124999974E+026.0567059749E+00+
*       -4.988303228E+01               0
GRID*               9384               0-4.249999608E+02-6.059539509E+00+
*       -4.988265927E+01               0
GRID*               9385               0-4.124999559E+02-6.059871155E+00+
*       -4.988261561E+01               0
GRID*               9386               0-4.124999436E+02-1.782221992E+01+
*       -4.698258217E+01               0
GRID*               9387               0-4.249999482E+02-2.854775213E+01+
*       -4.135244806E+01               0
GRID*               9388               0-4.124999488E+02-2.854771557E+01+
*       -4.135247611E+01               0
GRID*               9389               0-4.124999633E+02-3.761390829E+01+
*       -3.331977208E+01               0
GRID*               9390               0-4.249999796E+02-4.449452295E+01+
*       -2.335102564E+01               0
GRID*               9391               0-4.124999804E+02-4.449450270E+01+
*       -2.335107454E+01               0
GRID*               9392               0-4.124999943E+02-4.878982203E+01+
*       -1.202524379E+01               0
GRID*               9393               0-4.250000000E+02-5.025000000E+01+
*       4.7805337310E-13               0
GRID*               9394               0-4.125000000E+02-5.025000000E+01+
*       5.2625008876E-13               0
GRID*               9395               0-4.125000072E+02-4.878983595E+01+
*       1.2025138052E+01               0
GRID*               9396               0-4.250000231E+02-4.449459713E+01+
*       2.3350846569E+01               0
GRID*               9397               0-4.125000237E+02-4.449461336E+01+
*       2.3350807397E+01               0
GRID*               9398               0-4.125000413E+02-3.761410700E+01+
*       3.3319513108E+01               0
GRID*               9399               0-4.250000515E+02-2.854774139E+01+
*       4.1352456303E+01               0
GRID*               9400               0-4.125000505E+02-2.854769067E+01+
*       4.1352495220E+01               0
GRID*               9401               0-4.125000405E+02-1.782122141E+01+
*       4.6982995776E+01               0
GRID*               9402               0-4.250000084E+02-6.057449466E+00+
*       4.9882934406E+01               0
GRID*               9403               0-4.124999974E+02-6.056705975E+00+
*       4.9883032281E+01               0
GRID*               9404               0-4.124999559E+026.0598711550E+00+
*       4.9882615610E+01               0
GRID*               9405               0-4.249999447E+021.7822153089E+01+
*       4.6982609850E+01               0
GRID*               9406               0-4.124999436E+021.7822219921E+01+
*       4.6982582167E+01               0
GRID*               9407               0-4.124999488E+022.8547715573E+01+
*       4.1352476113E+01               0
GRID*               9408               0-4.249999622E+023.7613953302E+01+
*       3.3319713419E+01               0
GRID*               9409               0-4.124999633E+023.7613908292E+01+
*       3.3319772078E+01               0
GRID*               9410               0-4.124999803E+024.4494502697E+01+
*       2.3351074544E+01               0
GRID*               9411               0-4.375000224E+024.4494579846E+01+
*       -2.335088830E+01               0
GRID*               9412               0-4.375000402E+023.7614062122E+01+
*       -3.331957160E+01               0
GRID*               9413               0-4.500000395E+023.7614030764E+01+
*       -3.331961247E+01               0
GRID*               9414               0-4.375000520E+022.8547770979E+01+
*       -4.135243360E+01               0
GRID*               9415               0-4.500000514E+021.7821911138E+01+
*       -4.698271007E+01               0
GRID*               9416               0-4.375000485E+021.7821728875E+01+
*       -4.698278557E+01               0
GRID*               9417               0-4.375000180E+026.0581001995E+00+
*       -4.988284874E+01               0
GRID*               9418               0-4.499999738E+02-6.058660582E+00+
*       -4.988277497E+01               0
GRID*               9419               0-4.374999667E+02-6.059138076E+00+
*       -4.988271211E+01               0
GRID*               9420               0-4.374999463E+02-1.782205130E+01+
*       -4.698265201E+01               0
GRID*               9421               0-4.499999477E+02-2.854778144E+01+
*       -4.135242557E+01               0
GRID*               9422               0-4.374999478E+02-2.854777460E+01+
*       -4.135243082E+01               0
GRID*               9423               0-4.374999613E+02-3.761399430E+01+
*       -3.331965999E+01               0
GRID*               9424               0-4.499999782E+02-4.449456164E+01+
*       -2.335093225E+01               0
GRID*               9425               0-4.374999789E+02-4.449454264E+01+
*       -2.335097812E+01               0
GRID*               9426               0-4.374999938E+02-4.878982672E+01+
*       -1.202520811E+01               0
GRID*               9427               0-4.500000000E+02-5.025000000E+01+
*       5.2186856915E-13               0
GRID*               9428               0-4.375000000E+02-5.025000000E+01+
*       4.8535590578E-13               0
GRID*               9429               0-4.375000067E+02-4.878983138E+01+
*       1.2025172728E+01               0
GRID*               9430               0-4.500000218E+02-4.449456164E+01+
*       2.3350932248E+01               0
GRID*               9431               0-4.375000225E+02-4.449457985E+01+
*       2.3350888295E+01               0
GRID*               9432               0-4.375000402E+02-3.761406212E+01+
*       3.3319571599E+01               0
GRID*               9433               0-4.500000523E+02-2.854778144E+01+
*       4.1352425573E+01               0
GRID*               9434               0-4.375000520E+02-2.854777098E+01+
*       4.1352433599E+01               0
GRID*               9435               0-4.375000485E+02-1.782172888E+01+
*       4.6982785571E+01               0
GRID*               9436               0-4.500000262E+02-6.058660582E+00+
*       4.9882774972E+01               0
GRID*               9437               0-4.375000180E+02-6.058100199E+00+
*       4.9882848742E+01               0
GRID*               9438               0-4.374999667E+026.0591380758E+00+
*       4.9882712114E+01               0
GRID*               9439               0-4.499999486E+021.7821911138E+01+
*       4.6982710073E+01               0
GRID*               9440               0-4.374999463E+021.7822051302E+01+
*       4.6982652013E+01               0
GRID*               9441               0-4.374999478E+022.8547774597E+01+
*       4.1352430823E+01               0
GRID*               9442               0-4.499999604E+023.7614030764E+01+
*       3.3319612467E+01               0
GRID*               9443               0-4.374999613E+023.7613994301E+01+
*       3.3319659987E+01               0
GRID*               9444               0-4.374999788E+024.4494542636E+01+
*       2.3350978124E+01               0
GRID*               9445               0-4.625000210E+024.4494542636E+01+
*       -2.335097812E+01               0
GRID*               9446               0-4.625000386E+023.7613994301E+01+
*       -3.331965999E+01               0
GRID*               9447               0-4.750000377E+023.7613953302E+01+
*       -3.331971342E+01               0
GRID*               9448               0-4.625000522E+022.8547774597E+01+
*       -4.135243082E+01               0
GRID*               9449               0-4.750000553E+021.7822153089E+01+
*       -4.698260985E+01               0
GRID*               9450               0-4.625000537E+021.7822051302E+01+
*       -4.698265201E+01               0
GRID*               9451               0-4.625000333E+026.0591380758E+00+
*       -4.988271211E+01               0
GRID*               9452               0-4.749999916E+02-6.057449466E+00+
*       -4.988293441E+01               0
GRID*               9453               0-4.624999820E+02-6.058100199E+00+
*       -4.988284874E+01               0
GRID*               9454               0-4.624999515E+02-1.782172888E+01+
*       -4.698278557E+01               0
GRID*               9455               0-4.749999485E+02-2.854774139E+01+
*       -4.135245630E+01               0
GRID*               9456               0-4.624999480E+02-2.854777098E+01+
*       -4.135243360E+01               0
GRID*               9457               0-4.624999598E+02-3.761406212E+01+
*       -3.331957160E+01               0
GRID*               9458               0-4.749999769E+02-4.449459713E+01+
*       -2.335084657E+01               0
GRID*               9459               0-4.624999775E+02-4.449457985E+01+
*       -2.335088830E+01               0
GRID*               9460               0-4.624999933E+02-4.878983138E+01+
*       -1.202517273E+01               0
GRID*               9461               0-4.750000000E+02-5.025000000E+01+
*       4.2401463130E-13               0
GRID*               9462               0-4.625000000E+02-5.025000000E+01+
*       5.0215173093E-13               0
GRID*               9463               0-4.625000062E+02-4.878982672E+01+
*       1.2025208108E+01               0
GRID*               9464               0-4.750000204E+02-4.449452295E+01+
*       2.3351025643E+01               0
GRID*               9465               0-4.625000211E+02-4.449454264E+01+
*       2.3350978124E+01               0
GRID*               9466               0-4.625000387E+02-3.761399430E+01+
*       3.3319659987E+01               0
GRID*               9467               0-4.750000518E+02-2.854775213E+01+
*       4.1352448065E+01               0
GRID*               9468               0-4.625000522E+02-2.854777460E+01+
*       4.1352430823E+01               0
GRID*               9469               0-4.625000537E+02-1.782205130E+01+
*       4.6982652013E+01               0
GRID*               9470               0-4.750000392E+02-6.059539509E+00+
*       4.9882659268E+01               0
GRID*               9471               0-4.625000333E+02-6.059138076E+00+
*       4.9882712114E+01               0
GRID*               9472               0-4.624999820E+026.0581001995E+00+
*       4.9882848742E+01               0
GRID*               9473               0-4.749999551E+021.7821500451E+01+
*       4.6982880190E+01               0
GRID*               9474               0-4.624999515E+021.7821728875E+01+
*       4.6982785571E+01               0
GRID*               9475               0-4.624999480E+022.8547770979E+01+
*       4.1352433599E+01               0
GRID*               9476               0-4.749999591E+023.7614087760E+01+
*       3.3319538187E+01               0
GRID*               9477               0-4.624999597E+023.7614062122E+01+
*       3.3319571599E+01               0
GRID*               9478               0-4.624999774E+024.4494579846E+01+
*       2.3350888295E+01               0
GRID*               9479               0-4.875000195E+024.4494502697E+01+
*       -2.335107454E+01               0
GRID*               9480               0-4.875000366E+023.7613908292E+01+
*       -3.331977208E+01               0
GRID*               9481               0-5.000000355E+023.7613859760E+01+
*       -3.331983533E+01               0
GRID*               9482               0-4.875000512E+022.8547715573E+01+
*       -4.135247611E+01               0
GRID*               9483               0-5.000000570E+021.7822254958E+01+
*       -4.698256765E+01               0
GRID*               9484               0-4.875000564E+021.7822219921E+01+
*       -4.698258217E+01               0
GRID*               9485               0-4.875000441E+026.0598711550E+00+
*       -4.988261561E+01               0
GRID*               9486               0-5.000000129E+02-6.056008192E+00+
*       -4.988312414E+01               0
GRID*               9487               0-4.875000026E+02-6.056705975E+00+
*       -4.988303228E+01               0
GRID*               9488               0-4.874999595E+02-1.782122141E+01+
*       -4.698299578E+01               0
GRID*               9489               0-4.999999509E+02-2.854761663E+01+
*       -4.135255204E+01               0
GRID*               9490               0-4.874999495E+02-2.854769067E+01+
*       -4.135249522E+01               0
GRID*               9491               0-4.874999587E+02-3.761410700E+01+
*       -3.331951311E+01               0
GRID*               9492               0-4.999999757E+02-4.449462838E+01+
*       -2.335077114E+01               0
GRID*               9493               0-4.874999763E+02-4.449461336E+01+
*       -2.335080740E+01               0
GRID*               9494               0-4.874999928E+02-4.878983595E+01+
*       -1.202513805E+01               0
GRID*               9495               0-5.000000000E+02-5.025000000E+01+
*       4.4008020319E-13               0
GRID*               9496               0-4.875000000E+02-5.025000000E+01+
*       4.6125754795E-13               0
GRID*               9497               0-4.875000057E+02-4.878982203E+01+
*       1.2025243792E+01               0
GRID*               9498               0-5.000000188E+02-4.449448197E+01+
*       2.3351124582E+01               0
GRID*               9499               0-4.875000196E+02-4.449450270E+01+
*       2.3351074544E+01               0
GRID*               9500               0-4.875000367E+02-3.761390829E+01+
*       3.3319772078E+01               0
GRID*               9501               0-5.000000503E+02-2.854766636E+01+
*       4.1352513871E+01               0
GRID*               9502               0-4.875000512E+02-2.854771557E+01+
*       4.1352476113E+01               0
GRID*               9503               0-4.875000564E+02-1.782221992E+01+
*       4.6982582167E+01               0
GRID*               9504               0-5.000000481E+02-6.060138805E+00+
*       4.9882580375E+01               0
GRID*               9505               0-4.875000441E+02-6.059871155E+00+
*       4.9882615610E+01               0
GRID*               9506               0-4.875000026E+026.0567059749E+00+
*       4.9883032281E+01               0
GRID*               9507               0-4.999999649E+021.7820886836E+01+
*       4.6983134365E+01               0
GRID*               9508               0-4.874999595E+021.7821221409E+01+
*       4.6982995776E+01               0
GRID*               9509               0-4.874999495E+022.8547690672E+01+
*       4.1352495220E+01               0
GRID*               9510               0-4.999999584E+023.7614119116E+01+
*       3.3319497322E+01               0
GRID*               9511               0-4.874999587E+023.7614107004E+01+
*       3.3319513108E+01               0
GRID*               9512               0-4.874999761E+024.4494613356E+01+
*       2.3350807397E+01               0
GRID*               9513               0-5.125000179E+024.4494460867E+01+
*       -2.335117553E+01               0
GRID*               9514               0-5.125000343E+023.7613808161E+01+
*       -3.331990257E+01               0
GRID*               9515               0-5.250000330E+023.7613753922E+01+
*       -3.331997326E+01               0
GRID*               9516               0-5.125000492E+022.8547605831E+01+
*       -4.135256032E+01               0
GRID*               9517               0-5.250000569E+021.7822241173E+01+
*       -4.698257336E+01               0
GRID*               9518               0-5.125000571E+021.7822261132E+01+
*       -4.698256510E+01               0
GRID*               9519               0-5.125000512E+026.0603478230E+00+
*       -4.988255286E+01               0
GRID*               9520               0-5.250000291E+02-6.054909196E+00+
*       -4.988326881E+01               0
GRID*               9521               0-5.125000217E+02-6.055411907E+00+
*       -4.988320264E+01               0
GRID*               9522               0-5.124999711E+02-1.782049129E+01+
*       -4.698329821E+01               0
GRID*               9523               0-5.249999551E+02-2.854738855E+01+
*       -4.135272704E+01               0
GRID*               9524               0-5.124999528E+02-2.854751682E+01+
*       -4.135262862E+01               0
GRID*               9525               0-5.124999584E+02-3.761412328E+01+
*       -3.331949189E+01               0
GRID*               9526               0-5.249999747E+02-4.449465414E+01+
*       -2.335070895E+01               0
GRID*               9527               0-5.124999752E+02-4.449464203E+01+
*       -2.335073818E+01               0
GRID*               9528               0-5.124999923E+02-4.878984036E+01+
*       -1.202510453E+01               0
GRID*               9529               0-5.250000000E+02-5.025000000E+01+
*       3.9918602020E-13               0
GRID*               9530               0-5.125000000E+02-5.025000000E+01+
*       4.1963311170E-13               0
GRID*               9531               0-5.125000051E+02-4.878981734E+01+
*       1.2025279425E+01               0
GRID*               9532               0-5.250000172E+02-4.449443948E+01+
*       2.3351227162E+01               0
GRID*               9533               0-5.125000180E+02-4.449446087E+01+
*       2.3351175527E+01               0
GRID*               9534               0-5.125000343E+02-3.761380816E+01+
*       3.3319902574E+01               0
GRID*               9535               0-5.250000479E+02-2.854753521E+01+
*       4.1352614506E+01               0
GRID*               9536               0-5.125000492E+02-2.854760583E+01+
*       4.1352560319E+01               0
GRID*               9537               0-5.125000571E+02-1.782226113E+01+
*       4.6982565096E+01               0
GRID*               9538               0-5.250000535E+02-6.060503200E+00+
*       4.9882532406E+01               0
GRID*               9539               0-5.125000512E+02-6.060347823E+00+
*       4.9882552860E+01               0
GRID*               9540               0-5.125000217E+026.0554119072E+00+
*       4.9883202635E+01               0
GRID*               9541               0-5.249999784E+021.7820028708E+01+
*       4.6983489823E+01               0
GRID*               9542               0-5.124999711E+021.7820491289E+01+
*       4.6983298210E+01               0
GRID*               9543               0-5.124999528E+022.8547516820E+01+
*       4.1352628619E+01               0
GRID*               9544               0-5.249999585E+023.7614118606E+01+
*       3.3319497987E+01               0
GRID*               9545               0-5.124999583E+023.7614123284E+01+
*       3.3319491891E+01               0
GRID*               9546               0-5.124999751E+024.4494642029E+01+
*       2.3350738176E+01               0
GRID*               9547               0-5.375000163E+024.4494417889E+01+
*       -2.335127928E+01               0
GRID*               9548               0-5.375000316E+023.7613697445E+01+
*       -3.332004686E+01               0
GRID*               9549               0-5.500000303E+023.7613639109E+01+
*       -3.332012289E+01               0
GRID*               9550               0-5.375000465E+022.8547455668E+01+
*       -4.135267554E+01               0
GRID*               9551               0-5.500000552E+021.7822132902E+01+
*       -4.698261821E+01               0
GRID*               9552               0-5.375000562E+021.7822197632E+01+
*       -4.698259140E+01               0
GRID*               9553               0-5.375000551E+026.0606095939E+00+
*       -4.988251840E+01               0
GRID*               9554               0-5.500000402E+02-6.054155365E+00+
*       -4.988336805E+01               0
GRID*               9555               0-5.375000352E+02-6.054492659E+00+
*       -4.988332365E+01               0
GRID*               9556               0-5.374999869E+02-1.781949231E+01+
*       -4.698371201E+01               0
GRID*               9557               0-5.499999617E+02-2.854703415E+01+
*       -4.135299898E+01               0
GRID*               9558               0-5.374999581E+02-2.854722879E+01+
*       -4.135284963E+01               0
GRID*               9559               0-5.374999589E+02-3.761410408E+01+
*       -3.331951692E+01               0
GRID*               9560               0-5.499999740E+02-4.449467290E+01+
*       -2.335066365E+01               0
GRID*               9561               0-5.374999743E+02-4.449466450E+01+
*       -2.335068393E+01               0
GRID*               9562               0-5.374999918E+02-4.878984455E+01+
*       -1.202507269E+01               0
GRID*               9563               0-5.500000000E+02-5.025000000E+01+
*       4.1525159209E-13               0
GRID*               9564               0-5.375000000E+02-5.025000000E+01+
*       4.3569868358E-13               0
GRID*               9565               0-5.375000046E+02-4.878981269E+01+
*       1.2025314681E+01               0
GRID*               9566               0-5.500000156E+02-4.449439618E+01+
*       2.3351331689E+01               0
GRID*               9567               0-5.375000164E+02-4.449441789E+01+
*       2.3351279281E+01               0
GRID*               9568               0-5.375000317E+02-3.761369745E+01+
*       3.3320046864E+01               0
GRID*               9569               0-5.500000449E+02-2.854736829E+01+
*       4.1352742587E+01               0
GRID*               9570               0-5.375000465E+02-2.854745567E+01+
*       4.1352675541E+01               0
GRID*               9571               0-5.375000562E+02-1.782219763E+01+
*       4.6982591400E+01               0
GRID*               9572               0-5.500000560E+02-6.060671372E+00+
*       4.9882510267E+01               0
GRID*               9573               0-5.375000551E+02-6.060609594E+00+
*       4.9882518400E+01               0
GRID*               9574               0-5.375000352E+026.0544926593E+00+
*       4.9883323647E+01               0
GRID*               9575               0-5.499999967E+021.7818874456E+01+
*       4.6983967943E+01               0
GRID*               9576               0-5.374999869E+021.7819492310E+01+
*       4.6983712013E+01               0
GRID*               9577               0-5.374999581E+022.8547228791E+01+
*       4.1352849627E+01               0
GRID*               9578               0-5.499999595E+023.7614078577E+01+
*       3.3319550155E+01               0
GRID*               9579               0-5.374999588E+023.7614104079E+01+
*       3.3319516920E+01               0
GRID*               9580               0-5.374999743E+024.4494664500E+01+
*       2.3350683929E+01               0
GRID*               9581               0-5.625000147E+024.4494374430E+01+
*       -2.335138420E+01               0
GRID*               9582               0-5.625000289E+023.7613579273E+01+
*       -3.332020087E+01               0
GRID*               9583               0-5.750000274E+023.7613518277E+01+
*       -3.332028036E+01               0
GRID*               9584               0-5.625000432E+022.8547274111E+01+
*       -4.135281485E+01               0
GRID*               9585               0-5.750000524E+021.7821948758E+01+
*       -4.698269449E+01               0
GRID*               9586               0-5.625000540E+021.7822049235E+01+
*       -4.698265287E+01               0
GRID*               9587               0-5.625000563E+026.0606926375E+00+
*       -4.988250747E+01               0
GRID*               9588               0-5.750000471E+02-6.053692800E+00+
*       -4.988342894E+01               0
GRID*               9589               0-5.625000441E+02-6.053890795E+00+
*       -4.988340288E+01               0
GRID*               9590               0-5.625000071E+02-1.781821556E+01+
*       -4.698424088E+01               0
GRID*               9591               0-5.749999711E+02-2.854652431E+01+
*       -4.135339018E+01               0
GRID*               9592               0-5.624999660E+02-2.854680078E+01+
*       -4.135317805E+01               0
GRID*               9593               0-5.624999604E+02-3.761404083E+01+
*       -3.331959935E+01               0
GRID*               9594               0-5.749999737E+02-4.449468279E+01+
*       -2.335063977E+01               0
GRID*               9595               0-5.624999738E+02-4.449467909E+01+
*       -2.335064870E+01               0
GRID*               9596               0-5.624999914E+02-4.878984844E+01+
*       -1.202504316E+01               0
GRID*               9597               0-5.750000000E+02-5.025000000E+01+
*       3.4587753167E-13               0
GRID*               9598               0-5.625000000E+02-5.025000000E+01+
*       3.9334399406E-13               0
GRID*               9599               0-5.625000041E+02-4.878980814E+01+
*       1.2025349260E+01               0
GRID*               9600               0-5.750000139E+02-4.449435271E+01+
*       2.3351436631E+01               0
GRID*               9601               0-5.625000148E+02-4.449437443E+01+
*       2.3351384198E+01               0
GRID*               9602               0-5.625000289E+02-3.761357927E+01+
*       3.3320200872E+01               0
GRID*               9603               0-5.750000414E+02-2.854717410E+01+
*       4.1352891590E+01               0
GRID*               9604               0-5.625000432E+02-2.854727411E+01+
*       4.1352814852E+01               0
GRID*               9605               0-5.625000540E+02-1.782204923E+01+
*       4.6982652870E+01               0
GRID*               9606               0-5.750000561E+02-6.060677264E+00+
*       4.9882509491E+01               0
GRID*               9607               0-5.625000563E+02-6.060692637E+00+
*       4.9882507468E+01               0
GRID*               9608               0-5.625000441E+026.0538907951E+00+
*       4.9883402878E+01               0
GRID*               9609               0-5.750000160E+021.7817652609E+01+
*       4.6984474063E+01               0
GRID*               9610               0-5.625000071E+021.7818215556E+01+
*       4.6984240876E+01               0
GRID*               9611               0-5.624999660E+022.8546800780E+01+
*       4.1353178045E+01               0
GRID*               9612               0-5.749999616E+023.7613989398E+01+
*       3.3319666377E+01               0
GRID*               9613               0-5.624999604E+023.7614040830E+01+
*       3.3319599348E+01               0
GRID*               9614               0-5.624999737E+024.4494679090E+01+
*       2.3350648705E+01               0
GRID*               9615               0-5.875000130E+024.4494331095E+01+
*       -2.335148882E+01               0
GRID*               9616               0-5.875000260E+023.7613456448E+01+
*       -3.332036094E+01               0
GRID*               9617               0-6.000000245E+023.7613394096E+01+
*       -3.332044220E+01               0
GRID*               9618               0-5.875000395E+022.8547069192E+01+
*       -4.135297209E+01               0
GRID*               9619               0-6.000000486E+021.7821705332E+01+
*       -4.698279532E+01               0
GRID*               9620               0-5.875000506E+021.7821833485E+01+
*       -4.698274224E+01               0
GRID*               9621               0-5.875000554E+026.0606289160E+00+
*       -4.988251586E+01               0
GRID*               9622               0-6.000000503E+02-6.053473550E+00+
*       -4.988345781E+01               0
GRID*               9623               0-5.875000491E+02-6.053555559E+00+
*       -4.988344701E+01               0
GRID*               9624               0-5.875000234E+02-1.781718704E+01+
*       -4.698466692E+01               0
GRID*               9625               0-5.999999841E+02-2.854582128E+01+
*       -4.135392963E+01               0
GRID*               9626               0-5.874999771E+02-2.854619974E+01+
*       -4.135363923E+01               0
GRID*               9627               0-5.874999633E+02-3.761392263E+01+
*       -3.331975339E+01               0
GRID*               9628               0-5.999999738E+02-4.449468141E+01+
*       -2.335064310E+01               0
GRID*               9629               0-5.874999737E+02-4.449468369E+01+
*       -2.335063761E+01               0
GRID*               9630               0-5.874999910E+02-4.878985192E+01+
*       -1.202501671E+01               0
GRID*               9631               0-6.000000000E+02-5.025000000E+01+
*       3.3200271959E-13               0
GRID*               9632               0-5.875000000E+02-5.025000000E+01+
*       3.5244981108E-13               0
GRID*               9633               0-5.875000036E+02-4.878980372E+01+
*       1.2025382883E+01               0
GRID*               9634               0-6.000000123E+02-4.449430965E+01+
*       2.3351540588E+01               0
GRID*               9635               0-5.875000131E+02-4.449433109E+01+
*       2.3351488816E+01               0
GRID*               9636               0-5.875000260E+02-3.761345645E+01+
*       3.3320360943E+01               0
GRID*               9637               0-6.000000376E+02-2.854696026E+01+
*       4.1353055675E+01               0
GRID*               9638               0-5.875000395E+02-2.854706919E+01+
*       4.1352972089E+01               0
GRID*               9639               0-5.875000506E+02-1.782183349E+01+
*       4.6982742238E+01               0
GRID*               9640               0-6.000000543E+02-6.060551072E+00+
*       4.9882526104E+01               0
GRID*               9641               0-5.875000554E+02-6.060628916E+00+
*       4.9882515856E+01               0
GRID*               9642               0-5.875000491E+026.0535555593E+00+
*       4.9883447009E+01               0
GRID*               9643               0-6.000000294E+021.7816810998E+01+
*       4.6984822680E+01               0
GRID*               9644               0-5.875000234E+021.7817187036E+01+
*       4.6984666915E+01               0
GRID*               9645               0-5.874999771E+022.8546199738E+01+
*       4.1353639233E+01               0
GRID*               9646               0-5.999999653E+023.7613838642E+01+
*       3.3319862850E+01               0
GRID*               9647               0-5.874999633E+023.7613922634E+01+
*       3.3319753387E+01               0
GRID*               9648               0-5.874999736E+024.4494683686E+01+
*       2.3350637609E+01               0
GRID*               9649               0-6.125000114E+024.4494288442E+01+
*       -2.335159179E+01               0
GRID*               9650               0-6.125000230E+023.7613331519E+01+
*       -3.332052376E+01               0
GRID*               9651               0-6.250000215E+023.7613269004E+01+
*       -3.332060523E+01               0
GRID*               9652               0-6.125000355E+022.8546848146E+01+
*       -4.135314170E+01               0
GRID*               9653               0-6.250000442E+021.7821417599E+01+
*       -4.698291451E+01               0
GRID*               9654               0-6.125000465E+021.7821566122E+01+
*       -4.698285299E+01               0
GRID*               9655               0-6.125000528E+026.0604470431E+00+
*       -4.988253980E+01               0
GRID*               9656               0-6.250000507E+02-6.053454432E+00+
*       -4.988346032E+01               0
GRID*               9657               0-6.125000508E+02-6.053441515E+00+
*       -4.988346202E+01               0
GRID*               9658               0-6.125000341E+02-1.781651702E+01+
*       -4.698494445E+01               0
GRID*               9659               0-6.250000015E+02-2.854487682E+01+
*       -4.135465433E+01               0
GRID*               9660               0-6.124999922E+02-2.854538222E+01+
*       -4.135426652E+01               0
GRID*               9661               0-6.124999678E+02-3.761373522E+01+
*       -3.331999763E+01               0
GRID*               9662               0-6.249999744E+02-4.449466560E+01+
*       -2.335068126E+01               0
GRID*               9663               0-6.124999740E+02-4.449467555E+01+
*       -2.335065726E+01               0
GRID*               9664               0-6.124999907E+02-4.878985487E+01+
*       -1.202499431E+01               0
GRID*               9665               0-6.250000000E+02-5.025000000E+01+
*       2.9110853660E-13               0
GRID*               9666               0-6.125000000E+02-5.025000000E+01+
*       3.1228588136E-13               0
GRID*               9667               0-6.125000032E+02-4.878979945E+01+
*       1.2025415284E+01               0
GRID*               9668               0-6.250000107E+02-4.449426753E+01+
*       2.3351642261E+01               0
GRID*               9669               0-6.125000115E+02-4.449428844E+01+
*       2.3351591787E+01               0
GRID*               9670               0-6.125000230E+02-3.761333152E+01+
*       3.3320523757E+01               0
GRID*               9671               0-6.250000334E+02-2.854673366E+01+
*       4.1353229548E+01               0
GRID*               9672               0-6.125000355E+02-2.854684815E+01+
*       4.1353141701E+01               0
GRID*               9673               0-6.125000465E+02-1.782156612E+01+
*       4.6982852987E+01               0
GRID*               9674               0-6.250000510E+02-6.060319991E+00+
*       4.9882556524E+01               0
GRID*               9675               0-6.125000528E+02-6.060447043E+00+
*       4.9882539798E+01               0
GRID*               9676               0-6.125000508E+026.0534415145E+00+
*       4.9883462023E+01               0
GRID*               9677               0-6.250000376E+021.7816297964E+01+
*       4.6985035191E+01               0
GRID*               9678               0-6.125000341E+021.7816517020E+01+
*       4.6984944453E+01               0
GRID*               9679               0-6.124999922E+022.8545382220E+01+
*       4.1354266525E+01               0
GRID*               9680               0-6.249999708E+023.7613609806E+01+
*       3.3320161080E+01               0
GRID*               9681               0-6.124999678E+023.7613735223E+01+
*       3.3319997631E+01               0
GRID*               9682               0-6.124999739E+024.4494675547E+01+
*       2.3350657258E+01               0
GRID*               9683               0-6.375000099E+024.4494246989E+01+
*       -2.335169186E+01               0
GRID*               9684               0-6.375000201E+023.7613206827E+01+
*       -3.332068626E+01               0
GRID*               9685               0-6.500000186E+023.7613145254E+01+
*       -3.332076651E+01               0
GRID*               9686               0-6.375000313E+022.8546617573E+01+
*       -4.135331862E+01               0
GRID*               9687               0-6.500000392E+021.7821099228E+01+
*       -4.698304639E+01               0
GRID*               9688               0-6.375000417E+021.7821261433E+01+
*       -4.698297920E+01               0
GRID*               9689               0-6.375000488E+026.0601729404E+00+
*       -4.988257588E+01               0
GRID*               9690               0-6.500000486E+02-6.053596104E+00+
*       -4.988344167E+01               0
GRID*               9691               0-6.375000499E+02-6.053507498E+00+
*       -4.988345334E+01               0
GRID*               9692               0-6.375000400E+02-1.781614699E+01+
*       -4.698509773E+01               0
GRID*               9693               0-6.500000170E+02-2.854403408E+01+
*       -4.135530097E+01               0
GRID*               9694               0-6.375000101E+02-2.854440895E+01+
*       -4.135501333E+01               0
GRID*               9695               0-6.374999745E+02-3.761345936E+01+
*       -3.332035715E+01               0
GRID*               9696               0-6.499999757E+02-4.449463107E+01+
*       -2.335076463E+01               0
GRID*               9697               0-6.374999749E+02-4.449465101E+01+
*       -2.335071650E+01               0
GRID*               9698               0-6.374999904E+02-4.878985712E+01+
*       -1.202497724E+01               0
GRID*               9699               0-6.500000000E+02-5.025000000E+01+
*       3.0717410849E-13               0
GRID*               9700               0-6.375000000E+02-5.025000000E+01+
*       3.2689094671E-13               0
GRID*               9701               0-6.375000027E+02-4.878979538E+01+
*       1.2025446210E+01               0
GRID*               9702               0-6.500000092E+02-4.449422687E+01+
*       2.3351740436E+01               0
GRID*               9703               0-6.375000100E+02-4.449424699E+01+
*       2.3351691859E+01               0
GRID*               9704               0-6.375000201E+02-3.761320683E+01+
*       3.3320686263E+01               0
GRID*               9705               0-6.500000292E+02-2.854650063E+01+
*       4.1353408353E+01               0
GRID*               9706               0-6.375000313E+02-2.854661757E+01+
*       4.1353318622E+01               0
GRID*               9707               0-6.375000417E+02-1.782126143E+01+
*       4.6982979197E+01               0
GRID*               9708               0-6.500000464E+02-6.060008794E+00+
*       4.9882597490E+01               0
GRID*               9709               0-6.375000488E+02-6.060172940E+00+
*       4.9882575882E+01               0
GRID*               9710               0-6.375000499E+026.0535074983E+00+
*       4.9883453336E+01               0
GRID*               9711               0-6.500000415E+021.7816057522E+01+
*       4.6985134789E+01               0
GRID*               9712               0-6.375000400E+021.7816146988E+01+
*       4.6985097730E+01               0
GRID*               9713               0-6.375000101E+022.8544408946E+01+
*       4.1355013330E+01               0
GRID*               9714               0-6.499999787E+023.7613280280E+01+
*       3.3320590534E+01               0
GRID*               9715               0-6.374999744E+023.7613459361E+01+
*       3.3320357148E+01               0
GRID*               9716               0-6.374999749E+024.4494651006E+01+
*       2.3350716504E+01               0
GRID*               9717               0-6.625000084E+024.4494207227E+01+
*       -2.335178785E+01               0
GRID*               9718               0-6.625000172E+023.7613084544E+01+
*       -3.332084563E+01               0
GRID*               9719               0-6.750000157E+023.7613024948E+01+
*       -3.332092330E+01               0
GRID*               9720               0-6.625000271E+022.8546383553E+01+
*       -4.135349819E+01               0
GRID*               9721               0-6.750000339E+021.7820762821E+01+
*       -4.698318573E+01               0
GRID*               9722               0-6.625000366E+021.7820932527E+01+
*       -4.698311544E+01               0
GRID*               9723               0-6.625000438E+026.0598303450E+00+
*       -4.988262098E+01               0
GRID*               9724               0-6.750000447E+02-6.053862362E+00+
*       -4.988340662E+01               0
GRID*               9725               0-6.625000469E+02-6.053715817E+00+
*       -4.988342591E+01               0
GRID*               9726               0-6.625000421E+02-1.781602324E+01+
*       -4.698514899E+01               0
GRID*               9727               0-6.750000264E+02-2.854353090E+01+
*       -4.135568707E+01               0
GRID*               9728               0-6.625000224E+02-2.854374403E+01+
*       -4.135552353E+01               0
GRID*               9729               0-6.624999839E+02-3.761306823E+01+
*       -3.332086689E+01               0
GRID*               9730               0-6.749999780E+02-4.449457175E+01+
*       -2.335090783E+01               0
GRID*               9731               0-6.624999767E+02-4.449460499E+01+
*       -2.335082760E+01               0
GRID*               9732               0-6.624999903E+02-4.878985844E+01+
*       -1.202496721E+01               0
GRID*               9733               0-6.750000000E+02-5.025000000E+01+
*       2.6554967224E-13               0
GRID*               9734               0-6.625000000E+02-5.025000000E+01+
*       2.8745727027E-13               0
GRID*               9735               0-6.625000023E+02-4.878979153E+01+
*       1.2025475419E+01               0
GRID*               9736               0-6.750000077E+02-4.449418812E+01+
*       2.3351833967E+01               0
GRID*               9737               0-6.625000085E+02-4.449420723E+01+
*       2.3351787851E+01               0
GRID*               9738               0-6.625000172E+02-3.761308454E+01+
*       3.3320845627E+01               0
GRID*               9739               0-6.750000249E+02-2.854626703E+01+
*       4.1353587597E+01               0
GRID*               9740               0-6.625000271E+02-2.854638355E+01+
*       4.1353498189E+01               0
GRID*               9741               0-6.625000366E+02-1.782093253E+01+
*       4.6983115438E+01               0
GRID*               9742               0-6.750000410E+02-6.059640283E+00+
*       4.9882646002E+01               0
GRID*               9743               0-6.625000438E+02-6.059830345E+00+
*       4.9882620982E+01               0
GRID*               9744               0-6.625000469E+026.0537158168E+00+
*       4.9883425913E+01               0
GRID*               9745               0-6.750000419E+021.7816038045E+01+
*       4.6985142856E+01               0
GRID*               9746               0-6.625000421E+021.7816023241E+01+
*       4.6985148988E+01               0
GRID*               9747               0-6.625000224E+022.8543744032E+01+
*       4.1355523527E+01               0
GRID*               9748               0-6.749999898E+023.7612817953E+01+
*       3.3321193062E+01               0
GRID*               9749               0-6.624999838E+023.7613068232E+01+
*       3.3320866886E+01               0
GRID*               9750               0-6.624999766E+024.4494604985E+01+
*       2.3350827604E+01               0
GRID*               9751               0-6.875000070E+024.4494169616E+01+
*       -2.335187865E+01               0
GRID*               9752               0-6.875000144E+023.7612966708E+01+
*       -3.332099920E+01               0
GRID*               9753               0-7.000000130E+023.7612910062E+01+
*       -3.332107302E+01               0
GRID*               9754               0-6.875000228E+022.8546151742E+01+
*       -4.135367606E+01               0
GRID*               9755               0-7.000000285E+021.7820420110E+01+
*       -4.698332769E+01               0
GRID*               9756               0-6.875000312E+021.7820591550E+01+
*       -4.698325668E+01               0
GRID*               9757               0-6.875000381E+026.0594412073E+00+
*       -4.988267221E+01               0
GRID*               9758               0-7.000000395E+02-6.054219575E+00+
*       -4.988335960E+01               0
GRID*               9759               0-6.875000423E+02-6.054031614E+00+
*       -4.988338434E+01               0
GRID*               9760               0-6.875000410E+02-1.781609603E+01+
*       -4.698511884E+01               0
GRID*               9761               0-7.000000306E+02-2.854330492E+01+
*       -4.135586046E+01               0
GRID*               9762               0-6.875000291E+02-2.854338700E+01+
*       -4.135579748E+01               0
GRID*               9763               0-6.874999970E+02-3.761252298E+01+
*       -3.332157749E+01               0
GRID*               9764               0-6.999999815E+02-4.449447871E+01+
*       -2.335113246E+01               0
GRID*               9765               0-6.874999796E+02-4.449453016E+01+
*       -2.335100823E+01               0
GRID*               9766               0-6.874999903E+02-4.878985850E+01+
*       -1.202496669E+01               0
GRID*               9767               0-7.000000000E+02-5.025000000E+01+
*       2.5240511342E-13               0
GRID*               9768               0-6.875000000E+02-5.025000000E+01+
*       3.0279258888E-13               0
GRID*               9769               0-6.875000019E+02-4.878978795E+01+
*       1.2025502677E+01               0
GRID*               9770               0-7.000000064E+02-4.449415176E+01+
*       2.3351921764E+01               0
GRID*               9771               0-6.875000070E+02-4.449416962E+01+
*       2.3351878649E+01               0
GRID*               9772               0-6.875000144E+02-3.761296671E+01+
*       3.3320999197E+01               0
GRID*               9773               0-7.000000207E+02-2.854603834E+01+
*       4.1353763078E+01               0
GRID*               9774               0-6.875000228E+02-2.854615174E+01+
*       4.1353676060E+01               0
GRID*               9775               0-6.875000312E+02-1.782059155E+01+
*       4.6983256679E+01               0
GRID*               9776               0-7.000000351E+02-6.059235634E+00+
*       4.9882699271E+01               0
GRID*               9777               0-6.875000381E+02-6.059441207E+00+
*       4.9882672209E+01               0
GRID*               9778               0-6.875000423E+026.0540316135E+00+
*       4.9883384340E+01               0
GRID*               9779               0-7.000000396E+021.7816191489E+01+
*       4.6985079296E+01               0
GRID*               9780               0-6.875000410E+021.7816096033E+01+
*       4.6985118836E+01               0
GRID*               9781               0-6.875000291E+022.8543387005E+01+
*       4.1355797479E+01               0
GRID*               9782               0-7.000000046E+023.7612202038E+01+
*       3.3321995753E+01               0
GRID*               9783               0-6.874999969E+023.7612522980E+01+
*       3.3321577485E+01               0
GRID*               9784               0-6.874999795E+024.4494530164E+01+
*       2.3351008234E+01               0
GRID*               9785               0-7.125000056E+024.4494134599E+01+
*       -2.335196318E+01               0
GRID*               9786               0-7.125000117E+023.7612855241E+01+
*       -3.332114447E+01               0
GRID*               9787               0-7.250000104E+023.7612802471E+01+
*       -3.332121324E+01               0
GRID*               9788               0-7.125000187E+022.8545927449E+01+
*       -4.135384816E+01               0
GRID*               9789               0-7.250000232E+021.7820082100E+01+
*       -4.698346771E+01               0
GRID*               9790               0-7.125000259E+021.7820249854E+01+
*       -4.698339822E+01               0
GRID*               9791               0-7.125000320E+026.0590260040E+00+
*       -4.988272687E+01               0
GRID*               9792               0-7.250000334E+02-6.054636242E+00+
*       -4.988330475E+01               0
GRID*               9793               0-7.125000365E+02-6.054422372E+00+
*       -4.988333290E+01               0
GRID*               9794               0-7.125000376E+02-1.781631887E+01+
*       -4.698502653E+01               0
GRID*               9795               0-7.250000309E+02-2.854329742E+01+
*       -4.135586622E+01               0
GRID*               9796               0-7.125000312E+02-2.854327741E+01+
*       -4.135588157E+01               0
GRID*               9797               0-7.125000107E+02-3.761195032E+01+
*       -3.332232381E+01               0
GRID*               9798               0-7.249999869E+02-4.449433806E+01+
*       -2.335147200E+01               0
GRID*               9799               0-7.124999840E+02-4.449441548E+01+
*       -2.335128509E+01               0
GRID*               9800               0-7.124999905E+02-4.878985684E+01+
*       -1.202497934E+01               0
GRID*               9801               0-7.250000000E+02-5.025000000E+01+
*       2.4035593451E-13               0
GRID*               9802               0-7.125000000E+02-5.025000000E+01+
*       2.5970764610E-13               0
GRID*               9803               0-7.125000015E+02-4.878978464E+01+
*       1.2025527757E+01               0
GRID*               9804               0-7.250000051E+02-4.449411820E+01+
*       2.3352002783E+01               0
GRID*               9805               0-7.125000057E+02-4.449413460E+01+
*       2.3351963184E+01               0
GRID*               9806               0-7.125000117E+02-3.761285524E+01+
*       3.3321144466E+01               0
GRID*               9807               0-7.250000167E+02-2.854581970E+01+
*       4.1353930841E+01               0
GRID*               9808               0-7.125000187E+02-2.854592745E+01+
*       4.1353848163E+01               0
GRID*               9809               0-7.125000259E+02-1.782024985E+01+
*       4.6983398219E+01               0
GRID*               9810               0-7.250000289E+02-6.058814686E+00+
*       4.9882754686E+01               0
GRID*               9811               0-7.125000320E+02-6.059026004E+00+
*       4.9882726867E+01               0
GRID*               9812               0-7.125000365E+026.0544223723E+00+
*       4.9883332900E+01               0
GRID*               9813               0-7.250000352E+021.7816472774E+01+
*       4.6984962781E+01               0
GRID*               9814               0-7.125000376E+021.7816318868E+01+
*       4.6985026533E+01               0
GRID*               9815               0-7.125000312E+022.8543277407E+01+
*       4.1355881574E+01               0
GRID*               9816               0-7.250000151E+023.7611769871E+01+
*       3.3322558974E+01               0
GRID*               9817               0-7.125000107E+023.7611950316E+01+
*       3.3322323810E+01               0
GRID*               9818               0-7.124999839E+024.4494415483E+01+
*       2.3351285091E+01               0
GRID*               9819               0-7.375000044E+024.4494102600E+01+
*       -2.335204044E+01               0
GRID*               9820               0-7.375000092E+023.7612751973E+01+
*       -3.332127905E+01               0
GRID*               9821               0-7.500000081E+023.7612703963E+01+
*       -3.332134162E+01               0
GRID*               9822               0-7.375000148E+022.8545715691E+01+
*       -4.135401065E+01               0
GRID*               9823               0-7.500000181E+021.7819759193E+01+
*       -4.698360146E+01               0
GRID*               9824               0-7.375000206E+021.7819918129E+01+
*       -4.698353563E+01               0
GRID*               9825               0-7.375000258E+026.0586039881E+00+
*       -4.988278242E+01               0
GRID*               9826               0-7.500000268E+02-6.055082638E+00+
*       -4.988324598E+01               0
GRID*               9827               0-7.375000302E+02-6.054857520E+00+
*       -4.988327562E+01               0
GRID*               9828               0-7.375000325E+02-1.781664795E+01+
*       -4.698489022E+01               0
GRID*               9829               0-7.500000281E+02-2.854345269E+01+
*       -4.135574708E+01               0
GRID*               9830               0-7.375000298E+02-2.854335809E+01+
*       -4.135581967E+01               0
GRID*               9831               0-7.375000179E+02-3.761165252E+01+
*       -3.332271191E+01               0
GRID*               9832               0-7.499999950E+02-4.449412690E+01+
*       -2.335198176E+01               0
GRID*               9833               0-7.374999905E+02-4.449424327E+01+
*       -2.335170084E+01               0
GRID*               9834               0-7.374999910E+02-4.878985267E+01+
*       -1.202501098E+01               0
GRID*               9835               0-7.500000000E+02-5.025000000E+01+
*       2.5569125313E-13               0
GRID*               9836               0-7.375000000E+02-5.025000000E+01+
*       2.7613834462E-13               0
GRID*               9837               0-7.375000012E+02-4.878978166E+01+
*       1.2025550437E+01               0
GRID*               9838               0-7.500000039E+02-4.449408786E+01+
*       2.3352076018E+01               0
GRID*               9839               0-7.375000045E+02-4.449410260E+01+
*       2.3352040435E+01               0
GRID*               9840               0-7.375000092E+02-3.761275197E+01+
*       3.3321279050E+01               0
GRID*               9841               0-7.500000130E+02-2.854561601E+01+
*       4.1354087132E+01               0
GRID*               9842               0-7.375000148E+02-2.854571569E+01+
*       4.1354010648E+01               0
GRID*               9843               0-7.375000206E+02-1.781991813E+01+
*       4.6983535627E+01               0
GRID*               9844               0-7.500000227E+02-6.058396158E+00+
*       4.9882809782E+01               0
GRID*               9845               0-7.375000258E+02-6.058603988E+00+
*       4.9882782422E+01               0
GRID*               9846               0-7.375000302E+026.0548575202E+00+
*       4.9883275616E+01               0
GRID*               9847               0-7.500000295E+021.7816839286E+01+
*       4.6984810962E+01               0
GRID*               9848               0-7.375000325E+021.7816647954E+01+
*       4.6984890216E+01               0
GRID*               9849               0-7.375000298E+022.8543358089E+01+
*       4.1355819667E+01               0
GRID*               9850               0-7.500000194E+023.7611590241E+01+
*       3.3322793077E+01               0
GRID*               9851               0-7.375000179E+023.7611652519E+01+
*       3.3322711913E+01               0
GRID*               9852               0-7.374999905E+024.4494243271E+01+
*       2.3351700837E+01               0
GRID*               9853               0-7.625000033E+024.4494074028E+01+
*       -2.335210941E+01               0
GRID*               9854               0-7.625000070E+023.7612658654E+01+
*       -3.332140067E+01               0
GRID*               9855               0-7.750000059E+023.7612616254E+01+
*       -3.332145593E+01               0
GRID*               9856               0-7.625000112E+022.8545521242E+01+
*       -4.135415985E+01               0
GRID*               9857               0-7.750000134E+021.7819461289E+01+
*       -4.698372486E+01               0
GRID*               9858               0-7.625000157E+021.7819606515E+01+
*       -4.698366471E+01               0
GRID*               9859               0-7.625000197E+026.0581933894E+00+
*       -4.988283647E+01               0
GRID*               9860               0-7.750000203E+02-6.055530527E+00+
*       -4.988318702E+01               0
GRID*               9861               0-7.625000235E+02-6.055308109E+00+
*       -4.988321630E+01               0
GRID*               9862               0-7.625000263E+02-1.781704176E+01+
*       -4.698472709E+01               0
GRID*               9863               0-7.750000233E+02-2.854371756E+01+
*       -4.135554384E+01               0
GRID*               9864               0-7.625000259E+02-2.854357466E+01+
*       -4.135565349E+01               0
GRID*               9865               0-7.625000199E+02-3.761157517E+01+
*       -3.332281272E+01               0
GRID*               9866               0-7.750000053E+02-4.449385791E+01+
*       -2.335263115E+01               0
GRID*               9867               0-7.625000005E+02-4.449398350E+01+
*       -2.335232796E+01               0
GRID*               9868               0-7.624999918E+02-4.878984471E+01+
*       -1.202507148E+01               0
GRID*               9869               0-7.750000000E+02-5.025000000E+01+
*       1.5893269517E-13               0
GRID*               9870               0-7.625000000E+02-5.025000000E+01+
*       2.3524416164E-13               0
GRID*               9871               0-7.625000009E+02-4.878977902E+01+
*       1.2025570499E+01               0
GRID*               9872               0-7.750000029E+02-4.449406115E+01+
*       2.3352140497E+01               0
GRID*               9873               0-7.625000034E+02-4.449407403E+01+
*       2.3352109412E+01               0
GRID*               9874               0-7.625000070E+02-3.761265865E+01+
*       3.3321400668E+01               0
GRID*               9875               0-7.750000095E+02-2.854543194E+01+
*       4.1354228371E+01               0
GRID*               9876               0-7.625000112E+02-2.854552124E+01+
*       4.1354159851E+01               0
GRID*               9877               0-7.625000157E+02-1.781960651E+01+
*       4.6983664706E+01               0
GRID*               9878               0-7.750000169E+02-6.057997829E+00+
*       4.9882862219E+01               0
GRID*               9879               0-7.625000197E+02-6.058193389E+00+
*       4.9882836475E+01               0
GRID*               9880               0-7.625000235E+026.0553081089E+00+
*       4.9883216300E+01               0
GRID*               9881               0-7.750000230E+021.7817250487E+01+
*       4.6984640632E+01               0
GRID*               9882               0-7.625000263E+021.7817041763E+01+
*       4.6984727091E+01               0
GRID*               9883               0-7.625000259E+022.8543574661E+01+
*       4.1355653487E+01               0
GRID*               9884               0-7.750000193E+023.7611599582E+01+
*       3.3322780903E+01               0
GRID*               9885               0-7.625000199E+023.7611575171E+01+
*       3.3322812717E+01               0
GRID*               9886               0-7.625000004E+024.4493983502E+01+
*       2.3352327956E+01               0
GRID*               9887               0-7.875000024E+024.4494049280E+01+
*       -2.335216916E+01               0
GRID*               9888               0-7.875000050E+023.7612576969E+01+
*       -3.332150712E+01               0
GRID*               9889               0-8.000000041E+023.7612541000E+01+
*       -3.332155400E+01               0
GRID*               9890               0-7.875000080E+022.8545348673E+01+
*       -4.135429227E+01               0
GRID*               9891               0-8.000000091E+021.7819197857E+01+
*       -4.698383398E+01               0
GRID*               9892               0-7.875000112E+021.7819324686E+01+
*       -4.698378145E+01               0
GRID*               9893               0-7.875000141E+026.0578115769E+00+
*       -4.988288674E+01               0
GRID*               9894               0-8.000000140E+02-6.055952930E+00+
*       -4.988313141E+01               0
GRID*               9895               0-7.875000171E+02-6.055746557E+00+
*       -4.988315858E+01               0
GRID*               9896               0-7.875000197E+02-1.781746066E+01+
*       -4.698455357E+01               0
GRID*               9897               0-8.000000174E+02-2.854404098E+01+
*       -4.135529568E+01               0
GRID*               9898               0-7.875000204E+02-2.854387506E+01+
*       -4.135542299E+01               0
GRID*               9899               0-7.875000180E+02-3.761165588E+01+
*       -3.332270754E+01               0
GRID*               9900               0-8.000000096E+02-4.449374517E+01+
*       -2.335290333E+01               0
GRID*               9901               0-7.875000082E+02-4.449378113E+01+
*       -2.335281651E+01               0
GRID*               9902               0-7.874999934E+02-4.878983050E+01+
*       -1.202517939E+01               0
GRID*               9903               0-8.000000000E+02-5.025000000E+01+
*       1.1730825892E-13               0
GRID*               9904               0-7.875000000E+02-5.025000000E+01+
*       1.6605266453E-13               0
GRID*               9905               0-7.875000006E+02-4.878977675E+01+
*       1.2025587732E+01               0
GRID*               9906               0-8.000000020E+02-4.449403846E+01+
*       2.3352195274E+01               0
GRID*               9907               0-7.875000024E+02-4.449404928E+01+
*       2.3352169157E+01               0
GRID*               9908               0-7.875000050E+02-3.761257697E+01+
*       3.3321507124E+01               0
GRID*               9909               0-8.000000065E+02-2.854527197E+01+
*       4.1354351118E+01               0
GRID*               9910               0-7.875000080E+02-2.854534867E+01+
*       4.1354292266E+01               0
GRID*               9911               0-7.875000112E+02-1.781932469E+01+
*       4.6983781446E+01               0
GRID*               9912               0-8.000000115E+02-6.057636691E+00+
*       4.9882909760E+01               0
GRID*               9913               0-7.875000141E+02-6.057811577E+00+
*       4.9882886737E+01               0
GRID*               9914               0-7.875000171E+026.0557465571E+00+
*       4.9883158581E+01               0
GRID*               9915               0-8.000000164E+021.7817667583E+01+
*       4.6984467860E+01               0
GRID*               9916               0-7.875000197E+021.7817460662E+01+
*       4.6984553572E+01               0
GRID*               9917               0-7.875000204E+022.8543875063E+01+
*       4.1355422985E+01               0
GRID*               9918               0-8.000000161E+023.7611736577E+01+
*       3.3322602364E+01               0
GRID*               9919               0-7.875000180E+023.7611655877E+01+
*       3.3322707537E+01               0
GRID*               9920               0-7.875000082E+024.4493781129E+01+
*       2.3352816514E+01               0
GRID*               9921               0-8.125000016E+024.4494028744E+01+
*       -2.335221874E+01               0
GRID*               9922               0-8.125000033E+023.7612508547E+01+
*       -3.332159630E+01               0
GRID*               9923               0-8.250000025E+023.7612479805E+01+
*       -3.332163375E+01               0
GRID*               9924               0-8.125000052E+022.8545202382E+01+
*       -4.135440452E+01               0
GRID*               9925               0-8.250000056E+021.7818978005E+01+
*       -4.698392505E+01               0
GRID*               9926               0-8.125000073E+021.7819081927E+01+
*       -4.698388200E+01               0
GRID*               9927               0-8.125000091E+026.0574751913E+00+
*       -4.988293102E+01               0
GRID*               9928               0-8.250000085E+02-6.056323935E+00+
*       -4.988308257E+01               0
GRID*               9929               0-8.125000112E+02-6.056146440E+00+
*       -4.988310594E+01               0
GRID*               9930               0-8.125000132E+02-1.781786663E+01+
*       -4.698438541E+01               0
GRID*               9931               0-8.250000112E+02-2.854437372E+01+
*       -4.135504036E+01               0
GRID*               9932               0-8.125000143E+02-2.854420920E+01+
*       -4.135516660E+01               0
GRID*               9933               0-8.125000138E+02-3.761183431E+01+
*       -3.332247499E+01               0
GRID*               9934               0-8.250000089E+02-4.449376419E+01+
*       -2.335285740E+01               0
GRID*               9935               0-8.125000098E+02-4.449374213E+01+
*       -2.335291067E+01               0
GRID*               9936               0-8.124999963E+02-4.878980486E+01+
*       -1.202537419E+01               0
GRID*               9937               0-8.250000000E+02-5.025000000E+01+
*       1.3355639413E-13               0
GRID*               9938               0-8.125000000E+02-5.025000000E+01+
*       1.5436861225E-13               0
GRID*               9939               0-8.125000004E+02-4.878977488E+01+
*       1.2025601925E+01               0
GRID*               9940               0-8.250000012E+02-4.449402017E+01+
*       2.3352239427E+01               0
GRID*               9941               0-8.125000016E+02-4.449402874E+01+
*       2.3352218736E+01               0
GRID*               9942               0-8.125000033E+02-3.761250855E+01+
*       3.3321596295E+01               0
GRID*               9943               0-8.250000040E+02-2.854514042E+01+
*       4.1354452058E+01               0
GRID*               9944               0-8.125000052E+02-2.854520238E+01+
*       4.1354404517E+01               0
GRID*               9945               0-8.125000073E+02-1.781908193E+01+
*       4.6983882004E+01               0
GRID*               9946               0-8.250000069E+02-6.057329062E+00+
*       4.9882950257E+01               0
GRID*               9947               0-8.125000091E+02-6.057475191E+00+
*       4.9882931020E+01               0
GRID*               9948               0-8.125000112E+026.0561464400E+00+
*       4.9883105940E+01               0
GRID*               9949               0-8.250000103E+021.7818053265E+01+
*       4.6984308101E+01               0
GRID*               9950               0-8.125000132E+021.7817866631E+01+
*       4.6984385410E+01               0
GRID*               9951               0-8.125000143E+022.8544209198E+01+
*       4.1355166600E+01               0
GRID*               9952               0-8.250000112E+023.7611941818E+01+
*       3.3322334885E+01               0
GRID*               9953               0-8.125000138E+023.7611834313E+01+
*       3.3322474990E+01               0
GRID*               9954               0-8.125000097E+024.4493742127E+01+
*       2.3352910670E+01               0
GRID*               9955               0-8.375000009E+024.4494012796E+01+
*       -2.335225724E+01               0
GRID*               9956               0-8.375000019E+023.7612454968E+01+
*       -3.332166612E+01               0
GRID*               9957               0-8.500000013E+023.7612434228E+01+
*       -3.332169315E+01               0
GRID*               9958               0-8.375000029E+022.8545086620E+01+
*       -4.135449334E+01               0
GRID*               9959               0-8.500000028E+021.7818810536E+01+
*       -4.698399442E+01               0
GRID*               9960               0-8.375000041E+021.7818887184E+01+
*       -4.698396267E+01               0
GRID*               9961               0-8.375000050E+026.0572002538E+00+
*       -4.988296721E+01               0
GRID*               9962               0-8.500000041E+02-6.056618536E+00+
*       -4.988304379E+01               0
GRID*               9963               0-8.375000062E+02-6.056482317E+00+
*       -4.988306172E+01               0
GRID*               9964               0-8.375000075E+02-1.781822302E+01+
*       -4.698423779E+01               0
GRID*               9965               0-8.500000057E+02-2.854466812E+01+
*       -4.135481446E+01               0
GRID*               9966               0-8.375000084E+02-2.854452864E+01+
*       -4.135492149E+01               0
GRID*               9967               0-8.375000086E+02-3.761205192E+01+
*       -3.332219140E+01               0
GRID*               9968               0-8.500000056E+02-4.449385277E+01+
*       -2.335264356E+01               0
GRID*               9969               0-8.375000075E+02-4.449380363E+01+
*       -2.335276220E+01               0
GRID*               9970               0-8.375000014E+02-4.878975907E+01+
*       -1.202572206E+01               0
GRID*               9971               0-8.500000000E+02-5.025000000E+01+
*       9.1475549583E-14               0
GRID*               9972               0-8.375000000E+02-5.025000000E+01+
*       1.1219648605E-13               0
GRID*               9973               0-8.375000003E+02-4.878977344E+01+
*       1.2025612872E+01               0
GRID*               9974               0-8.500000007E+02-4.449400666E+01+
*       2.3352272052E+01               0
GRID*               9975               0-8.375000009E+02-4.449401280E+01+
*       2.3352257236E+01               0
GRID*               9976               0-8.375000019E+02-3.761245497E+01+
*       3.3321666121E+01               0
GRID*               9977               0-8.500000020E+02-2.854504148E+01+
*       4.1354527978E+01               0
GRID*               9978               0-8.375000029E+02-2.854508662E+01+
*       4.1354493342E+01               0
GRID*               9979               0-8.375000041E+02-1.781888718E+01+
*       4.6983962671E+01               0
GRID*               9980               0-8.500000033E+02-6.057090688E+00+
*       4.9882981637E+01               0
GRID*               9981               0-8.375000050E+02-6.057200254E+00+
*       4.9882967213E+01               0
GRID*               9982               0-8.375000062E+026.0564823167E+00+
*       4.9883061724E+01               0
GRID*               9983               0-8.500000051E+021.7818371489E+01+
*       4.6984176285E+01               0
GRID*               9984               0-8.375000075E+021.7818223018E+01+
*       4.6984237785E+01               0
GRID*               9985               0-8.375000084E+022.8544528643E+01+
*       4.1354921485E+01               0
GRID*               9986               0-8.500000060E+023.7612157523E+01+
*       3.3322053767E+01               0
GRID*               9987               0-8.375000086E+023.7612051917E+01+
*       3.3322191398E+01               0
GRID*               9988               0-8.375000074E+024.4493804842E+01+
*       2.3352759267E+01               0
GRID*               9989               0-8.625000004E+024.4494001807E+01+
*       -2.335228377E+01               0
GRID*               9990               0-8.625000009E+023.7612417774E+01+
*       -3.332171459E+01               0
GRID*               9991               0-8.750000005E+023.7612405793E+01+
*       -3.332173021E+01               0
GRID*               9992               0-8.625000013E+022.8545005512E+01+
*       -4.135455558E+01               0
GRID*               9993               0-8.750000009E+021.7818703982E+01+
*       -4.698403856E+01               0
GRID*               9994               0-8.625000017E+021.7818749120E+01+
*       -4.698401986E+01               0
GRID*               9995               0-8.625000020E+026.0570022556E+00+
*       -4.988299328E+01               0
GRID*               9996               0-8.750000012E+02-6.056812509E+00+
*       -4.988301826E+01               0
GRID*               9997               0-8.625000024E+02-6.056729588E+00+
*       -4.988302917E+01               0
GRID*               9998               0-8.625000031E+02-1.781849434E+01+
*       -4.698412540E+01               0
GRID*               9999               0-8.750000017E+02-2.854487781E+01+
*       -4.135465356E+01               0
GRID*              10000               0-8.625000035E+02-2.854478641E+01+
*       -4.135472370E+01               0
GRID*              10001               0-8.625000038E+02-3.761224933E+01+
*       -3.332193412E+01               0
GRID*              10002               0-8.750000018E+02-4.417072311E+01+
*       -2.318275178E+01               0
GRID*              10003               0-8.625000037E+02-4.417066752E+01+
*       -2.318286243E+01               0
GRID*              10004               0-8.625000025E+02-4.878975018E+01+
*       -1.202578956E+01               0
GRID*              10005               0-8.750000000E+02-5.025000000E+01+
*       4.9440345869E-14               0
GRID*              10006               0-8.625000000E+02-5.025000000E+01+
*       7.0206923165E-14               0
GRID*              10007               0-8.625000001E+02-4.878977245E+01+
*       1.2025620368E+01               0
GRID*              10008               0-8.750000003E+02-4.449399829E+01+
*       2.3352292265E+01               0
GRID*              10009               0-8.625000004E+02-4.449400181E+01+
*       2.3352283765E+01               0
GRID*              10010               0-8.625000009E+02-3.761241777E+01+
*       3.3321714595E+01               0
GRID*              10011               0-8.750000007E+02-2.854497921E+01+
*       4.1354575757E+01               0
GRID*              10012               0-8.625000013E+02-2.854500551E+01+
*       4.1354555577E+01               0
GRID*              10013               0-8.625000017E+02-1.781874912E+01+
*       4.6984019861E+01               0
GRID*              10014               0-8.750000009E+02-6.056936823E+00+
*       4.9883001892E+01               0
GRID*              10015               0-8.625000020E+02-6.057002256E+00+
*       4.9882993278E+01               0
GRID*              10016               0-8.625000024E+026.0567295878E+00+
*       4.9883029173E+01               0
GRID*              10017               0-8.750000015E+021.7818587294E+01+
*       4.6984086893E+01               0
GRID*              10018               0-8.625000031E+021.7818494341E+01+
*       4.6984125397E+01               0
GRID*              10019               0-8.625000035E+022.8544786407E+01+
*       4.1354723700E+01               0
GRID*              10020               0-8.750000019E+023.7612327308E+01+
*       3.3321832495E+01               0
GRID*              10021               0-8.625000037E+023.7612251631E+01+
*       3.3321931121E+01               0
GRID*              10022               0-8.625000036E+024.4493904027E+01+
*       2.3352519821E+01               0
GRID*              10023               0-2.500000994E+014.8789758457E+01+
*       -1.202572669E+01               0
GRID*              10024               0-1.250001130E+014.8789767585E+01+
*       -1.202565735E+01               0
GRID*              10025               0-1.249999921E+014.4493982796E+01+
*       -2.335232966E+01               0
GRID*              10026               0-5.000000851E+014.8789748476E+01+
*       -1.202580251E+01               0
GRID*              10027               0-3.750000903E+014.8789750184E+01+
*       -1.202578953E+01               0
GRID*              10028               0-7.500001220E+014.8789784239E+01+
*       -1.202553084E+01               0
GRID*              10029               0-6.250000971E+014.8789759067E+01+
*       -1.202572206E+01               0
GRID*              10030               0-1.000000158E+024.8789819639E+01+
*       -1.202526193E+01               0
GRID*              10031               0-8.750001451E+014.8789804861E+01+
*       -1.202537419E+01               0
GRID*              10032               0-1.250000176E+024.8789838615E+01+
*       -1.202511778E+01               0
GRID*              10033               0-1.125000171E+024.8789830504E+01+
*       -1.202517939E+01               0
GRID*              10034               0-1.500000185E+024.8789849282E+01+
*       -1.202503675E+01               0
GRID*              10035               0-1.375000183E+024.8789844710E+01+
*       -1.202507148E+01               0
GRID*              10036               0-1.750000188E+024.8789855134E+01+
*       -1.202499230E+01               0
GRID*              10037               0-1.625000189E+024.8789852675E+01+
*       -1.202501098E+01               0
GRID*              10038               0-2.000000188E+024.8789857928E+01+
*       -1.202497107E+01               0
GRID*              10039               0-1.875000190E+024.8789856839E+01+
*       -1.202497934E+01               0
GRID*              10040               0-2.250000186E+024.8789858652E+01+
*       -1.202496557E+01               0
GRID*              10041               0-2.125000189E+024.8789858505E+01+
*       -1.202496669E+01               0
GRID*              10042               0-2.500000182E+024.8789857910E+01+
*       -1.202497121E+01               0
GRID*              10043               0-2.375000186E+024.8789858436E+01+
*       -1.202496721E+01               0
GRID*              10044               0-2.750000176E+024.8789856093E+01+
*       -1.202498501E+01               0
GRID*              10045               0-2.625000181E+024.8789857117E+01+
*       -1.202497724E+01               0
GRID*              10046               0-3.000000170E+024.8789853470E+01+
*       -1.202500494E+01               0
GRID*              10047               0-2.875000175E+024.8789854869E+01+
*       -1.202499431E+01               0
GRID*              10048               0-3.250000163E+024.8789850237E+01+
*       -1.202502950E+01               0
GRID*              10049               0-3.125000168E+024.8789851920E+01+
*       -1.202501671E+01               0
GRID*              10050               0-3.500000156E+024.8789846538E+01+
*       -1.202505759E+01               0
GRID*              10051               0-3.375000161E+024.8789848438E+01+
*       -1.202504316E+01               0
GRID*              10052               0-3.750000148E+024.8789842487E+01+
*       -1.202508836E+01               0
GRID*              10053               0-3.625000154E+024.8789844551E+01+
*       -1.202507269E+01               0
GRID*              10054               0-4.000000140E+024.8789838176E+01+
*       -1.202512112E+01               0
GRID*              10055               0-3.875000146E+024.8789840359E+01+
*       -1.202510453E+01               0
GRID*              10056               0-4.250000132E+024.8789833679E+01+
*       -1.202515528E+01               0
GRID*              10057               0-4.125000138E+024.8789835946E+01+
*       -1.202513805E+01               0
GRID*              10058               0-4.500000123E+024.8789829061E+01+
*       -1.202519036E+01               0
GRID*              10059               0-4.375000129E+024.8789831382E+01+
*       -1.202517273E+01               0
GRID*              10060               0-4.750000115E+024.8789824377E+01+
*       -1.202522593E+01               0
GRID*              10061               0-4.625000121E+024.8789826724E+01+
*       -1.202520811E+01               0
GRID*              10062               0-5.000000106E+024.8789819678E+01+
*       -1.202526164E+01               0
GRID*              10063               0-4.875000112E+024.8789822027E+01+
*       -1.202524379E+01               0
GRID*              10064               0-5.250000098E+024.8789815006E+01+
*       -1.202529712E+01               0
GRID*              10065               0-5.125000104E+024.8789817336E+01+
*       -1.202527942E+01               0
GRID*              10066               0-5.500000090E+024.8789810405E+01+
*       -1.202533207E+01               0
GRID*              10067               0-5.375000095E+024.8789812695E+01+
*       -1.202531468E+01               0
GRID*              10068               0-5.750000081E+024.8789805911E+01+
*       -1.202536621E+01               0
GRID*              10069               0-5.625000087E+024.8789808142E+01+
*       -1.202534926E+01               0
GRID*              10070               0-6.000000073E+024.8789801561E+01+
*       -1.202539925E+01               0
GRID*              10071               0-5.875000079E+024.8789803716E+01+
*       -1.202538288E+01               0
GRID*              10072               0-6.250000065E+024.8789797389E+01+
*       -1.202543095E+01               0
GRID*              10073               0-6.125000071E+024.8789799451E+01+
*       -1.202541528E+01               0
GRID*              10074               0-6.500000058E+024.8789793427E+01+
*       -1.202546104E+01               0
GRID*              10075               0-6.375000063E+024.8789795380E+01+
*       -1.202544621E+01               0
GRID*              10076               0-6.750000050E+024.8789789706E+01+
*       -1.202548931E+01               0
GRID*              10077               0-6.625000056E+024.8789791535E+01+
*       -1.202547542E+01               0
GRID*              10078               0-7.000000043E+024.8789786258E+01+
*       -1.202551550E+01               0
GRID*              10079               0-6.875000048E+024.8789787946E+01+
*       -1.202550268E+01               0
GRID*              10080               0-7.250000036E+024.8789783111E+01+
*       -1.202553941E+01               0
GRID*              10081               0-7.125000041E+024.8789784645E+01+
*       -1.202552776E+01               0
GRID*              10082               0-7.500000030E+024.8789780294E+01+
*       -1.202556081E+01               0
GRID*              10083               0-7.375000035E+024.8789781659E+01+
*       -1.202555044E+01               0
GRID*              10084               0-7.750000024E+024.8789777835E+01+
*       -1.202557948E+01               0
GRID*              10085               0-7.625000029E+024.8789779018E+01+
*       -1.202557050E+01               0
GRID*              10086               0-8.000000018E+024.8789775764E+01+
*       -1.202559522E+01               0
GRID*              10087               0-7.875000023E+024.8789776749E+01+
*       -1.202558773E+01               0
GRID*              10088               0-8.250000013E+024.8789774105E+01+
*       -1.202560782E+01               0
GRID*              10089               0-8.125000017E+024.8789774881E+01+
*       -1.202560193E+01               0
GRID*              10090               0-8.500000008E+024.8789772888E+01+
*       -1.202561706E+01               0
GRID*              10091               0-8.375000012E+024.8789773440E+01+
*       -1.202561287E+01               0
GRID*              10092               0-8.750000004E+024.8789772138E+01+
*       -1.202562276E+01               0
GRID*              10093               0-8.625000008E+024.8789772453E+01+
*       -1.202562037E+01               0
GRID*              10094               0-8.875000004E+024.8789771947E+01+
*       -1.202562421E+01               0
GRID*              10095               0-8.875000001E+024.4493996141E+01+
*       -2.335229744E+01               0
GRID*              10096               0-8.875000002E+023.7612398470E+01+
*       -3.332173975E+01               0
GRID*              10097               0-8.875000002E+022.8544963076E+01+
*       -4.135458814E+01               0
GRID*              10098               0-8.875000003E+021.7818676153E+01+
*       -4.698405009E+01               0
GRID*              10099               0-8.875000003E+026.0568962327E+00+
*       -4.988300724E+01               0
GRID*              10100               0-8.875000003E+02-6.056864377E+00+
*       -4.988301143E+01               0
GRID*              10101               0-8.875000005E+02-1.781864612E+01+
*       -4.698406252E+01               0
GRID*              10102               0-8.875000005E+02-2.854493673E+01+
*       -4.135460836E+01               0
GRID*              10103               0-8.875000006E+02-3.761237769E+01+
*       -3.332176683E+01               0
GRID*              10104               0-8.875000006E+02-4.449398280E+01+
*       -2.335232966E+01               0
GRID*              10105               0-8.875000006E+02-4.878976775E+01+
*       -1.202566185E+01               0
GRID*              10106               0-8.875000004E+02-4.951988396E+01+
*       -3.020428759E-05               0
GRID*              10107               0-8.875000000E+02-4.878977195E+01+
*       1.2025624213E+01               0
GRID*              10108               0-8.875000001E+02-4.449399614E+01+
*       2.3352297444E+01               0
GRID*              10109               0-8.875000002E+02-3.761239847E+01+
*       3.3321739753E+01               0
GRID*              10110               0-8.875000002E+02-2.854496308E+01+
*       4.1354588139E+01               0
GRID*              10111               0-8.875000003E+02-1.781867615E+01+
*       4.6984050086E+01               0
GRID*              10112               0-8.875000003E+02-6.056896233E+00+
*       4.9883007235E+01               0
GRID*              10113               0-8.875000003E+026.0568643768E+00+
*       4.9883011429E+01               0
GRID*              10114               0-8.875000005E+021.7818646122E+01+
*       4.6984062525E+01               0
GRID*              10115               0-8.875000005E+022.8544936727E+01+
*       4.1354608357E+01               0
GRID*              10116               0-8.875000006E+023.7612377693E+01+
*       3.3321766831E+01               0
GRID*              10117               0-8.875000006E+024.4493982796E+01+
*       2.3352329659E+01               0
GRID*              10118               0-8.875000008E+024.8789767580E+01+
*       1.2025657384E+01               0
GRID*              10119               0-8.750000019E+024.8789758451E+01+
*       1.2025726730E+01               0
GRID*              10120               0-8.625000031E+024.8789750180E+01+
*       1.2025789564E+01               0
GRID*              10121               0-8.500000033E+024.8789748474E+01+
*       1.2025802525E+01               0
GRID*              10122               0-8.375000028E+024.8435300896E+01+
*       1.1938371988E+01               0
GRID*              10123               0-8.250000011E+024.8435308703E+01+
*       1.1938255307E+01               0
GRID*              10124               0-8.124999976E+024.8789804861E+01+
*       1.2025374190E+01               0
GRID*              10125               0-7.999999960E+024.8789819639E+01+
*       1.2025261926E+01               0
GRID*              10126               0-7.874999951E+024.8789830504E+01+
*       1.2025179391E+01               0
GRID*              10127               0-7.749999942E+024.8789838615E+01+
*       1.2025117779E+01               0
GRID*              10128               0-7.624999938E+024.8789844710E+01+
*       1.2025071480E+01               0
GRID*              10129               0-7.499999933E+024.8789849283E+01+
*       1.2025036745E+01               0
GRID*              10130               0-7.374999933E+024.8789852676E+01+
*       1.2025010970E+01               0
GRID*              10131               0-7.249999930E+024.8789855135E+01+
*       1.2024992292E+01               0
GRID*              10132               0-7.124999931E+024.8789856840E+01+
*       1.2024979334E+01               0
GRID*              10133               0-6.999999930E+024.8789857929E+01+
*       1.2024971062E+01               0
GRID*              10134               0-6.874999933E+024.8789858507E+01+
*       1.2024966677E+01               0
GRID*              10135               0-6.749999932E+024.8789858655E+01+
*       1.2024965553E+01               0
GRID*              10136               0-6.624999936E+024.8789858439E+01+
*       1.2024967191E+01               0
GRID*              10137               0-6.499999936E+024.8789857913E+01+
*       1.2024971188E+01               0
GRID*              10138               0-6.374999941E+024.8789857120E+01+
*       1.2024977211E+01               0
GRID*              10139               0-6.249999942E+024.8789856096E+01+
*       1.2024984986E+01               0
GRID*              10140               0-6.124999946E+024.8789854873E+01+
*       1.2024994282E+01               0
GRID*              10141               0-5.999999948E+024.8789853475E+01+
*       1.2025004901E+01               0
GRID*              10142               0-5.874999953E+024.8789851925E+01+
*       1.2025016674E+01               0
GRID*              10143               0-5.749999955E+024.8789850242E+01+
*       1.2025029456E+01               0
GRID*              10144               0-5.624999960E+024.8789848444E+01+
*       1.2025043117E+01               0
GRID*              10145               0-5.499999962E+024.8789846545E+01+
*       1.2025057545E+01               0
GRID*              10146               0-5.374999968E+024.8789844558E+01+
*       1.2025072638E+01               0
GRID*              10147               0-5.249999970E+024.8789842495E+01+
*       1.2025088307E+01               0
GRID*              10148               0-5.124999976E+024.8789840367E+01+
*       1.2025104469E+01               0
GRID*              10149               0-4.999999978E+024.8789838185E+01+
*       1.2025121050E+01               0
GRID*              10150               0-4.874999984E+024.8789835956E+01+
*       1.2025137982E+01               0
GRID*              10151               0-4.749999986E+024.8789833689E+01+
*       1.2025155201E+01               0
GRID*              10152               0-4.624999992E+024.8789831392E+01+
*       1.2025172650E+01               0
GRID*              10153               0-4.499999995E+024.8789829072E+01+
*       1.2025190273E+01               0
GRID*              10154               0-4.375000000E+024.8789826736E+01+
*       1.2025208020E+01               0
GRID*              10155               0-4.250000003E+024.8789824389E+01+
*       1.2025225843E+01               0
GRID*              10156               0-4.125000009E+024.8789822039E+01+
*       1.2025243696E+01               0
GRID*              10157               0-4.000000012E+024.8789819691E+01+
*       1.2025261535E+01               0
GRID*              10158               0-3.875000017E+024.8789817350E+01+
*       1.2025279320E+01               0
GRID*              10159               0-3.750000020E+024.8789815021E+01+
*       1.2025297010E+01               0
GRID*              10160               0-3.625000026E+024.8789812710E+01+
*       1.2025314567E+01               0
GRID*              10161               0-3.500000028E+024.8789810421E+01+
*       1.2025331955E+01               0
GRID*              10162               0-3.375000034E+024.8789808159E+01+
*       1.2025349138E+01               0
GRID*              10163               0-3.250000037E+024.8789805928E+01+
*       1.2025366082E+01               0
GRID*              10164               0-3.125000042E+024.8789803733E+01+
*       1.2025382753E+01               0
GRID*              10165               0-3.000000045E+024.8789801579E+01+
*       1.2025399118E+01               0
GRID*              10166               0-2.875000050E+024.8789799469E+01+
*       1.2025415146E+01               0
GRID*              10167               0-2.750000053E+024.8789797408E+01+
*       1.2025430805E+01               0
GRID*              10168               0-2.625000058E+024.8789795399E+01+
*       1.2025446065E+01               0
GRID*              10169               0-2.500000060E+024.8789793446E+01+
*       1.2025460896E+01               0
GRID*              10170               0-2.375000066E+024.8789791555E+01+
*       1.2025475268E+01               0
GRID*              10171               0-2.250000068E+024.8789789727E+01+
*       1.2025489152E+01               0
GRID*              10172               0-2.125000073E+024.8789787967E+01+
*       1.2025502521E+01               0
GRID*              10173               0-2.000000075E+024.8789786279E+01+
*       1.2025515345E+01               0
GRID*              10174               0-1.875000080E+024.8789784666E+01+
*       1.2025527597E+01               0
GRID*              10175               0-1.750000082E+024.8789783132E+01+
*       1.2025539249E+01               0
GRID*              10176               0-1.625000087E+024.8789781680E+01+
*       1.2025550274E+01               0
GRID*              10177               0-1.500000088E+024.8789780315E+01+
*       1.2025560646E+01               0
GRID*              10178               0-1.375000093E+024.8789779039E+01+
*       1.2025570337E+01               0
GRID*              10179               0-1.250000094E+024.8789777857E+01+
*       1.2025579322E+01               0
GRID*              10180               0-1.125000099E+024.8789776770E+01+
*       1.2025587574E+01               0
GRID*              10181               0-1.000000100E+024.8789775784E+01+
*       1.2025595067E+01               0
GRID*              10182               0-8.750001040E+014.8789774901E+01+
*       1.2025601776E+01               0
GRID*              10183               0-7.500001049E+014.8789774124E+01+
*       1.2025607676E+01               0
GRID*              10184               0-6.250001090E+014.8789773457E+01+
*       1.2025612740E+01               0
GRID*              10185               0-5.000001096E+014.8789772904E+01+
*       1.2025616945E+01               0
GRID*              10186               0-3.750001135E+014.8789772466E+01+
*       1.2025620267E+01               0
GRID*              10187               0-2.500001140E+014.8789772149E+01+
*       1.2025622682E+01               0
GRID*              10188               0-1.249999966E+014.4493996141E+01+
*       2.3352297444E+01               0
GRID*              10189               0-1.250001177E+014.8789771953E+01+
*       1.2025624167E+01               0
GRID*              10190               0-1.249999975E+012.8544963076E+01+
*       4.1354588139E+01               0
GRID*              10191               0-1.249999970E+013.7612398470E+01+
*       3.3321739753E+01               0
GRID*              10192               0-1.249999972E+016.0568962328E+00+
*       4.9883007235E+01               0
GRID*              10193               0-1.249999970E+011.7818676153E+01+
*       4.6984050086E+01               0
GRID*              10194               0-1.249999953E+01-1.781864612E+01+
*       4.6984062525E+01               0
GRID*              10195               0-1.249999966E+01-6.056864377E+00+
*       4.9883011429E+01               0
GRID*              10196               0-1.249999944E+01-3.761237769E+01+
*       3.3321766831E+01               0
GRID*              10197               0-1.249999947E+01-2.854493673E+01+
*       4.1354608357E+01               0
GRID*              10198               0-1.249999950E+01-4.878976758E+01+
*       1.2025657384E+01               0
GRID*              10199               0-1.249999945E+01-4.449398280E+01+
*       2.3352329659E+01               0
GRID*              10200               0-1.249999996E+01-4.878977195E+01+
*       -1.202562421E+01               0
GRID*              10201               0-1.250000000E+01-5.025000000E+01+
*       9.0013976175E-13               0
GRID*              10202               0-1.249999981E+01-3.761239847E+01+
*       -3.332173975E+01               0
GRID*              10203               0-1.249999989E+01-4.449399614E+01+
*       -2.335229744E+01               0
GRID*              10204               0-1.249999970E+01-1.781867615E+01+
*       -4.698405009E+01               0
GRID*              10205               0-1.249999975E+01-2.854496308E+01+
*       -4.135458814E+01               0
GRID*              10206               0-1.249999966E+016.0568643768E+00+
*       -4.988301143E+01               0
GRID*              10207               0-1.249999972E+01-6.056896233E+00+
*       -4.988300724E+01               0
GRID*              10208               0-1.249999947E+012.8544936727E+01+
*       -4.135460836E+01               0
GRID*              10209               0-1.249999953E+011.7818646122E+01+
*       -4.698406252E+01               0
GRID*              10210               0-1.249999932E+013.7612377693E+01+
*       -3.332176683E+01               0
GRID*              10211               0-2.499999970E+015.4812694344E+01+
*       2.4404190640E+01               0
GRID*              10212               0-2.499999995E+014.0147827333E+01+
*       4.4588696815E+01               0
GRID*              10213               0-2.499999993E+011.8541005984E+01+
*       5.7063362625E+01               0
GRID*              10214               0-2.499999983E+01-6.271721986E+00+
*       5.9671307449E+01               0
GRID*              10215               0-2.499999994E+01-2.999998880E+01+
*       5.1961499297E+01               0
GRID*              10216               0-2.499999995E+01-4.854101795E+01+
*       3.5267095730E+01               0
GRID*              10217               0-2.500000012E+01-5.868883538E+01+
*       1.2474695526E+01               0
GRID*              10218               0-2.500000004E+01-5.868883266E+01+
*       -1.247471029E+01               0
GRID*              10219               0-2.500000006E+01-4.854100869E+01+
*       -3.526710756E+01               0
GRID*              10220               0-2.499999988E+01-2.999997608E+01+
*       -5.196150698E+01               0
GRID*              10221               0-2.499999992E+01-6.271707519E+00+
*       -5.967130832E+01               0
GRID*              10222               0-2.499999988E+011.8541020035E+01+
*       -5.706335825E+01               0
GRID*              10223               0-2.500000008E+014.0147835307E+01+
*       -4.458868884E+01               0
GRID*              10224               0-2.499999968E+015.4812700353E+01+
*       -2.440417730E+01               0
GRID*              10225               0-4.999999937E+015.4812686775E+01+
*       2.4404207447E+01               0
GRID*              10226               0-4.999999990E+014.0147826195E+01+
*       4.4588697953E+01               0
GRID*              10227               0-4.999999980E+011.8540992259E+01+
*       5.7063366895E+01               0
GRID*              10228               0-4.999999960E+01-6.271749009E+00+
*       5.9671305825E+01               0
GRID*              10229               0-4.999999983E+01-2.999999783E+01+
*       5.1961493846E+01               0
GRID*              10230               0-4.999999971E+01-4.854103783E+01+
*       3.5267070361E+01               0
GRID*              10231               0-5.000000016E+01-5.868883667E+01+
*       1.2474688546E+01               0
GRID*              10232               0-4.999999986E+01-5.868882685E+01+
*       -1.247474186E+01               0
GRID*              10233               0-5.000000008E+01-4.854100611E+01+
*       -3.526711085E+01               0
GRID*              10234               0-4.999999962E+01-2.999995058E+01+
*       -5.196152239E+01               0
GRID*              10235               0-4.999999985E+01-6.271705579E+00+
*       -5.967130843E+01               0
GRID*              10236               0-4.999999963E+011.8541045270E+01+
*       -5.706335040E+01               0
GRID*              10237               0-5.000000012E+014.0147835666E+01+
*       -4.458868848E+01               0
GRID*              10238               0-4.999999931E+015.4812709604E+01+
*       -2.440415676E+01               0
GRID*              10239               0-7.499999902E+015.4812675061E+01+
*       2.4404233455E+01               0
GRID*              10240               0-7.500000017E+014.0147850431E+01+
*       4.4588673717E+01               0
GRID*              10241               0-7.499999962E+011.8540970743E+01+
*       5.7063373589E+01               0
GRID*              10242               0-7.499999948E+01-6.271767456E+00+
*       5.9671304717E+01               0
GRID*              10243               0-7.499999967E+01-3.000001212E+01+
*       5.1961485215E+01               0
GRID*              10244               0-7.499999940E+01-4.854106119E+01+
*       3.5267040536E+01               0
GRID*              10245               0-7.500000013E+01-5.868883872E+01+
*       1.2474677402E+01               0
GRID*              10246               0-7.499999954E+01-5.868881904E+01+
*       -1.247478433E+01               0
GRID*              10247               0-7.500000007E+01-4.854100196E+01+
*       -3.526711615E+01               0
GRID*              10248               0-7.499999926E+01-2.999991406E+01+
*       -5.196154445E+01               0
GRID*              10249               0-7.499999980E+01-6.271702441E+00+
*       -5.967130862E+01               0
GRID*              10250               0-7.499999929E+011.8541082742E+01+
*       -5.706333874E+01               0
GRID*              10251               0-7.500000013E+014.0147836249E+01+
*       -4.458868790E+01               0
GRID*              10252               0-7.499999891E+015.4812723677E+01+
*       -2.440412551E+01               0
GRID*              10253               0-9.999999865E+015.4812659965E+01+
*       2.4404266973E+01               0
GRID*              10254               0-1.000000003E+024.0147864641E+01+
*       4.4588659507E+01               0
GRID*              10255               0-9.999999940E+011.8540942582E+01+
*       5.7063382351E+01               0
GRID*              10256               0-9.999999961E+01-6.271755202E+00+
*       5.9671305453E+01               0
GRID*              10257               0-9.999999948E+01-3.000003104E+01+
*       5.1961473783E+01               0
GRID*              10258               0-9.999999914E+01-4.854107988E+01+
*       3.5267016679E+01               0
GRID*              10259               0-1.000000000E+02-5.868884146E+01+
*       1.2474662504E+01               0
GRID*              10260               0-9.999999917E+01-5.868881079E+01+
*       -1.247482917E+01               0
GRID*              10261               0-1.000000000E+02-4.854099637E+01+
*       -3.526712328E+01               0
GRID*              10262               0-9.999999886E+01-2.999987156E+01+
*       -5.196157012E+01               0
GRID*              10263               0-9.999999975E+01-6.271698188E+00+
*       -5.967130888E+01               0
GRID*              10264               0-9.999999888E+011.8541128584E+01+
*       -5.706332448E+01               0
GRID*              10265               0-1.000000001E+024.0147837043E+01+
*       -4.458868711E+01               0
GRID*              10266               0-9.999999849E+015.4812741434E+01+
*       -2.440408608E+01               0
GRID*              10267               0-1.249999983E+025.4812642273E+01+
*       2.4404306257E+01               0
GRID*              10268               0-1.250000004E+024.0147872078E+01+
*       4.4588652070E+01               0
GRID*              10269               0-1.249999991E+021.8540908958E+01+
*       5.7063392813E+01               0
GRID*              10270               0-1.250000001E+02-6.271691998E+00+
*       5.9671309250E+01               0
GRID*              10271               0-1.249999993E+02-3.000005395E+01+
*       5.1961459942E+01               0
GRID*              10272               0-1.249999990E+02-4.854108554E+01+
*       3.5267009447E+01               0
GRID*              10273               0-1.249999999E+02-5.868884481E+01+
*       1.2474644272E+01               0
GRID*              10274               0-1.249999988E+02-5.868880371E+01+
*       -1.247486762E+01               0
GRID*              10275               0-1.250000000E+02-4.854098947E+01+
*       -3.526713209E+01               0
GRID*              10276               0-1.249999985E+02-2.999982830E+01+
*       -5.196159625E+01               0
GRID*              10277               0-1.249999997E+02-6.271692900E+00+
*       -5.967130920E+01               0
GRID*              10278               0-1.249999984E+021.8541178806E+01+
*       -5.706330886E+01               0
GRID*              10279               0-1.250000001E+024.0147838036E+01+
*       -4.458868611E+01               0
GRID*              10280               0-1.249999981E+025.4812761702E+01+
*       -2.440404108E+01               0
GRID*              10281               0-1.499999979E+025.4812622799E+01+
*       2.4404349497E+01               0
GRID*              10282               0-1.500000005E+024.0147876085E+01+
*       4.4588648063E+01               0
GRID*              10283               0-1.499999988E+021.8540871094E+01+
*       5.7063404593E+01               0
GRID*              10284               0-1.500000006E+02-6.271630301E+00+
*       5.9671312956E+01               0
GRID*              10285               0-1.499999990E+02-3.000008018E+01+
*       5.1961444099E+01               0
GRID*              10286               0-1.499999992E+02-4.854106962E+01+
*       3.5267029775E+01               0
GRID*              10287               0-1.499999997E+02-5.868884870E+01+
*       1.2474623141E+01               0
GRID*              10288               0-1.499999986E+02-5.868879947E+01+
*       -1.247489067E+01               0
GRID*              10289               0-1.499999999E+02-4.854098140E+01+
*       -3.526714240E+01               0
GRID*              10290               0-1.499999981E+02-2.999978962E+01+
*       -5.196161961E+01               0
GRID*              10291               0-1.499999996E+02-6.271686661E+00+
*       -5.967130957E+01               0
GRID*              10292               0-1.499999980E+021.8541229277E+01+
*       -5.706329315E+01               0
GRID*              10293               0-1.500000001E+024.0147839216E+01+
*       -4.458868493E+01               0
GRID*              10294               0-1.499999976E+025.4812783264E+01+
*       -2.440399320E+01               0
GRID*              10295               0-1.749999975E+025.4812602391E+01+
*       2.4404394810E+01               0
GRID*              10296               0-1.750000005E+024.0147878102E+01+
*       4.4588646047E+01               0
GRID*              10297               0-1.749999985E+021.8540830264E+01+
*       5.7063417296E+01               0
GRID*              10298               0-1.750000010E+02-6.271590747E+00+
*       5.9671315332E+01               0
GRID*              10299               0-1.749999987E+02-3.000010903E+01+
*       5.1961426674E+01               0
GRID*              10300               0-1.749999998E+02-4.854102329E+01+
*       3.5267088923E+01               0
GRID*              10301               0-1.749999995E+02-5.868885304E+01+
*       1.2474599559E+01               0
GRID*              10302               0-1.749999985E+02-5.868879978E+01+
*       -1.247488898E+01               0
GRID*              10303               0-1.749999998E+02-4.854097229E+01+
*       -3.526715403E+01               0
GRID*              10304               0-1.749999978E+02-2.999976111E+01+
*       -5.196163684E+01               0
GRID*              10305               0-1.749999996E+02-6.271679556E+00+
*       -5.967131000E+01               0
GRID*              10306               0-1.749999976E+021.8541275699E+01+
*       -5.706327871E+01               0
GRID*              10307               0-1.750000001E+024.0147840569E+01+
*       -4.458868358E+01               0
GRID*              10308               0-1.749999972E+025.4812804856E+01+
*       -2.440394526E+01               0
GRID*              10309               0-1.999999971E+025.4812581938E+01+
*       2.4404440224E+01               0
GRID*              10310               0-2.000000005E+024.0147878852E+01+
*       4.4588645296E+01               0
GRID*              10311               0-1.999999982E+021.8540787799E+01+
*       5.7063430508E+01               0
GRID*              10312               0-2.000000012E+02-6.271565202E+00+
*       5.9671316866E+01               0
GRID*              10313               0-1.999999984E+02-3.000013977E+01+
*       5.1961408106E+01               0
GRID*              10314               0-2.000000007E+02-4.854095904E+01+
*       3.5267170934E+01               0
GRID*              10315               0-1.999999993E+02-5.868885775E+01+
*       1.2474573992E+01               0
GRID*              10316               0-1.999999988E+02-5.868880643E+01+
*       -1.247485286E+01               0
GRID*              10317               0-1.999999996E+02-4.854096228E+01+
*       -3.526716680E+01               0
GRID*              10318               0-1.999999977E+02-2.999974857E+01+
*       -5.196164441E+01               0
GRID*              10319               0-1.999999995E+02-6.271671674E+00+
*       -5.967131047E+01               0
GRID*              10320               0-1.999999973E+021.8541313580E+01+
*       -5.706326692E+01               0
GRID*              10321               0-2.000000001E+024.0147842082E+01+
*       -4.458868207E+01               0
GRID*              10322               0-1.999999969E+025.4812825150E+01+
*       -2.440390020E+01               0
GRID*              10323               0-2.249999968E+025.4812562373E+01+
*       2.4404483664E+01               0
GRID*              10324               0-2.250000005E+024.0147878745E+01+
*       4.4588645403E+01               0
GRID*              10325               0-2.249999978E+021.8540745098E+01+
*       5.7063443794E+01               0
GRID*              10326               0-2.250000013E+02-6.271549118E+00+
*       5.9671317832E+01               0
GRID*              10327               0-2.249999981E+02-3.000017164E+01+
*       5.1961388854E+01               0
GRID*              10328               0-2.250000013E+02-4.854091305E+01+
*       3.5267229649E+01               0
GRID*              10329               0-2.249999991E+02-5.868886273E+01+
*       1.2474546928E+01               0
GRID*              10330               0-2.249999994E+02-5.868882128E+01+
*       -1.247477216E+01               0
GRID*              10331               0-2.249999995E+02-4.854095152E+01+
*       -3.526718053E+01               0
GRID*              10332               0-2.249999978E+02-2.999975811E+01+
*       -5.196163865E+01               0
GRID*              10333               0-2.249999995E+02-6.271663104E+00+
*       -5.967131099E+01               0
GRID*              10334               0-2.249999971E+021.8541338197E+01+
*       -5.706325927E+01               0
GRID*              10335               0-2.250000001E+024.0147843742E+01+
*       -4.458868041E+01               0
GRID*              10336               0-2.249999966E+025.4812842752E+01+
*       -2.440386112E+01               0
GRID*              10337               0-2.499999965E+025.4812544689E+01+
*       2.4404522930E+01               0
GRID*              10338               0-2.500000005E+024.0147878030E+01+
*       4.4588646118E+01               0
GRID*              10339               0-2.499999975E+021.8540703644E+01+
*       5.7063456691E+01               0
GRID*              10340               0-2.500000014E+02-6.271539737E+00+
*       5.9671318396E+01               0
GRID*              10341               0-2.499999979E+02-3.000020383E+01+
*       5.1961369406E+01               0
GRID*              10342               0-2.500000017E+02-4.854088095E+01+
*       3.5267270628E+01               0
GRID*              10343               0-2.499999988E+02-5.868886789E+01+
*       1.2474518880E+01               0
GRID*              10344               0-2.500000004E+02-5.868884475E+01+
*       -1.247464462E+01               0
GRID*              10345               0-2.499999993E+02-4.854094018E+01+
*       -3.526719502E+01               0
GRID*              10346               0-2.499999982E+02-2.999979616E+01+
*       -5.196161566E+01               0
GRID*              10347               0-2.499999994E+02-6.271653941E+00+
*       -5.967131154E+01               0
GRID*              10348               0-2.499999971E+021.8541344548E+01+
*       -5.706325729E+01               0
GRID*              10349               0-2.500000000E+024.0147845535E+01+
*       -4.458867861E+01               0
GRID*              10350               0-2.499999964E+025.4812856183E+01+
*       -2.440383130E+01               0
GRID*              10351               0-2.749999963E+025.4812529942E+01+
*       2.4404555675E+01               0
GRID*              10352               0-2.750000004E+024.0147876870E+01+
*       4.4588647278E+01               0
GRID*              10353               0-2.749999971E+021.8540665015E+01+
*       5.7063468710E+01               0
GRID*              10354               0-2.750000014E+02-6.271535279E+00+
*       5.9671318664E+01               0
GRID*              10355               0-2.749999976E+02-3.000023550E+01+
*       5.1961350278E+01               0
GRID*              10356               0-2.750000019E+02-4.854085907E+01+
*       3.5267298556E+01               0
GRID*              10357               0-2.749999986E+02-5.868887313E+01+
*       1.2474490390E+01               0
GRID*              10358               0-2.750000013E+02-5.868886459E+01+
*       -1.247453678E+01               0
GRID*              10359               0-2.749999992E+02-4.854092840E+01+
*       -3.526721006E+01               0
GRID*              10360               0-2.749999989E+02-2.999986957E+01+
*       -5.196157132E+01               0
GRID*              10361               0-2.749999993E+02-6.271644281E+00+
*       -5.967131212E+01               0
GRID*              10362               0-2.749999973E+021.8541327304E+01+
*       -5.706326265E+01               0
GRID*              10363               0-2.750000000E+024.0147847448E+01+
*       -4.458867670E+01               0
GRID*              10364               0-2.749999964E+025.4812863864E+01+
*       -2.440381424E+01               0
GRID*              10365               0-2.999999962E+025.4812519271E+01+
*       2.4404579368E+01               0
GRID*              10366               0-3.000000004E+024.0147875377E+01+
*       4.4588648771E+01               0
GRID*              10367               0-2.999999969E+021.8540630910E+01+
*       5.7063479320E+01               0
GRID*              10368               0-3.000000014E+02-6.271534535E+00+
*       5.9671318708E+01               0
GRID*              10369               0-2.999999973E+02-3.000026572E+01+
*       5.1961332023E+01               0
GRID*              10370               0-3.000000021E+02-4.854084494E+01+
*       3.5267316602E+01               0
GRID*              10371               0-2.999999983E+02-5.868887835E+01+
*       1.2474462035E+01               0
GRID*              10372               0-3.000000020E+02-5.868887904E+01+
*       -1.247445830E+01               0
GRID*              10373               0-2.999999990E+02-4.854091636E+01+
*       -3.526722542E+01               0
GRID*              10374               0-3.000000000E+02-2.999998566E+01+
*       -5.196150120E+01               0
GRID*              10375               0-2.999999993E+02-6.271634226E+00+
*       -5.967131272E+01               0
GRID*              10376               0-2.999999977E+021.8541280730E+01+
*       -5.706327714E+01               0
GRID*              10377               0-3.000000000E+024.0147849467E+01+
*       -4.458867468E+01               0
GRID*              10378               0-2.999999965E+025.4812864096E+01+
*       -2.440381373E+01               0
GRID*              10379               0-3.249999961E+025.4812513913E+01+
*       2.4404591264E+01               0
GRID*              10380               0-3.250000004E+024.0147873633E+01+
*       4.4588650515E+01               0
GRID*              10381               0-3.249999966E+021.8540603173E+01+
*       5.7063487950E+01               0
GRID*              10382               0-3.250000014E+02-6.271536646E+00+
*       5.9671318581E+01               0
GRID*              10383               0-3.249999970E+02-3.000029350E+01+
*       5.1961315242E+01               0
GRID*              10384               0-3.250000022E+02-4.854083679E+01+
*       3.5267327001E+01               0
GRID*              10385               0-3.249999981E+02-5.868888343E+01+
*       1.2474434440E+01               0
GRID*              10386               0-3.250000024E+02-5.868888928E+01+
*       -1.247440264E+01               0
GRID*              10387               0-3.249999989E+02-4.854090425E+01+
*       -3.526724088E+01               0
GRID*              10388               0-3.250000011E+02-3.000010767E+01+
*       -5.196142750E+01               0
GRID*              10389               0-3.249999992E+02-6.271623885E+00+
*       -5.967131334E+01               0
GRID*              10390               0-3.249999984E+021.8541198609E+01+
*       -5.706330269E+01               0
GRID*              10391               0-3.249999999E+024.0147851575E+01+
*       -4.458867257E+01               0
GRID*              10392               0-3.249999967E+025.4812855031E+01+
*       -2.440383385E+01               0
GRID*              10393               0-3.499999962E+025.4812515228E+01+
*       2.4404588345E+01               0
GRID*              10394               0-3.500000004E+024.0147871699E+01+
*       4.4588652449E+01               0
GRID*              10395               0-3.499999965E+021.8540583822E+01+
*       5.7063493971E+01               0
GRID*              10396               0-3.500000014E+02-6.271540977E+00+
*       5.9671318321E+01               0
GRID*              10397               0-3.499999968E+02-3.000031776E+01+
*       5.1961300588E+01               0
GRID*              10398               0-3.500000022E+02-4.854083335E+01+
*       3.5267331388E+01               0
GRID*              10399               0-3.499999978E+02-5.868888824E+01+
*       1.2474408279E+01               0
GRID*              10400               0-3.500000027E+02-5.868889620E+01+
*       -1.247436503E+01               0
GRID*              10401               0-3.499999987E+02-4.854089226E+01+
*       -3.526725619E+01               0
GRID*              10402               0-3.500000020E+02-3.000019858E+01+
*       -5.196137258E+01               0
GRID*              10403               0-3.499999991E+02-6.271613370E+00+
*       -5.967131397E+01               0
GRID*              10404               0-3.499999995E+021.8541074123E+01+
*       -5.706334143E+01               0
GRID*              10405               0-3.499999999E+024.0147853758E+01+
*       -4.458867039E+01               0
GRID*              10406               0-3.499999972E+025.4812834642E+01+
*       -2.440387912E+01               0
GRID*              10407               0-3.749999965E+025.4812524722E+01+
*       2.4404567264E+01               0
GRID*              10408               0-3.750000003E+024.0147869623E+01+
*       4.4588654525E+01               0
GRID*              10409               0-3.749999964E+021.8540575098E+01+
*       5.7063496685E+01               0
GRID*              10410               0-3.750000014E+02-6.271547046E+00+
*       5.9671317957E+01               0
GRID*              10411               0-3.749999966E+02-3.000033730E+01+
*       5.1961288786E+01               0
GRID*              10412               0-3.750000022E+02-4.854083366E+01+
*       3.5267330998E+01               0
GRID*              10413               0-3.749999976E+02-5.868889266E+01+
*       1.2474384298E+01               0
GRID*              10414               0-3.750000029E+02-5.868890046E+01+
*       -1.247434188E+01               0
GRID*              10415               0-3.749999985E+02-4.854088061E+01+
*       -3.526727106E+01               0
GRID*              10416               0-3.750000026E+02-3.000026441E+01+
*       -5.196133282E+01               0
GRID*              10417               0-3.749999990E+02-6.271602807E+00+
*       -5.967131461E+01               0
GRID*              10418               0-3.750000008E+021.8540917420E+01+
*       -5.706339018E+01               0
GRID*              10419               0-3.749999999E+024.0147856001E+01+
*       -4.458866815E+01               0
GRID*              10420               0-3.749999979E+025.4812800678E+01+
*       -2.440395454E+01               0
GRID*              10421               0-3.999999969E+025.4812544093E+01+
*       2.4404524254E+01               0
GRID*              10422               0-4.000000003E+024.0147867444E+01+
*       4.4588656705E+01               0
GRID*              10423               0-3.999999964E+021.8540579514E+01+
*       5.7063495311E+01               0
GRID*              10424               0-4.000000013E+02-6.271554472E+00+
*       5.9671317511E+01               0
GRID*              10425               0-3.999999965E+02-3.000035077E+01+
*       5.1961280645E+01               0
GRID*              10426               0-4.000000022E+02-4.854083696E+01+
*       3.5267326790E+01               0
GRID*              10427               0-3.999999974E+02-5.868889652E+01+
*       1.2474363323E+01               0
GRID*              10428               0-4.000000030E+02-5.868890257E+01+
*       -1.247433043E+01               0
GRID*              10429               0-3.999999983E+02-4.854086954E+01+
*       -3.526728519E+01               0
GRID*              10430               0-4.000000031E+02-3.000030980E+01+
*       -5.196130539E+01               0
GRID*              10431               0-3.999999990E+02-6.271592326E+00+
*       -5.967131524E+01               0
GRID*              10432               0-4.000000018E+021.8540793268E+01+
*       -5.706342881E+01               0
GRID*              10433               0-3.999999998E+024.0147858284E+01+
*       -4.458866586E+01               0
GRID*              10434               0-3.999999989E+025.4812750607E+01+
*       -2.440406572E+01               0
GRID*              10435               0-4.249999976E+025.4812575272E+01+
*       2.4404455025E+01               0
GRID*              10436               0-4.250000003E+024.0147865194E+01+
*       4.4588658954E+01               0
GRID*              10437               0-4.249999966E+021.8540599932E+01+
*       5.7063488959E+01               0
GRID*              10438               0-4.250000012E+02-6.271562949E+00+
*       5.9671317001E+01               0
GRID*              10439               0-4.249999965E+02-3.000035667E+01+
*       5.1961277083E+01               0
GRID*              10440               0-4.250000021E+02-4.854084264E+01+
*       3.5267319529E+01               0
GRID*              10441               0-4.249999972E+02-5.868889965E+01+
*       1.2474346288E+01               0
GRID*              10442               0-4.250000030E+02-5.868890293E+01+
*       -1.247432848E+01               0
GRID*              10443               0-4.249999982E+02-4.854085932E+01+
*       -3.526729825E+01               0
GRID*              10444               0-4.250000033E+02-3.000033843E+01+
*       -5.196128810E+01               0
GRID*              10445               0-4.249999989E+02-6.271582077E+00+
*       -5.967131585E+01               0
GRID*              10446               0-4.250000026E+021.8540702556E+01+
*       -5.706345703E+01               0
GRID*              10447               0-4.249999998E+024.0147860591E+01+
*       -4.458866356E+01               0
GRID*              10448               0-4.250000003E+025.4812682384E+01+
*       -2.440421719E+01               0
GRID*              10449               0-4.499999985E+025.4812620493E+01+
*       2.4404354616E+01               0
GRID*              10450               0-4.500000002E+024.0147862902E+01+
*       4.4588661246E+01               0
GRID*              10451               0-4.499999969E+021.8540639654E+01+
*       5.7063476600E+01               0
GRID*              10452               0-4.500000012E+02-6.271572222E+00+
*       5.9671316444E+01               0
GRID*              10453               0-4.499999965E+02-3.000035324E+01+
*       5.1961279157E+01               0
GRID*              10454               0-4.500000019E+02-4.854085023E+01+
*       3.5267309840E+01               0
GRID*              10455               0-4.499999971E+02-5.868890186E+01+
*       1.2474334261E+01               0
GRID*              10456               0-4.500000029E+02-5.868890186E+01+
*       -1.247433426E+01               0
GRID*              10457               0-4.499999981E+02-4.854085023E+01+
*       -3.526730984E+01               0
GRID*              10458               0-4.500000035E+02-3.000035324E+01+
*       -5.196127916E+01               0
GRID*              10459               0-4.499999988E+02-6.271572222E+00+
*       -5.967131644E+01               0
GRID*              10460               0-4.500000031E+021.8540639654E+01+
*       -5.706347660E+01               0
GRID*              10461               0-4.499999998E+024.0147862902E+01+
*       -4.458866125E+01               0
GRID*              10462               0-4.500000015E+025.4812620493E+01+
*       -2.440435462E+01               0
GRID*              10463               0-4.749999997E+025.4812682384E+01+
*       2.4404217194E+01               0
GRID*              10464               0-4.750000002E+024.0147860591E+01+
*       4.4588663557E+01               0
GRID*              10465               0-4.749999974E+021.8540702556E+01+
*       5.7063457030E+01               0
GRID*              10466               0-4.750000011E+02-6.271582077E+00+
*       5.9671315853E+01               0
GRID*              10467               0-4.749999967E+02-3.000033843E+01+
*       5.1961288104E+01               0
GRID*              10468               0-4.750000018E+02-4.854085932E+01+
*       3.5267298246E+01               0
GRID*              10469               0-4.749999970E+02-5.868890293E+01+
*       1.2474328485E+01               0
GRID*              10470               0-4.750000028E+02-5.868889965E+01+
*       -1.247434629E+01               0
GRID*              10471               0-4.749999979E+02-4.854084264E+01+
*       -3.526731953E+01               0
GRID*              10472               0-4.750000035E+02-3.000035667E+01+
*       -5.196127708E+01               0
GRID*              10473               0-4.749999988E+02-6.271562949E+00+
*       -5.967131700E+01               0
GRID*              10474               0-4.750000034E+021.8540599932E+01+
*       -5.706348896E+01               0
GRID*              10475               0-4.749999997E+024.0147865194E+01+
*       -4.458865895E+01               0
GRID*              10476               0-4.750000024E+025.4812575272E+01+
*       -2.440445503E+01               0
GRID*              10477               0-5.000000011E+025.4812750606E+01+
*       2.4404065716E+01               0
GRID*              10478               0-5.000000002E+024.0147858284E+01+
*       4.4588665864E+01               0
GRID*              10479               0-4.999999982E+021.8540793268E+01+
*       5.7063428807E+01               0
GRID*              10480               0-5.000000010E+02-6.271592326E+00+
*       5.9671315237E+01               0
GRID*              10481               0-4.999999969E+02-3.000030980E+01+
*       5.1961305394E+01               0
GRID*              10482               0-5.000000017E+02-4.854086954E+01+
*       3.5267285189E+01               0
GRID*              10483               0-4.999999970E+02-5.868890257E+01+
*       1.2474330432E+01               0
GRID*              10484               0-5.000000026E+02-5.868889652E+01+
*       -1.247436332E+01               0
GRID*              10485               0-4.999999978E+02-4.854083696E+01+
*       -3.526732679E+01               0
GRID*              10486               0-5.000000035E+02-3.000035077E+01+
*       -5.196128065E+01               0
GRID*              10487               0-4.999999987E+02-6.271554472E+00+
*       -5.967131751E+01               0
GRID*              10488               0-5.000000036E+021.8540579514E+01+
*       -5.706349531E+01               0
GRID*              10489               0-4.999999997E+024.0147867444E+01+
*       -4.458865670E+01               0
GRID*              10490               0-5.000000031E+025.4812544093E+01+
*       -2.440452425E+01               0
GRID*              10491               0-5.250000021E+025.4812800678E+01+
*       2.4403954538E+01               0
GRID*              10492               0-5.250000001E+024.0147856001E+01+
*       4.4588668148E+01               0
GRID*              10493               0-5.249999992E+021.8540917420E+01+
*       5.7063390180E+01               0
GRID*              10494               0-5.250000010E+02-6.271602807E+00+
*       5.9671314607E+01               0
GRID*              10495               0-5.249999974E+02-3.000026441E+01+
*       5.1961332816E+01               0
GRID*              10496               0-5.250000015E+02-4.854088061E+01+
*       3.5267271056E+01               0
GRID*              10497               0-5.249999971E+02-5.868890046E+01+
*       1.2474341882E+01               0
GRID*              10498               0-5.250000024E+02-5.868889266E+01+
*       -1.247438430E+01               0
GRID*              10499               0-5.249999978E+02-4.854083366E+01+
*       -3.526733100E+01               0
GRID*              10500               0-5.250000034E+02-3.000033730E+01+
*       -5.196128879E+01               0
GRID*              10501               0-5.249999986E+02-6.271547046E+00+
*       -5.967131796E+01               0
GRID*              10502               0-5.250000036E+021.8540575098E+01+
*       -5.706349669E+01               0
GRID*              10503               0-5.249999997E+024.0147869623E+01+
*       -4.458865453E+01               0
GRID*              10504               0-5.250000035E+025.4812524722E+01+
*       -2.440456726E+01               0
GRID*              10505               0-5.500000028E+025.4812834642E+01+
*       2.4403879124E+01               0
GRID*              10506               0-5.500000001E+024.0147853758E+01+
*       4.4588670390E+01               0
GRID*              10507               0-5.500000005E+021.8541074123E+01+
*       5.7063341425E+01               0
GRID*              10508               0-5.500000009E+02-6.271613370E+00+
*       5.9671313973E+01               0
GRID*              10509               0-5.499999980E+02-3.000019858E+01+
*       5.1961372582E+01               0
GRID*              10510               0-5.500000013E+02-4.854089226E+01+
*       3.5267256187E+01               0
GRID*              10511               0-5.499999973E+02-5.868889620E+01+
*       1.2474365028E+01               0
GRID*              10512               0-5.500000022E+02-5.868888824E+01+
*       -1.247440828E+01               0
GRID*              10513               0-5.499999978E+02-4.854083335E+01+
*       -3.526733139E+01               0
GRID*              10514               0-5.500000032E+02-3.000031776E+01+
*       -5.196130059E+01               0
GRID*              10515               0-5.499999986E+02-6.271540977E+00+
*       -5.967131832E+01               0
GRID*              10516               0-5.500000035E+021.8540583822E+01+
*       -5.706349397E+01               0
GRID*              10517               0-5.499999996E+024.0147871699E+01+
*       -4.458865245E+01               0
GRID*              10518               0-5.500000038E+025.4812515228E+01+
*       -2.440458835E+01               0
GRID*              10519               0-5.750000033E+025.4812855031E+01+
*       2.4403833853E+01               0
GRID*              10520               0-5.750000001E+024.0147851575E+01+
*       4.4588672573E+01               0
GRID*              10521               0-5.750000016E+021.8541198609E+01+
*       5.7063302694E+01               0
GRID*              10522               0-5.750000008E+02-6.271623885E+00+
*       5.9671313341E+01               0
GRID*              10523               0-5.749999989E+02-3.000010767E+01+
*       5.1961427495E+01               0
GRID*              10524               0-5.750000011E+02-4.854090425E+01+
*       3.5267240883E+01               0
GRID*              10525               0-5.749999976E+02-5.868888928E+01+
*       1.2474402639E+01               0
GRID*              10526               0-5.750000019E+02-5.868888343E+01+
*       -1.247443444E+01               0
GRID*              10527               0-5.749999978E+02-4.854083679E+01+
*       -3.526732700E+01               0
GRID*              10528               0-5.750000030E+02-3.000029350E+01+
*       -5.196131524E+01               0
GRID*              10529               0-5.749999986E+02-6.271536646E+00+
*       -5.967131858E+01               0
GRID*              10530               0-5.750000034E+021.8540603173E+01+
*       -5.706348795E+01               0
GRID*              10531               0-5.749999996E+024.0147873633E+01+
*       -4.458865052E+01               0
GRID*              10532               0-5.750000039E+025.4812513913E+01+
*       -2.440459126E+01               0
GRID*              10533               0-6.000000035E+025.4812864096E+01+
*       2.4403813727E+01               0
GRID*              10534               0-6.000000000E+024.0147849467E+01+
*       4.4588674682E+01               0
GRID*              10535               0-6.000000023E+021.8541280730E+01+
*       5.7063277144E+01               0
GRID*              10536               0-6.000000007E+02-6.271634226E+00+
*       5.9671312720E+01               0
GRID*              10537               0-6.000000000E+02-2.999998566E+01+
*       5.1961501195E+01               0
GRID*              10538               0-6.000000010E+02-4.854091636E+01+
*       3.5267225422E+01               0
GRID*              10539               0-5.999999980E+02-5.868887904E+01+
*       1.2474458299E+01               0
GRID*              10540               0-6.000000017E+02-5.868887835E+01+
*       -1.247446204E+01               0
GRID*              10541               0-5.999999979E+02-4.854084494E+01+
*       -3.526731660E+01               0
GRID*              10542               0-6.000000027E+02-3.000026572E+01+
*       -5.196133202E+01               0
GRID*              10543               0-5.999999986E+02-6.271534535E+00+
*       -5.967131871E+01               0
GRID*              10544               0-6.000000031E+021.8540630910E+01+
*       -5.706347932E+01               0
GRID*              10545               0-5.999999996E+024.0147875377E+01+
*       -4.458864877E+01               0
GRID*              10546               0-6.000000038E+025.4812519271E+01+
*       -2.440457937E+01               0
GRID*              10547               0-6.250000036E+025.4812863864E+01+
*       2.4403814241E+01               0
GRID*              10548               0-6.250000000E+024.0147847448E+01+
*       4.4588676700E+01               0
GRID*              10549               0-6.250000027E+021.8541327303E+01+
*       5.7063262654E+01               0
GRID*              10550               0-6.250000007E+02-6.271644281E+00+
*       5.9671312116E+01               0
GRID*              10551               0-6.250000011E+02-2.999986957E+01+
*       5.1961571323E+01               0
GRID*              10552               0-6.250000008E+02-4.854092840E+01+
*       3.5267210056E+01               0
GRID*              10553               0-6.249999987E+02-5.868886459E+01+
*       1.2474536778E+01               0
GRID*              10554               0-6.250000014E+02-5.868887313E+01+
*       -1.247449039E+01               0
GRID*              10555               0-6.249999981E+02-4.854085907E+01+
*       -3.526729856E+01               0
GRID*              10556               0-6.250000024E+02-3.000023550E+01+
*       -5.196135028E+01               0
GRID*              10557               0-6.249999986E+02-6.271535279E+00+
*       -5.967131866E+01               0
GRID*              10558               0-6.250000029E+021.8540665015E+01+
*       -5.706346871E+01               0
GRID*              10559               0-6.249999996E+024.0147876870E+01+
*       -4.458864728E+01               0
GRID*              10560               0-6.250000037E+025.4812529942E+01+
*       -2.440455567E+01               0
GRID*              10561               0-6.500000036E+025.4812856183E+01+
*       2.4403831297E+01               0
GRID*              10562               0-6.500000000E+024.0147845535E+01+
*       4.4588678613E+01               0
GRID*              10563               0-6.500000029E+021.8541344548E+01+
*       5.7063257289E+01               0
GRID*              10564               0-6.500000006E+02-6.271653941E+00+
*       5.9671311536E+01               0
GRID*              10565               0-6.500000018E+02-2.999979616E+01+
*       5.1961615663E+01               0
GRID*              10566               0-6.500000007E+02-4.854094018E+01+
*       3.5267195020E+01               0
GRID*              10567               0-6.499999996E+02-5.868884475E+01+
*       1.2474644620E+01               0
GRID*              10568               0-6.500000012E+02-5.868886789E+01+
*       -1.247451888E+01               0
GRID*              10569               0-6.499999983E+02-4.854088095E+01+
*       -3.526727063E+01               0
GRID*              10570               0-6.500000022E+02-3.000020383E+01+
*       -5.196136941E+01               0
GRID*              10571               0-6.499999986E+02-6.271539737E+00+
*       -5.967131840E+01               0
GRID*              10572               0-6.500000025E+021.8540703644E+01+
*       -5.706345669E+01               0
GRID*              10573               0-6.499999995E+024.0147878030E+01+
*       -4.458864612E+01               0
GRID*              10574               0-6.500000035E+025.4812544689E+01+
*       -2.440452293E+01               0
GRID*              10575               0-6.750000034E+025.4812842752E+01+
*       2.4403861119E+01               0
GRID*              10576               0-6.749999999E+024.0147843742E+01+
*       4.4588680406E+01               0
GRID*              10577               0-6.750000029E+021.8541338197E+01+
*       5.7063259265E+01               0
GRID*              10578               0-6.750000005E+02-6.271663104E+00+
*       5.9671310985E+01               0
GRID*              10579               0-6.750000022E+02-2.999975811E+01+
*       5.1961638647E+01               0
GRID*              10580               0-6.750000005E+02-4.854095152E+01+
*       3.5267180533E+01               0
GRID*              10581               0-6.750000006E+02-5.868882128E+01+
*       1.2474772160E+01               0
GRID*              10582               0-6.750000009E+02-5.868886273E+01+
*       -1.247454693E+01               0
GRID*              10583               0-6.749999987E+02-4.854091305E+01+
*       -3.526722965E+01               0
GRID*              10584               0-6.750000019E+02-3.000017164E+01+
*       -5.196138885E+01               0
GRID*              10585               0-6.749999987E+02-6.271549118E+00+
*       -5.967131783E+01               0
GRID*              10586               0-6.750000022E+021.8540745098E+01+
*       -5.706344379E+01               0
GRID*              10587               0-6.749999995E+024.0147878745E+01+
*       -4.458864540E+01               0
GRID*              10588               0-6.750000032E+025.4812562373E+01+
*       -2.440448366E+01               0
GRID*              10589               0-7.000000031E+025.4812825150E+01+
*       2.4403900202E+01               0
GRID*              10590               0-6.999999999E+024.0147842082E+01+
*       4.4588682066E+01               0
GRID*              10591               0-7.000000027E+021.8541313580E+01+
*       5.7063266924E+01               0
GRID*              10592               0-7.000000005E+02-6.271671674E+00+
*       5.9671310471E+01               0
GRID*              10593               0-7.000000023E+02-2.999974857E+01+
*       5.1961644409E+01               0
GRID*              10594               0-7.000000004E+02-4.854096228E+01+
*       3.5267166803E+01               0
GRID*              10595               0-7.000000012E+02-5.868880643E+01+
*       1.2474852857E+01               0
GRID*              10596               0-7.000000007E+02-5.868885775E+01+
*       -1.247457399E+01               0
GRID*              10597               0-6.999999993E+02-4.854095904E+01+
*       -3.526717093E+01               0
GRID*              10598               0-7.000000016E+02-3.000013977E+01+
*       -5.196140811E+01               0
GRID*              10599               0-6.999999988E+02-6.271565202E+00+
*       -5.967131687E+01               0
GRID*              10600               0-7.000000018E+021.8540787799E+01+
*       -5.706343051E+01               0
GRID*              10601               0-6.999999995E+024.0147878852E+01+
*       -4.458864530E+01               0
GRID*              10602               0-7.000000029E+025.4812581938E+01+
*       -2.440444022E+01               0
GRID*              10603               0-7.250000028E+025.4812804856E+01+
*       2.4403945262E+01               0
GRID*              10604               0-7.249999999E+024.0147840569E+01+
*       4.4588683579E+01               0
GRID*              10605               0-7.250000024E+021.8541275699E+01+
*       5.7063278710E+01               0
GRID*              10606               0-7.250000004E+02-6.271679556E+00+
*       5.9671309997E+01               0
GRID*              10607               0-7.250000022E+02-2.999976111E+01+
*       5.1961636837E+01               0
GRID*              10608               0-7.250000002E+02-4.854097229E+01+
*       3.5267154028E+01               0
GRID*              10609               0-7.250000015E+02-5.868879978E+01+
*       1.2474888982E+01               0
GRID*              10610               0-7.250000005E+02-5.868885304E+01+
*       -1.247459956E+01               0
GRID*              10611               0-7.250000002E+02-4.854102329E+01+
*       -3.526708892E+01               0
GRID*              10612               0-7.250000013E+02-3.000010903E+01+
*       -5.196142667E+01               0
GRID*              10613               0-7.249999990E+02-6.271590747E+00+
*       -5.967131533E+01               0
GRID*              10614               0-7.250000015E+021.8540830264E+01+
*       -5.706341730E+01               0
GRID*              10615               0-7.249999995E+024.0147878102E+01+
*       -4.458864605E+01               0
GRID*              10616               0-7.250000025E+025.4812602391E+01+
*       -2.440439481E+01               0
GRID*              10617               0-7.500000024E+025.4812783264E+01+
*       2.4403993203E+01               0
GRID*              10618               0-7.499999999E+024.0147839216E+01+
*       4.4588684932E+01               0
GRID*              10619               0-7.500000020E+021.8541229277E+01+
*       5.7063293153E+01               0
GRID*              10620               0-7.500000004E+02-6.271686661E+00+
*       5.9671309571E+01               0
GRID*              10621               0-7.500000019E+02-2.999978962E+01+
*       5.1961619615E+01               0
GRID*              10622               0-7.500000001E+02-4.854098140E+01+
*       3.5267142396E+01               0
GRID*              10623               0-7.500000014E+02-5.868879947E+01+
*       1.2474890670E+01               0
GRID*              10624               0-7.500000003E+02-5.868884870E+01+
*       -1.247462314E+01               0
GRID*              10625               0-7.500000008E+02-4.854106962E+01+
*       -3.526702977E+01               0
GRID*              10626               0-7.500000010E+02-3.000008018E+01+
*       -5.196144410E+01               0
GRID*              10627               0-7.499999994E+02-6.271630301E+00+
*       -5.967131296E+01               0
GRID*              10628               0-7.500000012E+021.8540871094E+01+
*       -5.706340459E+01               0
GRID*              10629               0-7.499999995E+024.0147876085E+01+
*       -4.458864806E+01               0
GRID*              10630               0-7.500000021E+025.4812622799E+01+
*       -2.440434950E+01               0
GRID*              10631               0-7.750000019E+025.4812761702E+01+
*       2.4404041080E+01               0
GRID*              10632               0-7.749999999E+024.0147838036E+01+
*       4.4588686112E+01               0
GRID*              10633               0-7.750000016E+021.8541178806E+01+
*       5.7063308856E+01               0
GRID*              10634               0-7.750000003E+02-6.271692900E+00+
*       5.9671309196E+01               0
GRID*              10635               0-7.750000015E+02-2.999982830E+01+
*       5.1961596253E+01               0
GRID*              10636               0-7.750000000E+02-4.854098947E+01+
*       3.5267132089E+01               0
GRID*              10637               0-7.750000012E+02-5.868880371E+01+
*       1.2474867621E+01               0
GRID*              10638               0-7.750000001E+02-5.868884481E+01+
*       -1.247464427E+01               0
GRID*              10639               0-7.750000010E+02-4.854108554E+01+
*       -3.526700945E+01               0
GRID*              10640               0-7.750000007E+02-3.000005395E+01+
*       -5.196145994E+01               0
GRID*              10641               0-7.749999999E+02-6.271691998E+00+
*       -5.967130925E+01               0
GRID*              10642               0-7.750000009E+021.8540908958E+01+
*       -5.706339281E+01               0
GRID*              10643               0-7.749999996E+024.0147872078E+01+
*       -4.458865207E+01               0
GRID*              10644               0-7.750000017E+025.4812642273E+01+
*       -2.440430626E+01               0
GRID*              10645               0-8.000000015E+025.4812741434E+01+
*       2.4404086082E+01               0
GRID*              10646               0-7.999999999E+024.0147837043E+01+
*       4.4588687105E+01               0
GRID*              10647               0-8.000000011E+021.8541128584E+01+
*       5.7063324481E+01               0
GRID*              10648               0-8.000000003E+02-6.271698188E+00+
*       5.9671308878E+01               0
GRID*              10649               0-8.000000011E+02-2.999987156E+01+
*       5.1961570116E+01               0
GRID*              10650               0-8.000000000E+02-4.854099637E+01+
*       3.5267123283E+01               0
GRID*              10651               0-8.000000008E+02-5.868881079E+01+
*       1.2474829167E+01               0
GRID*              10652               0-8.000000000E+02-5.868884146E+01+
*       -1.247466250E+01               0
GRID*              10653               0-8.000000009E+02-4.854107988E+01+
*       -3.526701668E+01               0
GRID*              10654               0-8.000000005E+02-3.000003104E+01+
*       -5.196147378E+01               0
GRID*              10655               0-8.000000004E+02-6.271755202E+00+
*       -5.967130545E+01               0
GRID*              10656               0-8.000000006E+021.8540942582E+01+
*       -5.706338235E+01               0
GRID*              10657               0-7.999999997E+024.0147864641E+01+
*       -4.458865951E+01               0
GRID*              10658               0-8.000000013E+025.4812659965E+01+
*       -2.440426697E+01               0
GRID*              10659               0-8.250000011E+025.4812723677E+01+
*       2.4404125510E+01               0
GRID*              10660               0-8.249999999E+024.0147836249E+01+
*       4.4588687899E+01               0
GRID*              10661               0-8.250000007E+021.8541082742E+01+
*       5.7063338744E+01               0
GRID*              10662               0-8.250000002E+02-6.271702441E+00+
*       5.9671308623E+01               0
GRID*              10663               0-8.250000007E+02-2.999991406E+01+
*       5.1961544449E+01               0
GRID*              10664               0-8.249999999E+02-4.854100196E+01+
*       3.5267116149E+01               0
GRID*              10665               0-8.250000005E+02-5.868881904E+01+
*       1.2474784328E+01               0
GRID*              10666               0-8.249999999E+02-5.868883872E+01+
*       -1.247467740E+01               0
GRID*              10667               0-8.250000006E+02-4.854106119E+01+
*       -3.526704054E+01               0
GRID*              10668               0-8.250000003E+02-3.000001212E+01+
*       -5.196148521E+01               0
GRID*              10669               0-8.250000005E+02-6.271767456E+00+
*       -5.967130472E+01               0
GRID*              10670               0-8.250000004E+021.8540970743E+01+
*       -5.706337359E+01               0
GRID*              10671               0-8.249999998E+024.0147850431E+01+
*       -4.458867372E+01               0
GRID*              10672               0-8.250000010E+025.4812675061E+01+
*       -2.440423345E+01               0
GRID*              10673               0-8.500000007E+025.4812709604E+01+
*       2.4404156756E+01               0
GRID*              10674               0-8.499999999E+024.0147835666E+01+
*       4.4588688482E+01               0
GRID*              10675               0-8.500000004E+021.8541045269E+01+
*       5.7063350402E+01               0
GRID*              10676               0-8.500000001E+02-6.271705579E+00+
*       5.9671308434E+01               0
GRID*              10677               0-8.500000004E+02-2.999995058E+01+
*       5.1961522387E+01               0
GRID*              10678               0-8.499999999E+02-4.854100611E+01+
*       3.5267110854E+01               0
GRID*              10679               0-8.500000001E+02-5.868882685E+01+
*       1.2474741859E+01               0
GRID*              10680               0-8.499999998E+02-5.868883667E+01+
*       -1.247468855E+01               0
GRID*              10681               0-8.500000003E+02-4.854103783E+01+
*       -3.526707036E+01               0
GRID*              10682               0-8.500000002E+02-2.999999783E+01+
*       -5.196149385E+01               0
GRID*              10683               0-8.500000004E+02-6.271749009E+00+
*       -5.967130583E+01               0
GRID*              10684               0-8.500000002E+021.8540992259E+01+
*       -5.706336690E+01               0
GRID*              10685               0-8.500000001E+024.0147826195E+01+
*       -4.458869795E+01               0
GRID*              10686               0-8.500000006E+025.4812686775E+01+
*       -2.440420745E+01               0
GRID*              10687               0-8.750000003E+025.4812700353E+01+
*       2.4404177298E+01               0
GRID*              10688               0-8.749999999E+024.0147835307E+01+
*       4.4588688841E+01               0
GRID*              10689               0-8.750000001E+021.8541020035E+01+
*       5.7063358254E+01               0
GRID*              10690               0-8.750000001E+02-6.271707519E+00+
*       5.9671308318E+01               0
GRID*              10691               0-8.750000001E+02-2.999997608E+01+
*       5.1961506979E+01               0
GRID*              10692               0-8.749999999E+02-4.854100869E+01+
*       3.5267107560E+01               0
GRID*              10693               0-8.750000000E+02-5.868883266E+01+
*       1.2474710286E+01               0
GRID*              10694               0-8.749999999E+02-5.868883538E+01+
*       -1.247469553E+01               0
GRID*              10695               0-8.750000001E+02-4.854101795E+01+
*       -3.526709573E+01               0
GRID*              10696               0-8.750000001E+02-2.999998880E+01+
*       -5.196149930E+01               0
GRID*              10697               0-8.750000002E+02-6.271721986E+00+
*       -5.967130745E+01               0
GRID*              10698               0-8.750000001E+021.8541005984E+01+
*       -5.706336263E+01               0
GRID*              10699               0-8.750000000E+024.0147827333E+01+
*       -4.458869681E+01               0
GRID*              10700               0-8.750000003E+025.4812694344E+01+
*       -2.440419064E+01               0
GRID*              10701               0-3.749999954E+015.4812691124E+01+
*       2.4404197790E+01               0
GRID*              10702               0-3.750000008E+014.8541007602E+01+
*       3.5267108947E+01               0
GRID*              10703               0-2.500000006E+014.8541008688E+01+
*       3.5267107560E+01               0
GRID*              10704               0-5.000000008E+014.8541006108E+01+
*       3.5267110854E+01               0
GRID*              10705               0-3.749999990E+014.0147823818E+01+
*       4.4588700330E+01               0
GRID*              10706               0-3.749999976E+012.9999965018E+01+
*       5.1961513664E+01               0
GRID*              10707               0-2.499999988E+012.9999976085E+01+
*       5.1961506979E+01               0
GRID*              10708               0-4.999999962E+012.9999950577E+01+
*       5.1961522387E+01               0
GRID*              10709               0-3.749999987E+011.8541000166E+01+
*       5.7063364435E+01               0
GRID*              10710               0-3.749999988E+016.2717067034E+00+
*       5.9671308367E+01               0
GRID*              10711               0-2.499999992E+016.2717075190E+00+
*       5.9671308318E+01               0
GRID*              10712               0-4.999999985E+016.2717055786E+00+
*       5.9671308434E+01               0
GRID*              10713               0-3.749999971E+01-6.271735200E+00+
*       5.9671306655E+01               0
GRID*              10714               0-3.749999977E+01-1.854103088E+01+
*       5.7063354878E+01               0
GRID*              10715               0-2.499999988E+01-1.854102003E+01+
*       5.7063358254E+01               0
GRID*              10716               0-4.999999963E+01-1.854104527E+01+
*       5.7063350402E+01               0
GRID*              10717               0-3.749999989E+01-2.999999262E+01+
*       5.1961496993E+01               0
GRID*              10718               0-3.750000010E+01-4.014783546E+01+
*       4.4588688690E+01               0
GRID*              10719               0-2.500000008E+01-4.014783531E+01+
*       4.4588688841E+01               0
GRID*              10720               0-5.000000012E+01-4.014783567E+01+
*       4.4588688482E+01               0
GRID*              10721               0-3.749999985E+01-4.854102695E+01+
*       3.5267084245E+01               0
GRID*              10722               0-3.749999950E+01-5.481270431E+01+
*       2.4404168520E+01               0
GRID*              10723               0-2.499999968E+01-5.481270035E+01+
*       2.4404177298E+01               0
GRID*              10724               0-4.999999931E+01-5.481270960E+01+
*       2.4404156756E+01               0
GRID*              10725               0-3.750000015E+01-5.868883592E+01+
*       1.2474692582E+01               0
GRID*              10726               0-3.750000000E+01-6.000000000E+01+
*       -3.515209061E-12               0
GRID*              10727               0-2.500000000E+01-6.000000000E+01+
*       -4.899622920E-12               0
GRID*              10728               0-5.000000000E+01-6.000000000E+01+
*       -5.600683659E-12               0
GRID*              10729               0-3.749999997E+01-5.868883011E+01+
*       -1.247472419E+01               0
GRID*              10730               0-3.749999954E+01-5.481269112E+01+
*       -2.440419779E+01               0
GRID*              10731               0-2.499999970E+01-5.481269434E+01+
*       -2.440419064E+01               0
GRID*              10732               0-4.999999937E+01-5.481268677E+01+
*       -2.440420745E+01               0
GRID*              10733               0-3.750000008E+01-4.854100760E+01+
*       -3.526710895E+01               0
GRID*              10734               0-3.750000010E+01-4.014783546E+01+
*       -4.458868869E+01               0
GRID*              10735               0-2.500000008E+01-4.014783531E+01+
*       -4.458868884E+01               0
GRID*              10736               0-5.000000012E+01-4.014783567E+01+
*       -4.458868848E+01               0
GRID*              10737               0-3.749999976E+01-2.999996502E+01+
*       -5.196151366E+01               0
GRID*              10738               0-3.749999987E+01-1.854100017E+01+
*       -5.706336444E+01               0
GRID*              10739               0-2.499999993E+01-1.854100598E+01+
*       -5.706336263E+01               0
GRID*              10740               0-4.999999980E+01-1.854099226E+01+
*       -5.706336690E+01               0
GRID*              10741               0-3.749999988E+01-6.271706703E+00+
*       -5.967130837E+01               0
GRID*              10742               0-3.749999971E+016.2717351998E+00+
*       -5.967130665E+01               0
GRID*              10743               0-2.499999983E+016.2717219857E+00+
*       -5.967130745E+01               0
GRID*              10744               0-4.999999960E+016.2717490087E+00+
*       -5.967130583E+01               0
GRID*              10745               0-3.749999977E+011.8541030885E+01+
*       -5.706335488E+01               0
GRID*              10746               0-3.749999976E+012.9999965018E+01+
*       -5.196151366E+01               0
GRID*              10747               0-2.499999988E+012.9999976085E+01+
*       -5.196150698E+01               0
GRID*              10748               0-4.999999962E+012.9999950577E+01+
*       -5.196152239E+01               0
GRID*              10749               0-3.750000010E+014.0147835458E+01+
*       -4.458868869E+01               0
GRID*              10750               0-3.750000008E+014.8541007602E+01+
*       -3.526710895E+01               0
GRID*              10751               0-2.500000006E+014.8541008688E+01+
*       -3.526710756E+01               0
GRID*              10752               0-5.000000008E+014.8541006108E+01+
*       -3.526711085E+01               0
GRID*              10753               0-3.749999950E+015.4812704306E+01+
*       -2.440416852E+01               0
GRID*              10754               0-6.249999920E+015.4812681389E+01+
*       2.4404219405E+01               0
GRID*              10755               0-6.250000008E+014.8541004222E+01+
*       3.5267113262E+01               0
GRID*              10756               0-7.500000007E+014.8541001960E+01+
*       3.5267116149E+01               0
GRID*              10757               0-6.250000004E+014.0147838284E+01+
*       4.4588685864E+01               0
GRID*              10758               0-6.249999945E+012.9999933381E+01+
*       5.1961532775E+01               0
GRID*              10759               0-7.499999926E+012.9999914055E+01+
*       5.1961544449E+01               0
GRID*              10760               0-6.249999972E+011.8540982405E+01+
*       5.7063369961E+01               0
GRID*              10761               0-6.249999983E+016.2717041546E+00+
*       5.9671308520E+01               0
GRID*              10762               0-7.499999980E+016.2717024414E+00+
*       5.9671308623E+01               0
GRID*              10763               0-6.249999952E+01-6.271760679E+00+
*       5.9671305124E+01               0
GRID*              10764               0-6.249999947E+01-1.854106272E+01+
*       5.7063344975E+01               0
GRID*              10765               0-7.499999929E+01-1.854108274E+01+
*       5.7063338744E+01               0
GRID*              10766               0-6.249999975E+01-3.000000435E+01+
*       5.1961489905E+01               0
GRID*              10767               0-6.250000013E+01-4.014783593E+01+
*       4.4588688218E+01               0
GRID*              10768               0-7.500000013E+01-4.014783625E+01+
*       4.4588687899E+01               0
GRID*              10769               0-6.249999956E+01-4.854104958E+01+
*       3.5267055359E+01               0
GRID*              10770               0-6.249999912E+01-5.481271611E+01+
*       2.4404142315E+01               0
GRID*              10771               0-7.499999891E+01-5.481272368E+01+
*       2.4404125510E+01               0
GRID*              10772               0-6.250000016E+01-5.868883760E+01+
*       1.2474683470E+01               0
GRID*              10773               0-6.250000000E+01-6.000000000E+01+
*       -4.188098588E-12               0
GRID*              10774               0-7.500000000E+01-6.000000000E+01+
*       -6.245401974E-12               0
GRID*              10775               0-6.249999971E+01-5.868882310E+01+
*       -1.247476226E+01               0
GRID*              10776               0-6.249999920E+01-5.481268139E+01+
*       -2.440421941E+01               0
GRID*              10777               0-7.499999902E+01-5.481267506E+01+
*       -2.440423345E+01               0
GRID*              10778               0-6.250000008E+01-4.854100422E+01+
*       -3.526711326E+01               0
GRID*              10779               0-6.250000013E+01-4.014783593E+01+
*       -4.458868822E+01               0
GRID*              10780               0-7.500000013E+01-4.014783625E+01+
*       -4.458868790E+01               0
GRID*              10781               0-6.249999945E+01-2.999993338E+01+
*       -5.196153277E+01               0
GRID*              10782               0-6.249999972E+01-1.854098240E+01+
*       -5.706336996E+01               0
GRID*              10783               0-7.499999962E+01-1.854097074E+01+
*       -5.706337359E+01               0
GRID*              10784               0-6.249999983E+01-6.271704155E+00+
*       -5.967130852E+01               0
GRID*              10785               0-6.249999952E+016.2717606788E+00+
*       -5.967130512E+01               0
GRID*              10786               0-7.499999948E+016.2717674558E+00+
*       -5.967130472E+01               0
GRID*              10787               0-6.249999947E+011.8541062715E+01+
*       -5.706334497E+01               0
GRID*              10788               0-6.249999945E+012.9999933381E+01+
*       -5.196153277E+01               0
GRID*              10789               0-7.499999926E+012.9999914055E+01+
*       -5.196154445E+01               0
GRID*              10790               0-6.250000013E+014.0147835930E+01+
*       -4.458868822E+01               0
GRID*              10791               0-6.250000008E+014.8541004222E+01+
*       -3.526711326E+01               0
GRID*              10792               0-7.500000007E+014.8541001960E+01+
*       -3.526711615E+01               0
GRID*              10793               0-6.249999912E+015.4812716108E+01+
*       -2.440414232E+01               0
GRID*              10794               0-8.749999884E+015.4812667888E+01+
*       2.4404249383E+01               0
GRID*              10795               0-8.750000005E+014.8540999337E+01+
*       3.5267119497E+01               0
GRID*              10796               0-1.000000000E+024.8540996371E+01+
*       3.5267123283E+01               0
GRID*              10797               0-8.750000027E+014.0147858741E+01+
*       4.4588665408E+01               0
GRID*              10798               0-8.749999907E+012.9999893234E+01+
*       5.1961557026E+01               0
GRID*              10799               0-9.999999886E+012.9999871563E+01+
*       5.1961570116E+01               0
GRID*              10800               0-8.749999951E+011.8540957421E+01+
*       5.7063377735E+01               0
GRID*              10801               0-8.749999977E+016.2717004491E+00+
*       5.9671308742E+01               0
GRID*              10802               0-9.999999975E+016.2716981878E+00+
*       5.9671308878E+01               0
GRID*              10803               0-8.749999950E+01-6.271766563E+00+
*       5.9671304771E+01               0
GRID*              10804               0-8.749999909E+01-1.854110486E+01+
*       5.7063331861E+01               0
GRID*              10805               0-9.999999888E+01-1.854112858E+01+
*       5.7063324481E+01               0
GRID*              10806               0-8.749999958E+01-3.000002104E+01+
*       5.1961479825E+01               0
GRID*              10807               0-8.750000014E+01-4.014783662E+01+
*       4.4588687528E+01               0
GRID*              10808               0-1.000000001E+02-4.014783704E+01+
*       4.4588687105E+01               0
GRID*              10809               0-8.749999926E+01-4.854107164E+01+
*       3.5267027202E+01               0
GRID*              10810               0-8.749999870E+01-5.481273217E+01+
*       2.4404106658E+01               0
GRID*              10811               0-9.999999849E+01-5.481274143E+01+
*       2.4404086082E+01               0
GRID*              10812               0-8.750000010E+01-5.868884001E+01+
*       1.2474670397E+01               0
GRID*              10813               0-8.750000000E+01-6.000000000E+01+
*       -4.861793007E-12               0
GRID*              10814               0-1.000000000E+02-6.000000000E+01+
*       -6.947267605E-12               0
GRID*              10815               0-8.749999936E+01-5.868881487E+01+
*       -1.247480699E+01               0
GRID*              10816               0-8.749999884E+01-5.481266789E+01+
*       -2.440424938E+01               0
GRID*              10817               0-9.999999865E+01-5.481265997E+01+
*       -2.440426697E+01               0
GRID*              10818               0-8.750000005E+01-4.854099934E+01+
*       -3.526711950E+01               0
GRID*              10819               0-8.750000014E+01-4.014783662E+01+
*       -4.458868753E+01               0
GRID*              10820               0-1.000000001E+02-4.014783704E+01+
*       -4.458868711E+01               0
GRID*              10821               0-8.749999907E+01-2.999989323E+01+
*       -5.196155703E+01               0
GRID*              10822               0-8.749999951E+01-1.854095742E+01+
*       -5.706337773E+01               0
GRID*              10823               0-9.999999940E+01-1.854094258E+01+
*       -5.706338235E+01               0
GRID*              10824               0-8.749999977E+01-6.271700449E+00+
*       -5.967130874E+01               0
GRID*              10825               0-8.749999950E+016.2717665634E+00+
*       -5.967130477E+01               0
GRID*              10826               0-9.999999961E+016.2717552017E+00+
*       -5.967130545E+01               0
GRID*              10827               0-8.749999909E+011.8541104863E+01+
*       -5.706333186E+01               0
GRID*              10828               0-8.749999907E+012.9999893234E+01+
*       -5.196155703E+01               0
GRID*              10829               0-9.999999886E+012.9999871563E+01+
*       -5.196157012E+01               0
GRID*              10830               0-8.750000014E+014.0147836620E+01+
*       -4.458868753E+01               0
GRID*              10831               0-8.750000005E+014.8540999337E+01+
*       -3.526711950E+01               0
GRID*              10832               0-1.000000000E+024.8540996371E+01+
*       -3.526712328E+01               0
GRID*              10833               0-8.749999870E+015.4812732167E+01+
*       -2.440410666E+01               0
GRID*              10834               0-1.124999985E+025.4812651393E+01+
*       2.4404286006E+01               0
GRID*              10835               0-1.125000000E+024.8540993078E+01+
*       3.5267127488E+01               0
GRID*              10836               0-1.250000000E+024.8540989473E+01+
*       3.5267132089E+01               0
GRID*              10837               0-1.125000004E+024.0147868928E+01+
*       4.4588655220E+01               0
GRID*              10838               0-1.124999987E+022.9999849695E+01+
*       5.1961583326E+01               0
GRID*              10839               0-1.249999985E+022.9999828295E+01+
*       5.1961596253E+01               0
GRID*              10840               0-1.124999993E+021.8540926377E+01+
*       5.7063387393E+01               0
GRID*              10841               0-1.124999997E+026.2716956679E+00+
*       5.9671309029E+01               0
GRID*              10842               0-1.249999997E+026.2716928997E+00+
*       5.9671309196E+01               0
GRID*              10843               0-1.124999998E+02-6.271730545E+00+
*       5.9671306935E+01               0
GRID*              10844               0-1.124999987E+02-1.854115340E+01+
*       5.7063316759E+01               0
GRID*              10845               0-1.249999984E+02-1.854117881E+01+
*       5.7063308856E+01               0
GRID*              10846               0-1.124999994E+02-3.000004204E+01+
*       5.1961467139E+01               0
GRID*              10847               0-1.125000001E+02-4.014783752E+01+
*       4.4588686632E+01               0
GRID*              10848               0-1.250000001E+02-4.014783804E+01+
*       4.4588686112E+01               0
GRID*              10849               0-1.124999991E+02-4.854108487E+01+
*       3.5267010308E+01               0
GRID*              10850               0-1.124999983E+02-5.481275133E+01+
*       2.4404064112E+01               0
GRID*              10851               0-1.249999981E+02-5.481276170E+01+
*       2.4404041080E+01               0
GRID*              10852               0-1.125000000E+02-5.868884306E+01+
*       1.2474653778E+01               0
GRID*              10853               0-1.125000000E+02-6.000000000E+01+
*       -5.562853746E-12               0
GRID*              10854               0-1.250000000E+02-6.000000000E+01+
*       -7.591985920E-12               0
GRID*              10855               0-1.124999990E+02-5.868880700E+01+
*       -1.247484975E+01               0
GRID*              10856               0-1.124999985E+02-5.481265139E+01+
*       -2.440428601E+01               0
GRID*              10857               0-1.249999983E+02-5.481264227E+01+
*       -2.440430626E+01               0
GRID*              10858               0-1.125000000E+02-4.854099308E+01+
*       -3.526712749E+01               0
GRID*              10859               0-1.125000001E+02-4.014783752E+01+
*       -4.458868663E+01               0
GRID*              10860               0-1.250000001E+02-4.014783804E+01+
*       -4.458868611E+01               0
GRID*              10861               0-1.124999987E+02-2.999984969E+01+
*       -5.196158333E+01               0
GRID*              10862               0-1.124999993E+02-1.854092638E+01+
*       -5.706338739E+01               0
GRID*              10863               0-1.249999991E+02-1.854090896E+01+
*       -5.706339281E+01               0
GRID*              10864               0-1.124999997E+02-6.271695668E+00+
*       -5.967130903E+01               0
GRID*              10865               0-1.124999998E+026.2717305447E+00+
*       -5.967130693E+01               0
GRID*              10866               0-1.250000001E+026.2716919981E+00+
*       -5.967130925E+01               0
GRID*              10867               0-1.124999987E+021.8541153403E+01+
*       -5.706331676E+01               0
GRID*              10868               0-1.124999987E+022.9999849695E+01+
*       -5.196158333E+01               0
GRID*              10869               0-1.249999985E+022.9999828295E+01+
*       -5.196159625E+01               0
GRID*              10870               0-1.125000001E+024.0147837516E+01+
*       -4.458868663E+01               0
GRID*              10871               0-1.125000000E+024.8540993078E+01+
*       -3.526712749E+01               0
GRID*              10872               0-1.250000000E+024.8540989473E+01+
*       -3.526713209E+01               0
GRID*              10873               0-1.124999983E+025.4812751329E+01+
*       -2.440406411E+01               0
GRID*              10874               0-1.374999981E+025.4812632706E+01+
*       2.4404327499E+01               0
GRID*              10875               0-1.374999999E+024.8540985575E+01+
*       3.5267137066E+01               0
GRID*              10876               0-1.499999999E+024.8540981400E+01+
*       3.5267142396E+01               0
GRID*              10877               0-1.375000004E+024.0147874396E+01+
*       4.4588649752E+01               0
GRID*              10878               0-1.374999983E+022.9999808040E+01+
*       5.1961608488E+01               0
GRID*              10879               0-1.499999981E+022.9999789620E+01+
*       5.1961619615E+01               0
GRID*              10880               0-1.374999990E+021.8540890477E+01+
*       5.7063398562E+01               0
GRID*              10881               0-1.374999997E+026.2716898937E+00+
*       5.9671309376E+01               0
GRID*              10882               0-1.499999996E+026.2716866606E+00+
*       5.9671309571E+01               0
GRID*              10883               0-1.375000004E+02-6.271657645E+00+
*       5.9671311313E+01               0
GRID*              10884               0-1.374999982E+02-1.854120427E+01+
*       5.7063300932E+01               0
GRID*              10885               0-1.499999980E+02-1.854122928E+01+
*       5.7063293153E+01               0
GRID*              10886               0-1.374999991E+02-3.000006670E+01+
*       5.1961452245E+01               0
GRID*              10887               0-1.375000001E+02-4.014783860E+01+
*       4.4588685545E+01               0
GRID*              10888               0-1.500000001E+02-4.014783922E+01+
*       4.4588684932E+01               0
GRID*              10889               0-1.374999991E+02-4.854108083E+01+
*       3.5267015470E+01               0
GRID*              10890               0-1.374999978E+02-5.481277240E+01+
*       2.4404017328E+01               0
GRID*              10891               0-1.499999976E+02-5.481278326E+01+
*       2.4403993203E+01               0
GRID*              10892               0-1.374999998E+02-5.868884670E+01+
*       1.2474634041E+01               0
GRID*              10893               0-1.375000000E+02-6.000000000E+01+
*       -6.235743273E-12               0
GRID*              10894               0-1.500000000E+02-6.000000000E+01+
*       -8.293046659E-12               0
GRID*              10895               0-1.374999987E+02-5.868880113E+01+
*       -1.247488165E+01               0
GRID*              10896               0-1.374999981E+02-5.481263271E+01+
*       -2.440432750E+01               0
GRID*              10897               0-1.499999979E+02-5.481262280E+01+
*       -2.440434950E+01               0
GRID*              10898               0-1.374999999E+02-4.854098557E+01+
*       -3.526713707E+01               0
GRID*              10899               0-1.375000001E+02-4.014783860E+01+
*       -4.458868554E+01               0
GRID*              10900               0-1.500000001E+02-4.014783922E+01+
*       -4.458868493E+01               0
GRID*              10901               0-1.374999983E+02-2.999980804E+01+
*       -5.196160849E+01               0
GRID*              10902               0-1.374999990E+02-1.854089048E+01+
*       -5.706339856E+01               0
GRID*              10903               0-1.499999988E+02-1.854087109E+01+
*       -5.706340459E+01               0
GRID*              10904               0-1.374999997E+02-6.271689894E+00+
*       -5.967130938E+01               0
GRID*              10905               0-1.375000004E+026.2716576447E+00+
*       -5.967131131E+01               0
GRID*              10906               0-1.500000006E+026.2716303015E+00+
*       -5.967131296E+01               0
GRID*              10907               0-1.374999982E+021.8541204275E+01+
*       -5.706330093E+01               0
GRID*              10908               0-1.374999983E+022.9999808040E+01+
*       -5.196160849E+01               0
GRID*              10909               0-1.499999981E+022.9999789620E+01+
*       -5.196161961E+01               0
GRID*              10910               0-1.375000001E+024.0147838604E+01+
*       -4.458868554E+01               0
GRID*              10911               0-1.374999999E+024.8540985575E+01+
*       -3.526713707E+01               0
GRID*              10912               0-1.499999999E+024.8540981400E+01+
*       -3.526714240E+01               0
GRID*              10913               0-1.374999978E+025.4812772399E+01+
*       -2.440401733E+01               0
GRID*              10914               0-1.624999977E+025.4812612657E+01+
*       2.4404372016E+01               0
GRID*              10915               0-1.624999998E+024.8540976965E+01+
*       3.5267148057E+01               0
GRID*              10916               0-1.749999998E+024.8540972288E+01+
*       3.5267154028E+01               0
GRID*              10917               0-1.625000005E+024.0147877287E+01+
*       4.4588646861E+01               0
GRID*              10918               0-1.624999980E+022.9999773737E+01+
*       5.1961629209E+01               0
GRID*              10919               0-1.749999978E+022.9999761109E+01+
*       5.1961636837E+01               0
GRID*              10920               0-1.624999987E+021.8540850968E+01+
*       5.7063410855E+01               0
GRID*              10921               0-1.624999996E+026.2716832111E+00+
*       5.9671309778E+01               0
GRID*              10922               0-1.749999996E+026.2716795561E+00+
*       5.9671309997E+01               0
GRID*              10923               0-1.625000008E+02-6.271608381E+00+
*       5.9671314273E+01               0
GRID*              10924               0-1.624999978E+02-1.854125327E+01+
*       5.7063285688E+01               0
GRID*              10925               0-1.749999976E+02-1.854127570E+01+
*       5.7063278710E+01               0
GRID*              10926               0-1.624999989E+02-3.000009432E+01+
*       5.1961435558E+01               0
GRID*              10927               0-1.625000001E+02-4.014783987E+01+
*       4.4588684277E+01               0
GRID*              10928               0-1.750000001E+02-4.014784057E+01+
*       4.4588683579E+01               0
GRID*              10929               0-1.624999995E+02-4.854105082E+01+
*       3.5267053778E+01               0
GRID*              10930               0-1.624999974E+02-5.481279414E+01+
*       2.4403969060E+01               0
GRID*              10931               0-1.749999972E+02-5.481280486E+01+
*       2.4403945262E+01               0
GRID*              10932               0-1.624999996E+02-5.868885082E+01+
*       1.2474611627E+01               0
GRID*              10933               0-1.625000000E+02-6.000000000E+01+
*       -6.880461587E-12               0
GRID*              10934               0-1.750000000E+02-6.000000000E+01+
*       -8.994912290E-12               0
GRID*              10935               0-1.624999985E+02-5.868879895E+01+
*       -1.247489352E+01               0
GRID*              10936               0-1.624999977E+02-5.481261266E+01+
*       -2.440437202E+01               0
GRID*              10937               0-1.749999975E+02-5.481260239E+01+
*       -2.440439481E+01               0
GRID*              10938               0-1.624999998E+02-4.854097696E+01+
*       -3.526714806E+01               0
GRID*              10939               0-1.625000001E+02-4.014783987E+01+
*       -4.458868428E+01               0
GRID*              10940               0-1.750000001E+02-4.014784057E+01+
*       -4.458868358E+01               0
GRID*              10941               0-1.624999980E+02-2.999977374E+01+
*       -5.196162921E+01               0
GRID*              10942               0-1.624999987E+02-1.854085097E+01+
*       -5.706341085E+01               0
GRID*              10943               0-1.749999985E+02-1.854083026E+01+
*       -5.706341730E+01               0
GRID*              10944               0-1.624999996E+02-6.271683211E+00+
*       -5.967130978E+01               0
GRID*              10945               0-1.625000008E+026.2716083810E+00+
*       -5.967131427E+01               0
GRID*              10946               0-1.750000010E+026.2715907469E+00+
*       -5.967131533E+01               0
GRID*              10947               0-1.624999978E+021.8541253270E+01+
*       -5.706328569E+01               0
GRID*              10948               0-1.624999980E+022.9999773737E+01+
*       -5.196162921E+01               0
GRID*              10949               0-1.749999978E+022.9999761109E+01+
*       -5.196163684E+01               0
GRID*              10950               0-1.625000001E+024.0147839871E+01+
*       -4.458868428E+01               0
GRID*              10951               0-1.624999998E+024.8540976965E+01+
*       -3.526714806E+01               0
GRID*              10952               0-1.749999998E+024.8540972288E+01+
*       -3.526715403E+01               0
GRID*              10953               0-1.624999974E+025.4812794138E+01+
*       -2.440396906E+01               0
GRID*              10954               0-1.874999973E+025.4812592113E+01+
*       2.4404417632E+01               0
GRID*              10955               0-1.874999997E+024.8540967387E+01+
*       3.5267160284E+01               0
GRID*              10956               0-1.999999996E+024.8540962280E+01+
*       3.5267166803E+01               0
GRID*              10957               0-1.875000005E+024.0147878605E+01+
*       4.4588645544E+01               0
GRID*              10958               0-1.874999978E+022.9999752471E+01+
*       5.1961642055E+01               0
GRID*              10959               0-1.999999977E+022.9999748574E+01+
*       5.1961644409E+01               0
GRID*              10960               0-1.874999983E+021.8540809150E+01+
*       5.7063423865E+01               0
GRID*              10961               0-1.874999996E+026.2716757066E+00+
*       5.9671310228E+01               0
GRID*              10962               0-1.999999995E+026.2716716739E+00+
*       5.9671310471E+01               0
GRID*              10963               0-1.875000011E+02-6.271576563E+00+
*       5.9671316184E+01               0
GRID*              10964               0-1.874999975E+02-1.854129600E+01+
*       5.7063272395E+01               0
GRID*              10965               0-1.999999973E+02-1.854131358E+01+
*       5.7063266924E+01               0
GRID*              10966               0-1.874999986E+02-3.000012421E+01+
*       5.1961417505E+01               0
GRID*              10967               0-1.875000001E+02-4.014784131E+01+
*       4.4588682842E+01               0
GRID*              10968               0-2.000000001E+02-4.014784208E+01+
*       4.4588682066E+01               0
GRID*              10969               0-1.875000003E+02-4.854098892E+01+
*       3.5267132796E+01               0
GRID*              10970               0-1.874999971E+02-5.481281525E+01+
*       2.4403922182E+01               0
GRID*              10971               0-1.999999969E+02-5.481282515E+01+
*       2.4403900202E+01               0
GRID*              10972               0-1.874999994E+02-5.868885535E+01+
*       1.2474586993E+01               0
GRID*              10973               0-1.875000000E+02-6.000000000E+01+
*       -7.582327218E-12               0
GRID*              10974               0-2.000000000E+02-6.000000000E+01+
*       -9.695973029E-12               0
GRID*              10975               0-1.874999986E+02-5.868880220E+01+
*       -1.247487585E+01               0
GRID*              10976               0-1.874999973E+02-5.481259211E+01+
*       -2.440441763E+01               0
GRID*              10977               0-1.999999971E+02-5.481258194E+01+
*       -2.440444022E+01               0
GRID*              10978               0-1.874999997E+02-4.854096739E+01+
*       -3.526716028E+01               0
GRID*              10979               0-1.875000001E+02-4.014784131E+01+
*       -4.458868284E+01               0
GRID*              10980               0-2.000000001E+02-4.014784208E+01+
*       -4.458868207E+01               0
GRID*              10981               0-1.874999978E+02-2.999975247E+01+
*       -5.196164206E+01               0
GRID*              10982               0-1.874999983E+02-1.854080915E+01+
*       -5.706342387E+01               0
GRID*              10983               0-1.999999982E+02-1.854078780E+01+
*       -5.706343051E+01               0
GRID*              10984               0-1.874999996E+02-6.271675707E+00+
*       -5.967131023E+01               0
GRID*              10985               0-1.875000011E+026.2715765635E+00+
*       -5.967131618E+01               0
GRID*              10986               0-2.000000012E+026.2715652019E+00+
*       -5.967131687E+01               0
GRID*              10987               0-1.874999975E+021.8541295996E+01+
*       -5.706327239E+01               0
GRID*              10988               0-1.874999978E+022.9999752470E+01+
*       -5.196164206E+01               0
GRID*              10989               0-1.999999977E+022.9999748574E+01+
*       -5.196164441E+01               0
GRID*              10990               0-1.875000001E+024.0147841306E+01+
*       -4.458868284E+01               0
GRID*              10991               0-1.874999997E+024.8540967387E+01+
*       -3.526716028E+01               0
GRID*              10992               0-1.999999996E+024.8540962280E+01+
*       -3.526716680E+01               0
GRID*              10993               0-1.874999971E+025.4812815250E+01+
*       -2.440392218E+01               0
GRID*              10994               0-2.124999970E+025.4812571984E+01+
*       2.4404462325E+01               0
GRID*              10995               0-2.124999996E+024.8540956986E+01+
*       3.5267173561E+01               0
GRID*              10996               0-2.249999995E+024.8540951525E+01+
*       3.5267180533E+01               0
GRID*              10997               0-2.125000005E+024.0147878888E+01+
*       4.4588645260E+01               0
GRID*              10998               0-2.124999978E+022.9999750191E+01+
*       5.1961643432E+01               0
GRID*              10999               0-2.249999978E+022.9999758113E+01+
*       5.1961638647E+01               0
GRID*              11000               0-2.124999980E+021.8540766388E+01+
*       5.7063437170E+01               0
GRID*              11001               0-2.124999995E+026.2716674692E+00+
*       5.9671310723E+01               0
GRID*              11002               0-2.249999995E+026.2716631042E+00+
*       5.9671310985E+01               0
GRID*              11003               0-2.125000012E+02-6.271556179E+00+
*       5.9671317408E+01               0
GRID*              11004               0-2.124999972E+02-1.854132785E+01+
*       5.7063262484E+01               0
GRID*              11005               0-2.249999971E+02-1.854133820E+01+
*       5.7063259265E+01               0
GRID*              11006               0-2.124999983E+02-3.000015561E+01+
*       5.1961398536E+01               0
GRID*              11007               0-2.125000001E+02-4.014784289E+01+
*       4.4588681254E+01               0
GRID*              11008               0-2.250000001E+02-4.014784374E+01+
*       4.4588680406E+01               0
GRID*              11009               0-2.125000010E+02-4.854093402E+01+
*       3.5267202885E+01               0
GRID*              11010               0-2.124999968E+02-5.481283438E+01+
*       2.4403879712E+01               0
GRID*              11011               0-2.249999966E+02-5.481284275E+01+
*       2.4403861119E+01               0
GRID*              11012               0-2.124999992E+02-5.868886021E+01+
*       1.2474560616E+01               0
GRID*              11013               0-2.125000000E+02-6.000000000E+01+
*       -8.283387958E-12               0
GRID*              11014               0-2.250000000E+02-6.000000000E+01+
*       -1.034069134E-11               0
GRID*              11015               0-2.124999990E+02-5.868881271E+01+
*       -1.247481873E+01               0
GRID*              11016               0-2.124999970E+02-5.481257198E+01+
*       -2.440446233E+01               0
GRID*              11017               0-2.249999968E+02-5.481256237E+01+
*       -2.440448366E+01               0
GRID*              11018               0-2.124999996E+02-4.854095699E+01+
*       -3.526717356E+01               0
GRID*              11019               0-2.125000001E+02-4.014784289E+01+
*       -4.458868125E+01               0
GRID*              11020               0-2.250000001E+02-4.014784374E+01+
*       -4.458868041E+01               0
GRID*              11021               0-2.124999978E+02-2.999975019E+01+
*       -5.196164343E+01               0
GRID*              11022               0-2.124999980E+02-1.854076639E+01+
*       -5.706343717E+01               0
GRID*              11023               0-2.249999978E+02-1.854074510E+01+
*       -5.706344379E+01               0
GRID*              11024               0-2.124999995E+02-6.271667469E+00+
*       -5.967131072E+01               0
GRID*              11025               0-2.125000012E+026.2715561792E+00+
*       -5.967131741E+01               0
GRID*              11026               0-2.250000013E+026.2715491177E+00+
*       -5.967131783E+01               0
GRID*              11027               0-2.124999972E+021.8541327852E+01+
*       -5.706326248E+01               0
GRID*              11028               0-2.124999978E+022.9999750191E+01+
*       -5.196164343E+01               0
GRID*              11029               0-2.249999978E+022.9999758113E+01+
*       -5.196163865E+01               0
GRID*              11030               0-2.125000001E+024.0147842894E+01+
*       -4.458868125E+01               0
GRID*              11031               0-2.124999996E+024.8540956986E+01+
*       -3.526717356E+01               0
GRID*              11032               0-2.249999995E+024.8540951525E+01+
*       -3.526718053E+01               0
GRID*              11033               0-2.124999968E+025.4812834378E+01+
*       -2.440387971E+01               0
GRID*              11034               0-2.374999967E+025.4812553232E+01+
*       2.4404503962E+01               0
GRID*              11035               0-2.374999994E+024.8540945915E+01+
*       3.5267187695E+01               0
GRID*              11036               0-2.499999993E+024.8540940177E+01+
*       3.5267195020E+01               0
GRID*              11037               0-2.375000005E+024.0147878452E+01+
*       4.4588645696E+01               0
GRID*              11038               0-2.374999980E+022.9999773156E+01+
*       5.1961629560E+01               0
GRID*              11039               0-2.499999982E+022.9999796162E+01+
*       5.1961615663E+01               0
GRID*              11040               0-2.374999976E+021.8540724119E+01+
*       5.7063450321E+01               0
GRID*              11041               0-2.374999994E+026.2716585907E+00+
*       5.9671311257E+01               0
GRID*              11042               0-2.499999994E+026.2716539407E+00+
*       5.9671311536E+01               0
GRID*              11043               0-2.375000013E+02-6.271543717E+00+
*       5.9671318157E+01               0
GRID*              11044               0-2.374999971E+02-1.854134398E+01+
*       5.7063257466E+01               0
GRID*              11045               0-2.499999971E+02-1.854134455E+01+
*       5.7063257289E+01               0
GRID*              11046               0-2.374999980E+02-3.000018775E+01+
*       5.1961379123E+01               0
GRID*              11047               0-2.375000000E+02-4.014784462E+01+
*       4.4588679525E+01               0
GRID*              11048               0-2.500000000E+02-4.014784554E+01+
*       4.4588678613E+01               0
GRID*              11049               0-2.375000015E+02-4.854089553E+01+
*       3.5267252018E+01               0
GRID*              11050               0-2.374999965E+02-5.481285008E+01+
*       2.4403844837E+01               0
GRID*              11051               0-2.499999964E+02-5.481285618E+01+
*       2.4403831297E+01               0
GRID*              11052               0-2.374999990E+02-5.868886529E+01+
*       1.2474532994E+01               0
GRID*              11053               0-2.375000000E+02-6.000000000E+01+
*       -8.956277485E-12               0
GRID*              11054               0-2.500000000E+02-6.000000000E+01+
*       -1.104255697E-11               0
GRID*              11055               0-2.374999999E+02-5.868883239E+01+
*       -1.247471179E+01               0
GRID*              11056               0-2.374999967E+02-5.481255323E+01+
*       -2.440450396E+01               0
GRID*              11057               0-2.499999965E+02-5.481254469E+01+
*       -2.440452293E+01               0
GRID*              11058               0-2.374999994E+02-4.854094591E+01+
*       -3.526718769E+01               0
GRID*              11059               0-2.375000000E+02-4.014784462E+01+
*       -4.458867953E+01               0
GRID*              11060               0-2.500000000E+02-4.014784554E+01+
*       -4.458867861E+01               0
GRID*              11061               0-2.374999980E+02-2.999977316E+01+
*       -5.196162956E+01               0
GRID*              11062               0-2.374999976E+02-1.854072412E+01+
*       -5.706345032E+01               0
GRID*              11063               0-2.499999975E+02-1.854070364E+01+
*       -5.706345669E+01               0
GRID*              11064               0-2.374999994E+02-6.271658591E+00+
*       -5.967131126E+01               0
GRID*              11065               0-2.375000013E+026.2715437175E+00+
*       -5.967131816E+01               0
GRID*              11066               0-2.500000014E+026.2715397369E+00+
*       -5.967131840E+01               0
GRID*              11067               0-2.374999971E+021.8541343980E+01+
*       -5.706325747E+01               0
GRID*              11068               0-2.374999980E+022.9999773156E+01+
*       -5.196162956E+01               0
GRID*              11069               0-2.499999982E+022.9999796162E+01+
*       -5.196161566E+01               0
GRID*              11070               0-2.375000000E+024.0147844623E+01+
*       -4.458867953E+01               0
GRID*              11071               0-2.374999994E+024.8540945915E+01+
*       -3.526718769E+01               0
GRID*              11072               0-2.499999993E+024.8540940177E+01+
*       -3.526719502E+01               0
GRID*              11073               0-2.374999965E+025.4812850085E+01+
*       -2.440384484E+01               0
GRID*              11074               0-2.624999964E+025.4812536879E+01+
*       2.4404540271E+01               0
GRID*              11075               0-2.624999993E+024.8540934331E+01+
*       3.5267202483E+01               0
GRID*              11076               0-2.749999992E+024.8540928398E+01+
*       3.5267210056E+01               0
GRID*              11077               0-2.625000005E+024.0147877498E+01+
*       4.4588646650E+01               0
GRID*              11078               0-2.624999985E+022.9999827999E+01+
*       5.1961596432E+01               0
GRID*              11079               0-2.749999989E+022.9999869566E+01+
*       5.1961571323E+01               0
GRID*              11080               0-2.624999973E+021.8540683873E+01+
*       5.7063462842E+01               0
GRID*              11081               0-2.624999994E+026.2716491665E+00+
*       5.9671311823E+01               0
GRID*              11082               0-2.749999993E+026.2716442807E+00+
*       5.9671312116E+01               0
GRID*              11083               0-2.625000014E+02-6.271536978E+00+
*       5.9671318561E+01               0
GRID*              11084               0-2.624999972E+02-1.854133922E+01+
*       5.7063258946E+01               0
GRID*              11085               0-2.749999973E+02-1.854132730E+01+
*       5.7063262654E+01               0
GRID*              11086               0-2.624999977E+02-3.000021979E+01+
*       5.1961359768E+01               0
GRID*              11087               0-2.625000000E+02-4.014784648E+01+
*       4.4588677670E+01               0
GRID*              11088               0-2.750000000E+02-4.014784745E+01+
*       4.4588676700E+01               0
GRID*              11089               0-2.625000018E+02-4.854086891E+01+
*       3.5267285998E+01               0
GRID*              11090               0-2.624999964E+02-5.481286085E+01+
*       2.4403820944E+01               0
GRID*              11091               0-2.749999964E+02-5.481286386E+01+
*       2.4403814241E+01               0
GRID*              11092               0-2.624999987E+02-5.868887051E+01+
*       1.2474504655E+01               0
GRID*              11093               0-2.625000000E+02-6.000000000E+01+
*       -9.629971903E-12               0
GRID*              11094               0-2.750000000E+02-6.000000000E+01+
*       -1.168727529E-11               0
GRID*              11095               0-2.625000009E+02-5.868885544E+01+
*       -1.247458653E+01               0
GRID*              11096               0-2.624999964E+02-5.481253688E+01+
*       -2.440454027E+01               0
GRID*              11097               0-2.749999963E+02-5.481252994E+01+
*       -2.440455567E+01               0
GRID*              11098               0-2.624999993E+02-4.854093433E+01+
*       -3.526720248E+01               0
GRID*              11099               0-2.625000000E+02-4.014784648E+01+
*       -4.458867767E+01               0
GRID*              11100               0-2.750000000E+02-4.014784745E+01+
*       -4.458867670E+01               0
GRID*              11101               0-2.624999985E+02-2.999982800E+01+
*       -5.196159643E+01               0
GRID*              11102               0-2.624999973E+02-1.854068387E+01+
*       -5.706346284E+01               0
GRID*              11103               0-2.749999971E+02-1.854066502E+01+
*       -5.706346871E+01               0
GRID*              11104               0-2.624999994E+02-6.271649167E+00+
*       -5.967131182E+01               0
GRID*              11105               0-2.625000014E+026.2715369785E+00+
*       -5.967131856E+01               0
GRID*              11106               0-2.750000014E+026.2715352794E+00+
*       -5.967131866E+01               0
GRID*              11107               0-2.624999972E+021.8541339223E+01+
*       -5.706325895E+01               0
GRID*              11108               0-2.624999985E+022.9999827999E+01+
*       -5.196159643E+01               0
GRID*              11109               0-2.749999989E+022.9999869566E+01+
*       -5.196157132E+01               0
GRID*              11110               0-2.625000000E+024.0147846478E+01+
*       -4.458867767E+01               0
GRID*              11111               0-2.624999993E+024.8540934331E+01+
*       -3.526720248E+01               0
GRID*              11112               0-2.749999992E+024.8540928398E+01+
*       -3.526721006E+01               0
GRID*              11113               0-2.624999964E+025.4812860845E+01+
*       -2.440382094E+01               0
GRID*              11114               0-2.874999962E+025.4812524022E+01+
*       2.4404568819E+01               0
GRID*              11115               0-2.874999991E+024.8540922401E+01+
*       3.5267217712E+01               0
GRID*              11116               0-2.999999990E+024.8540916361E+01+
*       3.5267225422E+01               0
GRID*              11117               0-2.875000004E+024.0147876160E+01+
*       4.4588647989E+01               0
GRID*              11118               0-2.874999994E+022.9999921796E+01+
*       5.1961539773E+01               0
GRID*              11119               0-3.000000000E+022.9999985660E+01+
*       5.1961501195E+01               0
GRID*              11120               0-2.874999970E+021.8540647286E+01+
*       5.7063474226E+01               0
GRID*              11121               0-2.874999993E+026.2716392962E+00+
*       5.9671312416E+01               0
GRID*              11122               0-2.999999993E+026.2716342262E+00+
*       5.9671312720E+01               0
GRID*              11123               0-2.875000014E+02-6.271534503E+00+
*       5.9671318710E+01               0
GRID*              11124               0-2.874999975E+02-1.854130806E+01+
*       5.7063268642E+01               0
GRID*              11125               0-2.999999977E+02-1.854128073E+01+
*       5.7063277144E+01               0
GRID*              11126               0-2.874999974E+02-3.000025085E+01+
*       5.1961341005E+01               0
GRID*              11127               0-2.875000000E+02-4.014784845E+01+
*       4.4588675703E+01               0
GRID*              11128               0-3.000000000E+02-4.014784947E+01+
*       4.4588674682E+01               0
GRID*              11129               0-2.875000020E+02-4.854085116E+01+
*       3.5267308657E+01               0
GRID*              11130               0-2.874999964E+02-5.481286502E+01+
*       2.4403811668E+01               0
GRID*              11131               0-2.999999965E+02-5.481286410E+01+
*       2.4403813727E+01               0
GRID*              11132               0-2.874999984E+02-5.868887575E+01+
*       1.2474476158E+01               0
GRID*              11133               0-2.875000000E+02-6.000000000E+01+
*       -1.036000875E-11               0
GRID*              11134               0-3.000000000E+02-6.000000000E+01+
*       -1.244467845E-11               0
GRID*              11135               0-2.875000017E+02-5.868887241E+01+
*       -1.247449433E+01               0
GRID*              11136               0-2.874999962E+02-5.481252402E+01+
*       -2.440456882E+01               0
GRID*              11137               0-2.999999962E+02-5.481251927E+01+
*       -2.440457937E+01               0
GRID*              11138               0-2.874999991E+02-4.854092240E+01+
*       -3.526721771E+01               0
GRID*              11139               0-2.875000000E+02-4.014784845E+01+
*       -4.458867570E+01               0
GRID*              11140               0-3.000000000E+02-4.014784947E+01+
*       -4.458867468E+01               0
GRID*              11141               0-2.874999994E+02-2.999992180E+01+
*       -5.196153977E+01               0
GRID*              11142               0-2.874999970E+02-1.854064729E+01+
*       -5.706347423E+01               0
GRID*              11143               0-2.999999969E+02-1.854063091E+01+
*       -5.706347932E+01               0
GRID*              11144               0-2.874999993E+02-6.271639296E+00+
*       -5.967131242E+01               0
GRID*              11145               0-2.875000014E+026.2715345034E+00+
*       -5.967131871E+01               0
GRID*              11146               0-3.000000014E+026.2715345355E+00+
*       -5.967131871E+01               0
GRID*              11147               0-2.874999975E+021.8541308059E+01+
*       -5.706326864E+01               0
GRID*              11148               0-2.874999994E+022.9999921796E+01+
*       -5.196153977E+01               0
GRID*              11149               0-3.000000000E+022.9999985660E+01+
*       -5.196150120E+01               0
GRID*              11150               0-2.875000000E+024.0147848445E+01+
*       -4.458867570E+01               0
GRID*              11151               0-2.874999991E+024.8540922401E+01+
*       -3.526721771E+01               0
GRID*              11152               0-2.999999990E+024.8540916361E+01+
*       -3.526722542E+01               0
GRID*              11153               0-2.874999964E+025.4812865023E+01+
*       -2.440381167E+01               0
GRID*              11154               0-3.124999961E+025.4812515846E+01+
*       2.4404586972E+01               0
GRID*              11155               0-3.124999989E+024.8540910303E+01+
*       3.5267233156E+01               0
GRID*              11156               0-3.249999989E+024.8540904250E+01+
*       3.5267240883E+01               0
GRID*              11157               0-3.125000004E+024.0147874532E+01+
*       4.4588649616E+01               0
GRID*              11158               0-3.125000006E+023.0000050998E+01+
*       5.1961461727E+01               0
GRID*              11159               0-3.250000011E+023.0000107669E+01+
*       5.1961427495E+01               0
GRID*              11160               0-3.124999967E+021.8540616124E+01+
*       5.7063483921E+01               0
GRID*              11161               0-3.124999992E+026.2716290843E+00+
*       5.9671313029E+01               0
GRID*              11162               0-3.249999992E+026.2716238846E+00+
*       5.9671313341E+01               0
GRID*              11163               0-3.125000014E+02-6.271535278E+00+
*       5.9671318664E+01               0
GRID*              11164               0-3.124999980E+02-1.854124452E+01+
*       5.7063288409E+01               0
GRID*              11165               0-3.249999984E+02-1.854119861E+01+
*       5.7063302694E+01               0
GRID*              11166               0-3.124999972E+02-3.000027998E+01+
*       5.1961323409E+01               0
GRID*              11167               0-3.125000000E+02-4.014785051E+01+
*       4.4588673638E+01               0
GRID*              11168               0-3.249999999E+02-4.014785158E+01+
*       4.4588672573E+01               0
GRID*              11169               0-3.125000022E+02-4.854084020E+01+
*       3.5267322644E+01               0
GRID*              11170               0-3.124999966E+02-5.481286085E+01+
*       2.4403820939E+01               0
GRID*              11171               0-3.249999967E+02-5.481285503E+01+
*       2.4403833853E+01               0
GRID*              11172               0-3.124999982E+02-5.868888091E+01+
*       1.2474448102E+01               0
GRID*              11173               0-3.125000000E+02-6.000000000E+01+
*       -1.103289827E-11               0
GRID*              11174               0-3.250000000E+02-6.000000000E+01+
*       -1.309020166E-11               0
GRID*              11175               0-3.125000022E+02-5.868888462E+01+
*       -1.247442795E+01               0
GRID*              11176               0-3.124999961E+02-5.481251585E+01+
*       -2.440458697E+01               0
GRID*              11177               0-3.249999961E+02-5.481251391E+01+
*       -2.440459126E+01               0
GRID*              11178               0-3.124999989E+02-4.854091030E+01+
*       -3.526723316E+01               0
GRID*              11179               0-3.125000000E+02-4.014785051E+01+
*       -4.458867364E+01               0
GRID*              11180               0-3.249999999E+02-4.014785157E+01+
*       -4.458867257E+01               0
GRID*              11181               0-3.125000006E+02-3.000005100E+01+
*       -5.196146173E+01               0
GRID*              11182               0-3.124999967E+02-1.854061612E+01+
*       -5.706348392E+01               0
GRID*              11183               0-3.249999966E+02-1.854060317E+01+
*       -5.706348795E+01               0
GRID*              11184               0-3.124999992E+02-6.271629084E+00+
*       -5.967131303E+01               0
GRID*              11185               0-3.125000014E+026.2715352777E+00+
*       -5.967131866E+01               0
GRID*              11186               0-3.250000014E+026.2715366459E+00+
*       -5.967131858E+01               0
GRID*              11187               0-3.124999980E+021.8541244524E+01+
*       -5.706328841E+01               0
GRID*              11188               0-3.125000006E+023.0000050998E+01+
*       -5.196146173E+01               0
GRID*              11189               0-3.250000011E+023.0000107669E+01+
*       -5.196142750E+01               0
GRID*              11190               0-3.125000000E+024.0147850510E+01+
*       -4.458867364E+01               0
GRID*              11191               0-3.124999989E+024.8540910303E+01+
*       -3.526723316E+01               0
GRID*              11192               0-3.249999989E+024.8540904250E+01+
*       -3.526724088E+01               0
GRID*              11193               0-3.124999966E+025.4812860848E+01+
*       -2.440382094E+01               0
GRID*              11194               0-3.374999962E+025.4812513646E+01+
*       2.4404591857E+01               0
GRID*              11195               0-3.374999988E+024.8540898228E+01+
*       3.5267248571E+01               0
GRID*              11196               0-3.499999987E+024.8540892262E+01+
*       3.5267256186E+01               0
GRID*              11197               0-3.375000004E+024.0147872686E+01+
*       4.4588651462E+01               0
GRID*              11198               0-3.375000016E+023.0000156595E+01+
*       5.1961397941E+01               0
GRID*              11199               0-3.500000020E+023.0000198576E+01+
*       5.1961372582E+01               0
GRID*              11200               0-3.374999965E+021.8540592315E+01+
*       5.7063491329E+01               0
GRID*              11201               0-3.374999991E+026.2716186417E+00+
*       5.9671313656E+01               0
GRID*              11202               0-3.499999991E+026.2716133705E+00+
*       5.9671313973E+01               0
GRID*              11203               0-3.375000014E+02-6.271538567E+00+
*       5.9671318466E+01               0
GRID*              11204               0-3.374999989E+02-1.854114211E+01+
*       5.7063320271E+01               0
GRID*              11205               0-3.499999995E+02-1.854107412E+01+
*       5.7063341425E+01               0
GRID*              11206               0-3.374999969E+02-3.000030614E+01+
*       5.1961307606E+01               0
GRID*              11207               0-3.374999999E+02-4.014785266E+01+
*       4.4588671490E+01               0
GRID*              11208               0-3.499999999E+02-4.014785376E+01+
*       4.4588670390E+01               0
GRID*              11209               0-3.375000022E+02-4.854083455E+01+
*       3.5267329862E+01               0
GRID*              11210               0-3.374999969E+02-5.481284639E+01+
*       2.4403853046E+01               0
GRID*              11211               0-3.499999972E+02-5.481283464E+01+
*       2.4403879124E+01               0
GRID*              11212               0-3.374999979E+02-5.868888588E+01+
*       1.2474421135E+01               0
GRID*              11213               0-3.375000000E+02-6.000000000E+01+
*       -1.170578780E-11               0
GRID*              11214               0-3.500000000E+02-6.000000000E+01+
*       -1.379126240E-11               0
GRID*              11215               0-3.375000026E+02-5.868889311E+01+
*       -1.247438182E+01               0
GRID*              11216               0-3.374999962E+02-5.481251365E+01+
*       -2.440459186E+01               0
GRID*              11217               0-3.499999962E+02-5.481251523E+01+
*       -2.440458835E+01               0
GRID*              11218               0-3.374999988E+02-4.854089823E+01+
*       -3.526724857E+01               0
GRID*              11219               0-3.374999999E+02-4.014785266E+01+
*       -4.458867149E+01               0
GRID*              11220               0-3.499999999E+02-4.014785376E+01+
*       -4.458867039E+01               0
GRID*              11221               0-3.375000016E+02-3.000015659E+01+
*       -5.196139794E+01               0
GRID*              11222               0-3.374999965E+02-1.854059231E+01+
*       -5.706349133E+01               0
GRID*              11223               0-3.499999965E+02-1.854058382E+01+
*       -5.706349397E+01               0
GRID*              11224               0-3.374999991E+02-6.271618642E+00+
*       -5.967131366E+01               0
GRID*              11225               0-3.375000014E+026.2715385670E+00+
*       -5.967131847E+01               0
GRID*              11226               0-3.500000014E+026.2715409771E+00+
*       -5.967131832E+01               0
GRID*              11227               0-3.374999989E+021.8541142115E+01+
*       -5.706332027E+01               0
GRID*              11228               0-3.375000016E+023.0000156595E+01+
*       -5.196139794E+01               0
GRID*              11229               0-3.500000020E+023.0000198576E+01+
*       -5.196137258E+01               0
GRID*              11230               0-3.374999999E+024.0147852658E+01+
*       -4.458867149E+01               0
GRID*              11231               0-3.374999988E+024.8540898228E+01+
*       -3.526724857E+01               0
GRID*              11232               0-3.499999987E+024.8540892262E+01+
*       -3.526725619E+01               0
GRID*              11233               0-3.374999969E+025.4812846387E+01+
*       -2.440385305E+01               0
GRID*              11234               0-3.624999963E+025.4812518851E+01+
*       2.4404580300E+01               0
GRID*              11235               0-3.624999986E+024.8540886381E+01+
*       3.5267263694E+01               0
GRID*              11236               0-3.749999985E+024.8540880614E+01+
*       3.5267271056E+01               0
GRID*              11237               0-3.625000004E+024.0147870676E+01+
*       4.4588653472E+01               0
GRID*              11238               0-3.625000023E+023.0000234309E+01+
*       5.1961350997E+01               0
GRID*              11239               0-3.750000026E+023.0000264407E+01+
*       5.1961332816E+01               0
GRID*              11240               0-3.624999964E+021.8540577982E+01+
*       5.7063495788E+01               0
GRID*              11241               0-3.624999991E+026.2716080867E+00+
*       5.9671314290E+01               0
GRID*              11242               0-3.749999990E+026.2716028065E+00+
*       5.9671314607E+01               0
GRID*              11243               0-3.625000014E+02-6.271543820E+00+
*       5.9671318151E+01               0
GRID*              11244               0-3.625000001E+02-1.854099416E+01+
*       5.7063366305E+01               0
GRID*              11245               0-3.750000008E+02-1.854091742E+01+
*       5.7063390180E+01               0
GRID*              11246               0-3.624999967E+02-3.000032820E+01+
*       5.1961294283E+01               0
GRID*              11247               0-3.624999999E+02-4.014785487E+01+
*       4.4588669275E+01               0
GRID*              11248               0-3.749999999E+02-4.014785600E+01+
*       4.4588668148E+01               0
GRID*              11249               0-3.625000022E+02-4.854083309E+01+
*       3.5267331725E+01               0
GRID*              11250               0-3.624999975E+02-5.481281951E+01+
*       2.4403912729E+01               0
GRID*              11251               0-3.749999979E+02-5.481280068E+01+
*       2.4403954538E+01               0
GRID*              11252               0-3.624999977E+02-5.868889051E+01+
*       1.2474395967E+01               0
GRID*              11253               0-3.625000000E+02-6.000000000E+01+
*       -1.237867733E-11               0
GRID*              11254               0-3.750000000E+02-6.000000000E+01+
*       -1.443598071E-11               0
GRID*              11255               0-3.625000028E+02-5.868889863E+01+
*       -1.247435184E+01               0
GRID*              11256               0-3.624999963E+02-5.481251885E+01+
*       -2.440458030E+01               0
GRID*              11257               0-3.749999965E+02-5.481252472E+01+
*       -2.440456726E+01               0
GRID*              11258               0-3.624999986E+02-4.854088638E+01+
*       -3.526726369E+01               0
GRID*              11259               0-3.624999999E+02-4.014785487E+01+
*       -4.458866927E+01               0
GRID*              11260               0-3.749999999E+02-4.014785600E+01+
*       -4.458866815E+01               0
GRID*              11261               0-3.625000023E+02-3.000023431E+01+
*       -5.196135100E+01               0
GRID*              11262               0-3.624999964E+02-1.854057798E+01+
*       -5.706349579E+01               0
GRID*              11263               0-3.749999964E+02-1.854057510E+01+
*       -5.706349669E+01               0
GRID*              11264               0-3.624999991E+02-6.271608087E+00+
*       -5.967131429E+01               0
GRID*              11265               0-3.625000014E+026.2715438200E+00+
*       -5.967131815E+01               0
GRID*              11266               0-3.750000014E+026.2715470458E+00+
*       -5.967131796E+01               0
GRID*              11267               0-3.625000001E+021.8540994156E+01+
*       -5.706336631E+01               0
GRID*              11268               0-3.625000023E+023.0000234309E+01+
*       -5.196135100E+01               0
GRID*              11269               0-3.750000026E+023.0000264407E+01+
*       -5.196133282E+01               0
GRID*              11270               0-3.624999999E+024.0147854873E+01+
*       -4.458866927E+01               0
GRID*              11271               0-3.624999986E+024.8540886381E+01+
*       -3.526726369E+01               0
GRID*              11272               0-3.749999985E+024.8540880614E+01+
*       -3.526727106E+01               0
GRID*              11273               0-3.624999975E+025.4812819508E+01+
*       -2.440391273E+01               0
GRID*              11274               0-3.874999967E+025.4812533058E+01+
*       2.4404548754E+01               0
GRID*              11275               0-3.874999984E+024.8540874991E+01+
*       3.5267278235E+01               0
GRID*              11276               0-3.999999983E+024.8540869543E+01+
*       3.5267285189E+01               0
GRID*              11277               0-3.875000003E+024.0147868544E+01+
*       4.4588655604E+01               0
GRID*              11278               0-3.875000029E+023.0000289411E+01+
*       5.1961317712E+01               0
GRID*              11279               0-4.000000031E+023.0000309803E+01+
*       5.1961305394E+01               0
GRID*              11280               0-3.874999964E+021.8540575494E+01+
*       5.7063496562E+01               0
GRID*              11281               0-3.874999990E+026.2715975472E+00+
*       5.9671314923E+01               0
GRID*              11282               0-3.999999990E+026.2715923264E+00+
*       5.9671315237E+01               0
GRID*              11283               0-3.875000013E+02-6.271550610E+00+
*       5.9671317743E+01               0
GRID*              11284               0-3.875000013E+02-1.854085076E+01+
*       5.7063410918E+01               0
GRID*              11285               0-4.000000018E+02-1.854079327E+01+
*       5.7063428807E+01               0
GRID*              11286               0-3.874999966E+02-3.000034488E+01+
*       5.1961284204E+01               0
GRID*              11287               0-3.874999999E+02-4.014785714E+01+
*       4.4588667010E+01               0
GRID*              11288               0-3.999999998E+02-4.014785828E+01+
*       4.4588665864E+01               0
GRID*              11289               0-3.875000022E+02-4.854083497E+01+
*       3.5267329319E+01               0
GRID*              11290               0-3.874999984E+02-5.481277783E+01+
*       2.4404005277E+01               0
GRID*              11291               0-3.999999989E+02-5.481275061E+01+
*       2.4404065716E+01               0
GRID*              11292               0-3.874999975E+02-5.868889466E+01+
*       1.2474373379E+01               0
GRID*              11293               0-3.875000000E+02-6.000000000E+01+
*       -1.305156685E-11               0
GRID*              11294               0-4.000000000E+02-6.000000000E+01+
*       -1.513704145E-11               0
GRID*              11295               0-3.875000029E+02-5.868890176E+01+
*       -1.247433484E+01               0
GRID*              11296               0-3.874999967E+02-5.481253306E+01+
*       -2.440454875E+01               0
GRID*              11297               0-3.999999969E+02-5.481254409E+01+
*       -2.440452425E+01               0
GRID*              11298               0-3.874999984E+02-4.854087499E+01+
*       -3.526727824E+01               0
GRID*              11299               0-3.874999999E+02-4.014785714E+01+
*       -4.458866701E+01               0
GRID*              11300               0-3.999999998E+02-4.014785828E+01+
*       -4.458866586E+01               0
GRID*              11301               0-3.875000029E+02-3.000028941E+01+
*       -5.196131771E+01               0
GRID*              11302               0-3.874999964E+02-1.854057549E+01+
*       -5.706349656E+01               0
GRID*              11303               0-3.999999964E+02-1.854057951E+01+
*       -5.706349531E+01               0
GRID*              11304               0-3.874999990E+02-6.271597547E+00+
*       -5.967131492E+01               0
GRID*              11305               0-3.875000013E+026.2715506098E+00+
*       -5.967131774E+01               0
GRID*              11306               0-4.000000013E+026.2715544720E+00+
*       -5.967131751E+01               0
GRID*              11307               0-3.875000013E+021.8540850764E+01+
*       -5.706341092E+01               0
GRID*              11308               0-3.875000029E+023.0000289411E+01+
*       -5.196131771E+01               0
GRID*              11309               0-4.000000031E+023.0000309803E+01+
*       -5.196130539E+01               0
GRID*              11310               0-3.874999999E+024.0147857138E+01+
*       -4.458866701E+01               0
GRID*              11311               0-3.874999984E+024.8540874991E+01+
*       -3.526727824E+01               0
GRID*              11312               0-3.999999983E+024.8540869543E+01+
*       -3.526728519E+01               0
GRID*              11313               0-3.874999984E+025.4812777826E+01+
*       -2.440400528E+01               0
GRID*              11314               0-4.124999972E+025.4812558074E+01+
*       2.4404493209E+01               0
GRID*              11315               0-4.124999983E+024.8540864306E+01+
*       3.5267291875E+01               0
GRID*              11316               0-4.249999982E+024.8540859316E+01+
*       3.5267298246E+01               0
GRID*              11317               0-4.125000003E+024.0147866326E+01+
*       4.4588657822E+01               0
GRID*              11318               0-4.125000032E+023.0000326013E+01+
*       5.1961295603E+01               0
GRID*              11319               0-4.250000033E+023.0000338428E+01+
*       5.1961288104E+01               0
GRID*              11320               0-4.124999965E+021.8540587528E+01+
*       5.7063492818E+01               0
GRID*              11321               0-4.124999989E+026.2715871631E+00+
*       5.9671315547E+01               0
GRID*              11322               0-4.249999989E+026.2715820771E+00+
*       5.9671315853E+01               0
GRID*              11323               0-4.125000013E+02-6.271558596E+00+
*       5.9671317263E+01               0
GRID*              11324               0-4.125000022E+02-1.854074411E+01+
*       5.7063444101E+01               0
GRID*              11325               0-4.250000026E+02-1.854070256E+01+
*       5.7063457030E+01               0
GRID*              11326               0-4.124999965E+02-3.000035477E+01+
*       5.1961278229E+01               0
GRID*              11327               0-4.124999998E+02-4.014785944E+01+
*       4.4588664712E+01               0
GRID*              11328               0-4.249999998E+02-4.014786059E+01+
*       4.4588663557E+01               0
GRID*              11329               0-4.125000021E+02-4.854083953E+01+
*       3.5267323499E+01               0
GRID*              11330               0-4.124999996E+02-5.481271865E+01+
*       2.4404136681E+01               0
GRID*              11331               0-4.250000003E+02-5.481268238E+01+
*       2.4404217194E+01               0
GRID*              11332               0-4.124999973E+02-5.868889819E+01+
*       1.2474354250E+01               0
GRID*              11333               0-4.125000000E+02-6.000000000E+01+
*       -1.375343249E-11               0
GRID*              11334               0-4.250000000E+02-6.000000000E+01+
*       -1.583890708E-11               0
GRID*              11335               0-4.125000030E+02-5.868890294E+01+
*       -1.247432839E+01               0
GRID*              11336               0-4.124999972E+02-5.481255807E+01+
*       -2.440449321E+01               0
GRID*              11337               0-4.249999976E+02-5.481257527E+01+
*       -2.440445503E+01               0
GRID*              11338               0-4.124999983E+02-4.854086431E+01+
*       -3.526729187E+01               0
GRID*              11339               0-4.124999998E+02-4.014785944E+01+
*       -4.458866471E+01               0
GRID*              11340               0-4.249999998E+02-4.014786059E+01+
*       -4.458866356E+01               0
GRID*              11341               0-4.125000032E+02-3.000032601E+01+
*       -5.196129560E+01               0
GRID*              11342               0-4.124999965E+02-1.854058753E+01+
*       -5.706349282E+01               0
GRID*              11343               0-4.249999966E+02-1.854059993E+01+
*       -5.706348896E+01               0
GRID*              11344               0-4.124999989E+02-6.271587163E+00+
*       -5.967131555E+01               0
GRID*              11345               0-4.125000013E+026.2715585961E+00+
*       -5.967131726E+01               0
GRID*              11346               0-4.250000012E+026.2715629490E+00+
*       -5.967131700E+01               0
GRID*              11347               0-4.125000022E+021.8540744111E+01+
*       -5.706344410E+01               0
GRID*              11348               0-4.125000032E+023.0000326013E+01+
*       -5.196129560E+01               0
GRID*              11349               0-4.250000033E+023.0000338427E+01+
*       -5.196128810E+01               0
GRID*              11350               0-4.124999998E+024.0147859436E+01+
*       -4.458866471E+01               0
GRID*              11351               0-4.124999983E+024.8540864306E+01+
*       -3.526729187E+01               0
GRID*              11352               0-4.249999982E+024.8540859316E+01+
*       -3.526729825E+01               0
GRID*              11353               0-4.124999996E+025.4812718646E+01+
*       -2.440413668E+01               0
GRID*              11354               0-4.374999980E+025.4812595973E+01+
*       2.4404409060E+01               0
GRID*              11355               0-4.374999981E+024.8540854611E+01+
*       3.5267304252E+01               0
GRID*              11356               0-4.499999981E+024.8540850233E+01+
*       3.5267309840E+01               0
GRID*              11357               0-4.375000003E+024.0147864052E+01+
*       4.4588660096E+01               0
GRID*              11358               0-4.375000034E+023.0000347397E+01+
*       5.1961282686E+01               0
GRID*              11359               0-4.500000035E+023.0000353238E+01+
*       5.1961279157E+01               0
GRID*              11360               0-4.374999967E+021.8540617153E+01+
*       5.7063483601E+01               0
GRID*              11361               0-4.374999989E+026.2715770894E+00+
*       5.9671316152E+01               0
GRID*              11362               0-4.499999988E+026.2715722225E+00+
*       5.9671316444E+01               0
GRID*              11363               0-4.375000012E+02-6.271567500E+00+
*       5.9671316728E+01               0
GRID*              11364               0-4.375000029E+02-1.854066794E+01+
*       5.7063467800E+01               0
GRID*              11365               0-4.500000031E+02-1.854063965E+01+
*       5.7063476600E+01               0
GRID*              11366               0-4.374999965E+02-3.000035624E+01+
*       5.1961277343E+01               0
GRID*              11367               0-4.374999998E+02-4.014786175E+01+
*       4.4588662401E+01               0
GRID*              11368               0-4.499999998E+02-4.014786290E+01+
*       4.4588661246E+01               0
GRID*              11369               0-4.375000020E+02-4.854084623E+01+
*       3.5267314953E+01               0
GRID*              11370               0-4.375000009E+02-5.481264917E+01+
*       2.4404290937E+01               0
GRID*              11371               0-4.500000015E+02-5.481262049E+01+
*       2.4404354616E+01               0
GRID*              11372               0-4.374999972E+02-5.868890089E+01+
*       1.2474339576E+01               0
GRID*              11373               0-4.375000000E+02-6.000000000E+01+
*       -1.445449322E-11               0
GRID*              11374               0-4.500000000E+02-6.000000000E+01+
*       -1.651219906E-11               0
GRID*              11375               0-4.375000029E+02-5.868890255E+01+
*       -1.247433051E+01               0
GRID*              11376               0-4.374999980E+02-5.481259597E+01+
*       -2.440440906E+01               0
GRID*              11377               0-4.499999985E+02-5.481262049E+01+
*       -2.440435462E+01               0
GRID*              11378               0-4.374999981E+02-4.854085461E+01+
*       -3.526730425E+01               0
GRID*              11379               0-4.374999998E+02-4.014786175E+01+
*       -4.458866240E+01               0
GRID*              11380               0-4.499999998E+02-4.014786290E+01+
*       -4.458866125E+01               0
GRID*              11381               0-4.375000034E+02-3.000034740E+01+
*       -5.196128269E+01               0
GRID*              11382               0-4.374999967E+02-1.854061715E+01+
*       -5.706348360E+01               0
GRID*              11383               0-4.499999969E+02-1.854063965E+01+
*       -5.706347660E+01               0
GRID*              11384               0-4.374999989E+02-6.271577089E+00+
*       -5.967131615E+01               0
GRID*              11385               0-4.375000012E+026.2715675004E+00+
*       -5.967131673E+01               0
GRID*              11386               0-4.500000012E+026.2715722225E+00+
*       -5.967131644E+01               0
GRID*              11387               0-4.375000029E+021.8540667938E+01+
*       -5.706346780E+01               0
GRID*              11388               0-4.375000034E+023.0000347397E+01+
*       -5.196128269E+01               0
GRID*              11389               0-4.500000035E+023.0000353238E+01+
*       -5.196127916E+01               0
GRID*              11390               0-4.374999998E+024.0147861747E+01+
*       -4.458866240E+01               0
GRID*              11391               0-4.374999981E+024.8540854611E+01+
*       -3.526730425E+01               0
GRID*              11392               0-4.499999981E+024.8540850233E+01+
*       -3.526730984E+01               0
GRID*              11393               0-4.375000009E+025.4812649173E+01+
*       -2.440429094E+01               0
GRID*              11394               0-4.624999991E+025.4812649173E+01+
*       2.4404290937E+01               0
GRID*              11395               0-4.624999980E+024.8540846228E+01+
*       3.5267314953E+01               0
GRID*              11396               0-4.749999979E+024.8540842644E+01+
*       3.5267319529E+01               0
GRID*              11397               0-4.625000002E+024.0147861747E+01+
*       4.4588662401E+01               0
GRID*              11398               0-4.625000035E+023.0000356241E+01+
*       5.1961277343E+01               0
GRID*              11399               0-4.750000035E+023.0000356671E+01+
*       5.1961277083E+01               0
GRID*              11400               0-4.624999971E+021.8540667938E+01+
*       5.7063467800E+01               0
GRID*              11401               0-4.624999988E+026.2715675004E+00+
*       5.9671316728E+01               0
GRID*              11402               0-4.749999988E+026.2715629490E+00+
*       5.9671317001E+01               0
GRID*              11403               0-4.625000011E+02-6.271577089E+00+
*       5.9671316152E+01               0
GRID*              11404               0-4.625000033E+02-1.854061715E+01+
*       5.7063483601E+01               0
GRID*              11405               0-4.750000034E+02-1.854059993E+01+
*       5.7063488959E+01               0
GRID*              11406               0-4.624999966E+02-3.000034740E+01+
*       5.1961282686E+01               0
GRID*              11407               0-4.624999997E+02-4.014786405E+01+
*       4.4588660096E+01               0
GRID*              11408               0-4.749999997E+02-4.014786519E+01+
*       4.4588658954E+01               0
GRID*              11409               0-4.625000019E+02-4.854085461E+01+
*       3.5267304252E+01               0
GRID*              11410               0-4.625000020E+02-5.481259597E+01+
*       2.4404409060E+01               0
GRID*              11411               0-4.750000024E+02-5.481257527E+01+
*       2.4404455025E+01               0
GRID*              11412               0-4.624999971E+02-5.868890255E+01+
*       1.2474330506E+01               0
GRID*              11413               0-4.625000000E+02-6.000000000E+01+
*       -1.512859009E-11               0
GRID*              11414               0-4.750000000E+02-6.000000000E+01+
*       -1.718468614E-11               0
GRID*              11415               0-4.625000028E+02-5.868890089E+01+
*       -1.247433958E+01               0
GRID*              11416               0-4.624999991E+02-5.481264917E+01+
*       -2.440429094E+01               0
GRID*              11417               0-4.749999997E+02-5.481268238E+01+
*       -2.440421719E+01               0
GRID*              11418               0-4.624999980E+02-4.854084623E+01+
*       -3.526731495E+01               0
GRID*              11419               0-4.624999997E+02-4.014786405E+01+
*       -4.458866010E+01               0
GRID*              11420               0-4.749999997E+02-4.014786519E+01+
*       -4.458865895E+01               0
GRID*              11421               0-4.625000035E+02-3.000035624E+01+
*       -5.196127734E+01               0
GRID*              11422               0-4.624999971E+02-1.854066794E+01+
*       -5.706346780E+01               0
GRID*              11423               0-4.749999974E+02-1.854070256E+01+
*       -5.706345703E+01               0
GRID*              11424               0-4.624999988E+02-6.271567500E+00+
*       -5.967131673E+01               0
GRID*              11425               0-4.625000011E+026.2715770894E+00+
*       -5.967131615E+01               0
GRID*              11426               0-4.750000011E+026.2715820771E+00+
*       -5.967131585E+01               0
GRID*              11427               0-4.625000033E+021.8540617153E+01+
*       -5.706348360E+01               0
GRID*              11428               0-4.625000035E+023.0000356241E+01+
*       -5.196127734E+01               0
GRID*              11429               0-4.750000035E+023.0000356671E+01+
*       -5.196127708E+01               0
GRID*              11430               0-4.624999997E+024.0147864052E+01+
*       -4.458866010E+01               0
GRID*              11431               0-4.624999980E+024.8540846228E+01+
*       -3.526731495E+01               0
GRID*              11432               0-4.749999979E+024.8540842644E+01+
*       -3.526731953E+01               0
GRID*              11433               0-4.625000020E+025.4812595973E+01+
*       -2.440440906E+01               0
GRID*              11434               0-4.875000004E+025.4812718646E+01+
*       2.4404136681E+01               0
GRID*              11435               0-4.874999979E+024.8540839534E+01+
*       3.5267323499E+01               0
GRID*              11436               0-4.999999978E+024.8540836956E+01+
*       3.5267326790E+01               0
GRID*              11437               0-4.875000002E+024.0147859436E+01+
*       4.4588664712E+01               0
GRID*              11438               0-4.875000035E+023.0000354774E+01+
*       5.1961278229E+01               0
GRID*              11439               0-5.000000035E+023.0000350775E+01+
*       5.1961280645E+01               0
GRID*              11440               0-4.874999978E+021.8540744111E+01+
*       5.7063444101E+01               0
GRID*              11441               0-4.874999987E+026.2715585961E+00+
*       5.9671317263E+01               0
GRID*              11442               0-4.999999987E+026.2715544720E+00+
*       5.9671317511E+01               0
GRID*              11443               0-4.875000011E+02-6.271587163E+00+
*       5.9671315547E+01               0
GRID*              11444               0-4.875000035E+02-1.854058753E+01+
*       5.7063492818E+01               0
GRID*              11445               0-5.000000036E+02-1.854057951E+01+
*       5.7063495311E+01               0
GRID*              11446               0-4.874999968E+02-3.000032601E+01+
*       5.1961295603E+01               0
GRID*              11447               0-4.874999997E+02-4.014786633E+01+
*       4.4588657822E+01               0
GRID*              11448               0-4.999999997E+02-4.014786744E+01+
*       4.4588656705E+01               0
GRID*              11449               0-4.875000017E+02-4.854086431E+01+
*       3.5267291875E+01               0
GRID*              11450               0-4.875000028E+02-5.481255807E+01+
*       2.4404493209E+01               0
GRID*              11451               0-5.000000031E+02-5.481254409E+01+
*       2.4404524254E+01               0
GRID*              11452               0-4.874999970E+02-5.868890294E+01+
*       1.2474328390E+01               0
GRID*              11453               0-4.875000000E+02-6.000000000E+01+
*       -1.582924838E-11               0
GRID*              11454               0-5.000000000E+02-6.000000000E+01+
*       -1.788655177E-11               0
GRID*              11455               0-4.875000027E+02-5.868889819E+01+
*       -1.247435425E+01               0
GRID*              11456               0-4.875000004E+02-5.481271865E+01+
*       -2.440413668E+01               0
GRID*              11457               0-5.000000011E+02-5.481275061E+01+
*       -2.440406572E+01               0
GRID*              11458               0-4.874999979E+02-4.854083953E+01+
*       -3.526732350E+01               0
GRID*              11459               0-4.874999997E+02-4.014786633E+01+
*       -4.458865782E+01               0
GRID*              11460               0-4.999999997E+02-4.014786744E+01+
*       -4.458865670E+01               0
GRID*              11461               0-4.875000035E+02-3.000035477E+01+
*       -5.196127823E+01               0
GRID*              11462               0-4.874999978E+02-1.854074411E+01+
*       -5.706344410E+01               0
GRID*              11463               0-4.999999982E+02-1.854079327E+01+
*       -5.706342881E+01               0
GRID*              11464               0-4.874999987E+02-6.271558596E+00+
*       -5.967131726E+01               0
GRID*              11465               0-4.875000011E+026.2715871631E+00+
*       -5.967131555E+01               0
GRID*              11466               0-5.000000010E+026.2715923265E+00+
*       -5.967131524E+01               0
GRID*              11467               0-4.875000035E+021.8540587528E+01+
*       -5.706349282E+01               0
GRID*              11468               0-4.875000035E+023.0000354774E+01+
*       -5.196127823E+01               0
GRID*              11469               0-5.000000035E+023.0000350774E+01+
*       -5.196128065E+01               0
GRID*              11470               0-4.874999997E+024.0147866326E+01+
*       -4.458865782E+01               0
GRID*              11471               0-4.874999979E+024.8540839534E+01+
*       -3.526732350E+01               0
GRID*              11472               0-4.999999978E+024.8540836956E+01+
*       -3.526732679E+01               0
GRID*              11473               0-4.875000028E+025.4812558074E+01+
*       -2.440449321E+01               0
GRID*              11474               0-5.125000016E+025.4812777826E+01+
*       2.4404005277E+01               0
GRID*              11475               0-5.124999978E+024.8540834974E+01+
*       3.5267329319E+01               0
GRID*              11476               0-5.249999978E+024.8540833659E+01+
*       3.5267330998E+01               0
GRID*              11477               0-5.125000001E+024.0147857138E+01+
*       4.4588667010E+01               0
GRID*              11478               0-5.125000034E+023.0000344884E+01+
*       5.1961284204E+01               0
GRID*              11479               0-5.250000034E+023.0000337297E+01+
*       5.1961288786E+01               0
GRID*              11480               0-5.124999987E+021.8540850764E+01+
*       5.7063410918E+01               0
GRID*              11481               0-5.124999987E+026.2715506098E+00+
*       5.9671317743E+01               0
GRID*              11482               0-5.249999986E+026.2715470457E+00+
*       5.9671317957E+01               0
GRID*              11483               0-5.125000010E+02-6.271597547E+00+
*       5.9671314923E+01               0
GRID*              11484               0-5.125000036E+02-1.854057549E+01+
*       5.7063496562E+01               0
GRID*              11485               0-5.250000036E+02-1.854057510E+01+
*       5.7063496685E+01               0
GRID*              11486               0-5.124999971E+02-3.000028941E+01+
*       5.1961317712E+01               0
GRID*              11487               0-5.124999997E+02-4.014786854E+01+
*       4.4588655604E+01               0
GRID*              11488               0-5.249999997E+02-4.014786962E+01+
*       4.4588654525E+01               0
GRID*              11489               0-5.125000016E+02-4.854087499E+01+
*       3.5267278235E+01               0
GRID*              11490               0-5.125000033E+02-5.481253306E+01+
*       2.4404548754E+01               0
GRID*              11491               0-5.250000035E+02-5.481252472E+01+
*       2.4404567264E+01               0
GRID*              11492               0-5.124999971E+02-5.868890176E+01+
*       1.2474334843E+01               0
GRID*              11493               0-5.125000000E+02-6.000000000E+01+
*       -1.647396670E-11               0
GRID*              11494               0-5.250000000E+02-6.000000000E+01+
*       -1.858841740E-11               0
GRID*              11495               0-5.125000025E+02-5.868889466E+01+
*       -1.247437338E+01               0
GRID*              11496               0-5.125000016E+02-5.481277783E+01+
*       -2.440400528E+01               0
GRID*              11497               0-5.250000021E+02-5.481280068E+01+
*       -2.440395454E+01               0
GRID*              11498               0-5.124999978E+02-4.854083497E+01+
*       -3.526732932E+01               0
GRID*              11499               0-5.124999997E+02-4.014786854E+01+
*       -4.458865560E+01               0
GRID*              11500               0-5.249999997E+02-4.014786962E+01+
*       -4.458865453E+01               0
GRID*              11501               0-5.125000034E+02-3.000034488E+01+
*       -5.196128420E+01               0
GRID*              11502               0-5.124999987E+02-1.854085076E+01+
*       -5.706341092E+01               0
GRID*              11503               0-5.249999992E+02-1.854091742E+01+
*       -5.706339018E+01               0
GRID*              11504               0-5.124999987E+02-6.271550610E+00+
*       -5.967131774E+01               0
GRID*              11505               0-5.125000010E+026.2715975472E+00+
*       -5.967131492E+01               0
GRID*              11506               0-5.250000010E+026.2716028066E+00+
*       -5.967131461E+01               0
GRID*              11507               0-5.125000036E+021.8540575494E+01+
*       -5.706349656E+01               0
GRID*              11508               0-5.125000034E+023.0000344884E+01+
*       -5.196128420E+01               0
GRID*              11509               0-5.250000034E+023.0000337297E+01+
*       -5.196128879E+01               0
GRID*              11510               0-5.124999997E+024.0147868544E+01+
*       -4.458865560E+01               0
GRID*              11511               0-5.124999978E+024.8540834974E+01+
*       -3.526732932E+01               0
GRID*              11512               0-5.249999978E+024.8540833659E+01+
*       -3.526733100E+01               0
GRID*              11513               0-5.125000033E+025.4812533058E+01+
*       -2.440454875E+01               0
GRID*              11514               0-5.375000025E+025.4812819508E+01+
*       2.4403912729E+01               0
GRID*              11515               0-5.374999978E+024.8540833090E+01+
*       3.5267331725E+01               0
GRID*              11516               0-5.499999978E+024.8540833353E+01+
*       3.5267331388E+01               0
GRID*              11517               0-5.375000001E+024.0147854873E+01+
*       4.4588669275E+01               0
GRID*              11518               0-5.375000033E+023.0000328198E+01+
*       5.1961294283E+01               0
GRID*              11519               0-5.500000032E+023.0000317759E+01+
*       5.1961300588E+01               0
GRID*              11520               0-5.374999999E+021.8540994156E+01+
*       5.7063366305E+01               0
GRID*              11521               0-5.374999986E+026.2715438199E+00+
*       5.9671318151E+01               0
GRID*              11522               0-5.499999986E+026.2715409771E+00+
*       5.9671318321E+01               0
GRID*              11523               0-5.375000009E+02-6.271608087E+00+
*       5.9671314290E+01               0
GRID*              11524               0-5.375000036E+02-1.854057798E+01+
*       5.7063495788E+01               0
GRID*              11525               0-5.500000035E+02-1.854058382E+01+
*       5.7063493971E+01               0
GRID*              11526               0-5.374999977E+02-3.000023431E+01+
*       5.1961350997E+01               0
GRID*              11527               0-5.374999996E+02-4.014787068E+01+
*       4.4588653472E+01               0
GRID*              11528               0-5.499999996E+02-4.014787170E+01+
*       4.4588652449E+01               0
GRID*              11529               0-5.375000014E+02-4.854088638E+01+
*       3.5267263694E+01               0
GRID*              11530               0-5.375000037E+02-5.481251885E+01+
*       2.4404580300E+01               0
GRID*              11531               0-5.500000038E+02-5.481251523E+01+
*       2.4404588345E+01               0
GRID*              11532               0-5.374999972E+02-5.868889863E+01+
*       1.2474351835E+01               0
GRID*              11533               0-5.375000000E+02-6.000000000E+01+
*       -1.720440599E-11               0
GRID*              11534               0-5.500000000E+02-6.000000000E+01+
*       -1.931724691E-11               0
GRID*              11535               0-5.375000023E+02-5.868889051E+01+
*       -1.247439597E+01               0
GRID*              11536               0-5.375000025E+02-5.481281951E+01+
*       -2.440391273E+01               0
GRID*              11537               0-5.500000028E+02-5.481283464E+01+
*       -2.440387912E+01               0
GRID*              11538               0-5.374999978E+02-4.854083309E+01+
*       -3.526733173E+01               0
GRID*              11539               0-5.374999996E+02-4.014787068E+01+
*       -4.458865347E+01               0
GRID*              11540               0-5.499999996E+02-4.014787170E+01+
*       -4.458865245E+01               0
GRID*              11541               0-5.375000033E+02-3.000032820E+01+
*       -5.196129428E+01               0
GRID*              11542               0-5.374999999E+02-1.854099416E+01+
*       -5.706336631E+01               0
GRID*              11543               0-5.500000005E+02-1.854107412E+01+
*       -5.706334143E+01               0
GRID*              11544               0-5.374999986E+02-6.271543820E+00+
*       -5.967131815E+01               0
GRID*              11545               0-5.375000009E+026.2716080867E+00+
*       -5.967131429E+01               0
GRID*              11546               0-5.500000009E+026.2716133705E+00+
*       -5.967131397E+01               0
GRID*              11547               0-5.375000036E+021.8540577982E+01+
*       -5.706349579E+01               0
GRID*              11548               0-5.375000033E+023.0000328198E+01+
*       -5.196129428E+01               0
GRID*              11549               0-5.500000032E+023.0000317759E+01+
*       -5.196130059E+01               0
GRID*              11550               0-5.374999996E+024.0147870676E+01+
*       -4.458865347E+01               0
GRID*              11551               0-5.374999978E+024.8540833090E+01+
*       -3.526733173E+01               0
GRID*              11552               0-5.499999978E+024.8540833353E+01+
*       -3.526733139E+01               0
GRID*              11553               0-5.375000037E+025.4812518851E+01+
*       -2.440458030E+01               0
GRID*              11554               0-5.625000031E+025.4812846387E+01+
*       2.4403853046E+01               0
GRID*              11555               0-5.624999978E+024.8540834549E+01+
*       3.5267329861E+01               0
GRID*              11556               0-5.749999978E+024.8540836790E+01+
*       3.5267327001E+01               0
GRID*              11557               0-5.625000001E+024.0147852658E+01+
*       4.4588671490E+01               0
GRID*              11558               0-5.625000031E+023.0000306142E+01+
*       5.1961307606E+01               0
GRID*              11559               0-5.750000030E+023.0000293501E+01+
*       5.1961315242E+01               0
GRID*              11560               0-5.625000011E+021.8541142115E+01+
*       5.7063320271E+01               0
GRID*              11561               0-5.624999986E+026.2715385670E+00+
*       5.9671318466E+01               0
GRID*              11562               0-5.749999986E+026.2715366459E+00+
*       5.9671318581E+01               0
GRID*              11563               0-5.625000009E+02-6.271618642E+00+
*       5.9671313656E+01               0
GRID*              11564               0-5.625000035E+02-1.854059231E+01+
*       5.7063491329E+01               0
GRID*              11565               0-5.750000034E+02-1.854060317E+01+
*       5.7063487950E+01               0
GRID*              11566               0-5.624999984E+02-3.000015659E+01+
*       5.1961397941E+01               0
GRID*              11567               0-5.624999996E+02-4.014787269E+01+
*       4.4588651462E+01               0
GRID*              11568               0-5.749999996E+02-4.014787363E+01+
*       4.4588650515E+01               0
GRID*              11569               0-5.625000012E+02-4.854089823E+01+
*       3.5267248571E+01               0
GRID*              11570               0-5.625000038E+02-5.481251365E+01+
*       2.4404591857E+01               0
GRID*              11571               0-5.750000039E+02-5.481251391E+01+
*       2.4404591264E+01               0
GRID*              11572               0-5.624999974E+02-5.868889311E+01+
*       1.2474381824E+01               0
GRID*              11573               0-5.625000000E+02-6.000000000E+01+
*       -1.787689307E-11               0
GRID*              11574               0-5.750000000E+02-6.000000000E+01+
*       -1.993419645E-11               0
GRID*              11575               0-5.625000021E+02-5.868888588E+01+
*       -1.247442114E+01               0
GRID*              11576               0-5.625000031E+02-5.481284639E+01+
*       -2.440385305E+01               0
GRID*              11577               0-5.750000033E+02-5.481285503E+01+
*       -2.440383385E+01               0
GRID*              11578               0-5.624999978E+02-4.854083455E+01+
*       -3.526732986E+01               0
GRID*              11579               0-5.624999996E+02-4.014787269E+01+
*       -4.458865146E+01               0
GRID*              11580               0-5.749999996E+02-4.014787363E+01+
*       -4.458865052E+01               0
GRID*              11581               0-5.625000031E+02-3.000030614E+01+
*       -5.196130761E+01               0
GRID*              11582               0-5.625000011E+02-1.854114211E+01+
*       -5.706332027E+01               0
GRID*              11583               0-5.750000016E+02-1.854119861E+01+
*       -5.706330269E+01               0
GRID*              11584               0-5.624999986E+02-6.271538567E+00+
*       -5.967131847E+01               0
GRID*              11585               0-5.625000009E+026.2716186417E+00+
*       -5.967131366E+01               0
GRID*              11586               0-5.750000008E+026.2716238847E+00+
*       -5.967131334E+01               0
GRID*              11587               0-5.625000035E+021.8540592315E+01+
*       -5.706349133E+01               0
GRID*              11588               0-5.625000031E+023.0000306142E+01+
*       -5.196130761E+01               0
GRID*              11589               0-5.750000030E+023.0000293501E+01+
*       -5.196131524E+01               0
GRID*              11590               0-5.624999996E+024.0147872686E+01+
*       -4.458865146E+01               0
GRID*              11591               0-5.624999978E+024.8540834549E+01+
*       -3.526732986E+01               0
GRID*              11592               0-5.749999978E+024.8540836790E+01+
*       -3.526732700E+01               0
GRID*              11593               0-5.625000038E+025.4812513646E+01+
*       -2.440459186E+01               0
GRID*              11594               0-5.875000034E+025.4812860848E+01+
*       2.4403820939E+01               0
GRID*              11595               0-5.874999978E+024.8540840203E+01+
*       3.5267322644E+01               0
GRID*              11596               0-5.999999979E+024.8540844936E+01+
*       3.5267316602E+01               0
GRID*              11597               0-5.875000000E+024.0147850510E+01+
*       4.4588673638E+01               0
GRID*              11598               0-5.875000028E+023.0000279980E+01+
*       5.1961323409E+01               0
GRID*              11599               0-6.000000027E+023.0000265720E+01+
*       5.1961332023E+01               0
GRID*              11600               0-5.875000020E+021.8541244524E+01+
*       5.7063288409E+01               0
GRID*              11601               0-5.874999986E+026.2715352777E+00+
*       5.9671318664E+01               0
GRID*              11602               0-5.999999986E+026.2715345355E+00+
*       5.9671318708E+01               0
GRID*              11603               0-5.875000008E+02-6.271629084E+00+
*       5.9671313029E+01               0
GRID*              11604               0-5.875000033E+02-1.854061612E+01+
*       5.7063483921E+01               0
GRID*              11605               0-6.000000031E+02-1.854063091E+01+
*       5.7063479320E+01               0
GRID*              11606               0-5.874999994E+02-3.000005100E+01+
*       5.1961461727E+01               0
GRID*              11607               0-5.874999996E+02-4.014787453E+01+
*       4.4588649616E+01               0
GRID*              11608               0-5.999999996E+02-4.014787538E+01+
*       4.4588648771E+01               0
GRID*              11609               0-5.875000011E+02-4.854091030E+01+
*       3.5267233156E+01               0
GRID*              11610               0-5.875000039E+02-5.481251585E+01+
*       2.4404586972E+01               0
GRID*              11611               0-6.000000038E+02-5.481251927E+01+
*       2.4404579368E+01               0
GRID*              11612               0-5.874999978E+02-5.868888462E+01+
*       1.2474427948E+01               0
GRID*              11613               0-5.875000000E+02-6.000000000E+01+
*       -1.852161138E-11               0
GRID*              11614               0-6.000000000E+02-6.000000000E+01+
*       -2.063606208E-11               0
GRID*              11615               0-5.875000018E+02-5.868888091E+01+
*       -1.247444810E+01               0
GRID*              11616               0-5.875000034E+02-5.481286085E+01+
*       -2.440382094E+01               0
GRID*              11617               0-6.000000035E+02-5.481286410E+01+
*       -2.440381373E+01               0
GRID*              11618               0-5.874999978E+02-4.854084020E+01+
*       -3.526732264E+01               0
GRID*              11619               0-5.874999996E+02-4.014787453E+01+
*       -4.458864962E+01               0
GRID*              11620               0-5.999999996E+02-4.014787538E+01+
*       -4.458864877E+01               0
GRID*              11621               0-5.875000028E+02-3.000027998E+01+
*       -5.196132341E+01               0
GRID*              11622               0-5.875000020E+02-1.854124452E+01+
*       -5.706328841E+01               0
GRID*              11623               0-6.000000023E+02-1.854128073E+01+
*       -5.706327714E+01               0
GRID*              11624               0-5.874999986E+02-6.271535278E+00+
*       -5.967131866E+01               0
GRID*              11625               0-5.875000008E+026.2716290843E+00+
*       -5.967131303E+01               0
GRID*              11626               0-6.000000007E+026.2716342262E+00+
*       -5.967131272E+01               0
GRID*              11627               0-5.875000033E+021.8540616124E+01+
*       -5.706348392E+01               0
GRID*              11628               0-5.875000028E+023.0000279980E+01+
*       -5.196132341E+01               0
GRID*              11629               0-6.000000027E+023.0000265720E+01+
*       -5.196133202E+01               0
GRID*              11630               0-5.874999996E+024.0147874532E+01+
*       -4.458864962E+01               0
GRID*              11631               0-5.874999978E+024.8540840203E+01+
*       -3.526732264E+01               0
GRID*              11632               0-5.999999979E+024.8540844936E+01+
*       -3.526731660E+01               0
GRID*              11633               0-5.875000039E+025.4812515846E+01+
*       -2.440458697E+01               0
GRID*              11634               0-6.125000036E+025.4812865023E+01+
*       2.4403811668E+01               0
GRID*              11635               0-6.124999980E+024.8540851160E+01+
*       3.5267308657E+01               0
GRID*              11636               0-6.249999981E+024.8540859072E+01+
*       3.5267298556E+01               0
GRID*              11637               0-6.125000000E+024.0147848445E+01+
*       4.4588675703E+01               0
GRID*              11638               0-6.125000026E+023.0000250851E+01+
*       5.1961341005E+01               0
GRID*              11639               0-6.250000024E+023.0000235500E+01+
*       5.1961350278E+01               0
GRID*              11640               0-6.125000025E+021.8541308059E+01+
*       5.7063268642E+01               0
GRID*              11641               0-6.124999986E+026.2715345034E+00+
*       5.9671318710E+01               0
GRID*              11642               0-6.249999986E+026.2715352794E+00+
*       5.9671318664E+01               0
GRID*              11643               0-6.125000007E+02-6.271639296E+00+
*       5.9671312416E+01               0
GRID*              11644               0-6.125000030E+02-1.854064729E+01+
*       5.7063474226E+01               0
GRID*              11645               0-6.250000029E+02-1.854066502E+01+
*       5.7063468710E+01               0
GRID*              11646               0-6.125000006E+02-2.999992180E+01+
*       5.1961539773E+01               0
GRID*              11647               0-6.124999996E+02-4.014787616E+01+
*       4.4588647989E+01               0
GRID*              11648               0-6.249999996E+02-4.014787687E+01+
*       4.4588647278E+01               0
GRID*              11649               0-6.125000009E+02-4.854092240E+01+
*       3.5267217712E+01               0
GRID*              11650               0-6.125000038E+02-5.481252402E+01+
*       2.4404568819E+01               0
GRID*              11651               0-6.250000037E+02-5.481252994E+01+
*       2.4404555675E+01               0
GRID*              11652               0-6.124999983E+02-5.868887241E+01+
*       1.2474494328E+01               0
GRID*              11653               0-6.125000000E+02-6.000000000E+01+
*       -1.927981944E-11               0
GRID*              11654               0-6.250000000E+02-6.000000000E+01+
*       -2.130895161E-11               0
GRID*              11655               0-6.125000016E+02-5.868887575E+01+
*       -1.247447616E+01               0
GRID*              11656               0-6.125000036E+02-5.481286502E+01+
*       -2.440381167E+01               0
GRID*              11657               0-6.250000036E+02-5.481286386E+01+
*       -2.440381424E+01               0
GRID*              11658               0-6.124999980E+02-4.854085116E+01+
*       -3.526730866E+01               0
GRID*              11659               0-6.124999996E+02-4.014787616E+01+
*       -4.458864799E+01               0
GRID*              11660               0-6.249999996E+02-4.014787687E+01+
*       -4.458864728E+01               0
GRID*              11661               0-6.125000026E+02-3.000025085E+01+
*       -5.196134100E+01               0
GRID*              11662               0-6.125000025E+02-1.854130806E+01+
*       -5.706326864E+01               0
GRID*              11663               0-6.250000027E+02-1.854132730E+01+
*       -5.706326265E+01               0
GRID*              11664               0-6.124999986E+02-6.271534503E+00+
*       -5.967131871E+01               0
GRID*              11665               0-6.125000007E+026.2716392962E+00+
*       -5.967131242E+01               0
GRID*              11666               0-6.250000007E+026.2716442808E+00+
*       -5.967131212E+01               0
GRID*              11667               0-6.125000030E+021.8540647286E+01+
*       -5.706347423E+01               0
GRID*              11668               0-6.125000026E+023.0000250851E+01+
*       -5.196134100E+01               0
GRID*              11669               0-6.250000024E+023.0000235500E+01+
*       -5.196135028E+01               0
GRID*              11670               0-6.124999996E+024.0147876160E+01+
*       -4.458864799E+01               0
GRID*              11671               0-6.124999980E+024.8540851160E+01+
*       -3.526730866E+01               0
GRID*              11672               0-6.249999981E+024.8540859072E+01+
*       -3.526729856E+01               0
GRID*              11673               0-6.125000038E+025.4812524022E+01+
*       -2.440456882E+01               0
GRID*              11674               0-6.375000036E+025.4812860845E+01+
*       2.4403820944E+01               0
GRID*              11675               0-6.374999982E+024.8540868910E+01+
*       3.5267285998E+01               0
GRID*              11676               0-6.499999983E+024.8540880950E+01+
*       3.5267270628E+01               0
GRID*              11677               0-6.375000000E+024.0147846478E+01+
*       4.4588677670E+01               0
GRID*              11678               0-6.375000023E+023.0000219789E+01+
*       5.1961359768E+01               0
GRID*              11679               0-6.500000022E+023.0000203833E+01+
*       5.1961369406E+01               0
GRID*              11680               0-6.375000028E+021.8541339223E+01+
*       5.7063258946E+01               0
GRID*              11681               0-6.374999986E+026.2715369785E+00+
*       5.9671318561E+01               0
GRID*              11682               0-6.499999986E+026.2715397368E+00+
*       5.9671318396E+01               0
GRID*              11683               0-6.375000006E+02-6.271649167E+00+
*       5.9671311823E+01               0
GRID*              11684               0-6.375000027E+02-1.854068387E+01+
*       5.7063462842E+01               0
GRID*              11685               0-6.500000025E+02-1.854070364E+01+
*       5.7063456691E+01               0
GRID*              11686               0-6.375000015E+02-2.999982800E+01+
*       5.1961596432E+01               0
GRID*              11687               0-6.374999995E+02-4.014787750E+01+
*       4.4588646650E+01               0
GRID*              11688               0-6.499999995E+02-4.014787803E+01+
*       4.4588646118E+01               0
GRID*              11689               0-6.375000007E+02-4.854093433E+01+
*       3.5267202483E+01               0
GRID*              11690               0-6.375000036E+02-5.481253688E+01+
*       2.4404540271E+01               0
GRID*              11691               0-6.500000035E+02-5.481254469E+01+
*       2.4404522930E+01               0
GRID*              11692               0-6.374999991E+02-5.868885544E+01+
*       1.2474586527E+01               0
GRID*              11693               0-6.375000000E+02-6.000000000E+01+
*       -1.986859777E-11               0
GRID*              11694               0-6.500000000E+02-6.000000000E+01+
*       -2.198143869E-11               0
GRID*              11695               0-6.375000013E+02-5.868887051E+01+
*       -1.247450466E+01               0
GRID*              11696               0-6.375000036E+02-5.481286085E+01+
*       -2.440382094E+01               0
GRID*              11697               0-6.500000036E+02-5.481285618E+01+
*       -2.440383130E+01               0
GRID*              11698               0-6.374999982E+02-4.854086891E+01+
*       -3.526728600E+01               0
GRID*              11699               0-6.374999995E+02-4.014787750E+01+
*       -4.458864665E+01               0
GRID*              11700               0-6.499999995E+02-4.014787803E+01+
*       -4.458864612E+01               0
GRID*              11701               0-6.375000023E+02-3.000021979E+01+
*       -5.196135977E+01               0
GRID*              11702               0-6.375000028E+02-1.854133922E+01+
*       -5.706325895E+01               0
GRID*              11703               0-6.500000029E+02-1.854134455E+01+
*       -5.706325729E+01               0
GRID*              11704               0-6.374999986E+02-6.271536978E+00+
*       -5.967131856E+01               0
GRID*              11705               0-6.375000006E+026.2716491666E+00+
*       -5.967131182E+01               0
GRID*              11706               0-6.500000006E+026.2716539407E+00+
*       -5.967131154E+01               0
GRID*              11707               0-6.375000027E+021.8540683873E+01+
*       -5.706346284E+01               0
GRID*              11708               0-6.375000023E+023.0000219788E+01+
*       -5.196135977E+01               0
GRID*              11709               0-6.500000021E+023.0000203833E+01+
*       -5.196136941E+01               0
GRID*              11710               0-6.374999995E+024.0147877498E+01+
*       -4.458864665E+01               0
GRID*              11711               0-6.374999982E+024.8540868910E+01+
*       -3.526728600E+01               0
GRID*              11712               0-6.499999983E+024.8540880950E+01+
*       -3.526727063E+01               0
GRID*              11713               0-6.375000036E+025.4812536879E+01+
*       -2.440454027E+01               0
GRID*              11714               0-6.625000035E+025.4812850085E+01+
*       2.4403844837E+01               0
GRID*              11715               0-6.624999985E+024.8540895528E+01+
*       3.5267252018E+01               0
GRID*              11716               0-6.749999987E+024.8540913050E+01+
*       3.5267229649E+01               0
GRID*              11717               0-6.625000000E+024.0147844623E+01+
*       4.4588679525E+01               0
GRID*              11718               0-6.625000020E+023.0000187747E+01+
*       5.1961379123E+01               0
GRID*              11719               0-6.750000019E+023.0000171637E+01+
*       5.1961388854E+01               0
GRID*              11720               0-6.625000029E+021.8541343980E+01+
*       5.7063257466E+01               0
GRID*              11721               0-6.624999987E+026.2715437174E+00+
*       5.9671318157E+01               0
GRID*              11722               0-6.749999987E+026.2715491176E+00+
*       5.9671317832E+01               0
GRID*              11723               0-6.625000006E+02-6.271658591E+00+
*       5.9671311257E+01               0
GRID*              11724               0-6.625000024E+02-1.854072412E+01+
*       5.7063450321E+01               0
GRID*              11725               0-6.750000022E+02-1.854074510E+01+
*       5.7063443794E+01               0
GRID*              11726               0-6.625000020E+02-2.999977316E+01+
*       5.1961629560E+01               0
GRID*              11727               0-6.624999995E+02-4.014787845E+01+
*       4.4588645696E+01               0
GRID*              11728               0-6.749999995E+02-4.014787875E+01+
*       4.4588645403E+01               0
GRID*              11729               0-6.625000006E+02-4.854094591E+01+
*       3.5267187695E+01               0
GRID*              11730               0-6.625000033E+02-5.481255323E+01+
*       2.4404503962E+01               0
GRID*              11731               0-6.750000032E+02-5.481256237E+01+
*       2.4404483664E+01               0
GRID*              11732               0-6.625000001E+02-5.868883239E+01+
*       1.2474711790E+01               0
GRID*              11733               0-6.625000000E+02-6.000000000E+01+
*       -2.056885362E-11               0
GRID*              11734               0-6.750000000E+02-6.000000000E+01+
*       -2.265432822E-11               0
GRID*              11735               0-6.625000011E+02-5.868886529E+01+
*       -1.247453299E+01               0
GRID*              11736               0-6.625000035E+02-5.481285008E+01+
*       -2.440384484E+01               0
GRID*              11737               0-6.750000034E+02-5.481284275E+01+
*       -2.440386112E+01               0
GRID*              11738               0-6.624999985E+02-4.854089553E+01+
*       -3.526725202E+01               0
GRID*              11739               0-6.624999995E+02-4.014787845E+01+
*       -4.458864570E+01               0
GRID*              11740               0-6.749999995E+02-4.014787875E+01+
*       -4.458864540E+01               0
GRID*              11741               0-6.625000020E+02-3.000018775E+01+
*       -5.196137912E+01               0
GRID*              11742               0-6.625000029E+02-1.854134398E+01+
*       -5.706325747E+01               0
GRID*              11743               0-6.750000029E+02-1.854133820E+01+
*       -5.706325927E+01               0
GRID*              11744               0-6.624999987E+02-6.271543717E+00+
*       -5.967131816E+01               0
GRID*              11745               0-6.625000006E+026.2716585907E+00+
*       -5.967131126E+01               0
GRID*              11746               0-6.750000005E+026.2716631042E+00+
*       -5.967131099E+01               0
GRID*              11747               0-6.625000024E+021.8540724119E+01+
*       -5.706345032E+01               0
GRID*              11748               0-6.625000020E+023.0000187747E+01+
*       -5.196137912E+01               0
GRID*              11749               0-6.750000019E+023.0000171637E+01+
*       -5.196138885E+01               0
GRID*              11750               0-6.624999995E+024.0147878452E+01+
*       -4.458864570E+01               0
GRID*              11751               0-6.624999985E+024.8540895528E+01+
*       -3.526725202E+01               0
GRID*              11752               0-6.749999987E+024.8540913050E+01+
*       -3.526722965E+01               0
GRID*              11753               0-6.625000033E+025.4812553232E+01+
*       -2.440450396E+01               0
GRID*              11754               0-6.875000032E+025.4812834377E+01+
*       2.4403879712E+01               0
GRID*              11755               0-6.874999990E+024.8540934016E+01+
*       3.5267202885E+01               0
GRID*              11756               0-6.999999993E+024.8540959045E+01+
*       3.5267170934E+01               0
GRID*              11757               0-6.874999999E+024.0147842894E+01+
*       4.4588681254E+01               0
GRID*              11758               0-6.875000017E+023.0000155610E+01+
*       5.1961398536E+01               0
GRID*              11759               0-7.000000016E+023.0000139767E+01+
*       5.1961408106E+01               0
GRID*              11760               0-6.875000028E+021.8541327852E+01+
*       5.7063262484E+01               0
GRID*              11761               0-6.874999988E+026.2715561791E+00+
*       5.9671317408E+01               0
GRID*              11762               0-6.999999988E+026.2715652019E+00+
*       5.9671316866E+01               0
GRID*              11763               0-6.875000005E+02-6.271667469E+00+
*       5.9671310723E+01               0
GRID*              11764               0-6.875000020E+02-1.854076639E+01+
*       5.7063437170E+01               0
GRID*              11765               0-7.000000018E+02-1.854078780E+01+
*       5.7063430508E+01               0
GRID*              11766               0-6.875000022E+02-2.999975019E+01+
*       5.1961643432E+01               0
GRID*              11767               0-6.874999995E+02-4.014787889E+01+
*       4.4588645260E+01               0
GRID*              11768               0-6.999999995E+02-4.014787885E+01+
*       4.4588645296E+01               0
GRID*              11769               0-6.875000004E+02-4.854095699E+01+
*       3.5267173561E+01               0
GRID*              11770               0-6.875000030E+02-5.481257198E+01+
*       2.4404462325E+01               0
GRID*              11771               0-7.000000029E+02-5.481258194E+01+
*       2.4404440224E+01               0
GRID*              11772               0-6.875000010E+02-5.868881271E+01+
*       1.2474818733E+01               0
GRID*              11773               0-6.875000000E+02-6.000000000E+01+
*       -2.127132292E-11               0
GRID*              11774               0-7.000000000E+02-6.000000000E+01+
*       -2.332782142E-11               0
GRID*              11775               0-6.875000008E+02-5.868886021E+01+
*       -1.247456062E+01               0
GRID*              11776               0-6.875000032E+02-5.481283438E+01+
*       -2.440387971E+01               0
GRID*              11777               0-7.000000031E+02-5.481282515E+01+
*       -2.440390020E+01               0
GRID*              11778               0-6.874999990E+02-4.854093402E+01+
*       -3.526720289E+01               0
GRID*              11779               0-6.874999995E+02-4.014787889E+01+
*       -4.458864526E+01               0
GRID*              11780               0-6.999999995E+02-4.014787885E+01+
*       -4.458864530E+01               0
GRID*              11781               0-6.875000017E+02-3.000015561E+01+
*       -5.196139854E+01               0
GRID*              11782               0-6.875000028E+02-1.854132785E+01+
*       -5.706326248E+01               0
GRID*              11783               0-7.000000027E+02-1.854131358E+01+
*       -5.706326692E+01               0
GRID*              11784               0-6.874999988E+02-6.271556179E+00+
*       -5.967131741E+01               0
GRID*              11785               0-6.875000005E+026.2716674692E+00+
*       -5.967131072E+01               0
GRID*              11786               0-7.000000005E+026.2716716739E+00+
*       -5.967131047E+01               0
GRID*              11787               0-6.875000020E+021.8540766388E+01+
*       -5.706343717E+01               0
GRID*              11788               0-6.875000017E+023.0000155610E+01+
*       -5.196139854E+01               0
GRID*              11789               0-7.000000016E+023.0000139767E+01+
*       -5.196140811E+01               0
GRID*              11790               0-6.874999995E+024.0147878888E+01+
*       -4.458864526E+01               0
GRID*              11791               0-6.874999990E+024.8540934016E+01+
*       -3.526720289E+01               0
GRID*              11792               0-6.999999993E+024.8540959045E+01+
*       -3.526717093E+01               0
GRID*              11793               0-6.875000030E+025.4812571984E+01+
*       -2.440446233E+01               0
GRID*              11794               0-7.125000029E+025.4812815250E+01+
*       2.4403922182E+01               0
GRID*              11795               0-7.124999997E+024.8540988919E+01+
*       3.5267132796E+01               0
GRID*              11796               0-7.250000002E+024.8541023288E+01+
*       3.5267088922E+01               0
GRID*              11797               0-7.124999999E+024.0147841306E+01+
*       4.4588682842E+01               0
GRID*              11798               0-7.125000014E+023.0000124208E+01+
*       5.1961417505E+01               0
GRID*              11799               0-7.250000013E+023.0000109028E+01+
*       5.1961426674E+01               0
GRID*              11800               0-7.125000025E+021.8541295996E+01+
*       5.7063272395E+01               0
GRID*              11801               0-7.124999989E+026.2715765634E+00+
*       5.9671316184E+01               0
GRID*              11802               0-7.249999990E+026.2715907468E+00+
*       5.9671315332E+01               0
GRID*              11803               0-7.125000004E+02-6.271675707E+00+
*       5.9671310228E+01               0
GRID*              11804               0-7.125000017E+02-1.854080915E+01+
*       5.7063423865E+01               0
GRID*              11805               0-7.250000015E+02-1.854083026E+01+
*       5.7063417296E+01               0
GRID*              11806               0-7.125000022E+02-2.999975247E+01+
*       5.1961642055E+01               0
GRID*              11807               0-7.124999995E+02-4.014787860E+01+
*       4.4588645544E+01               0
GRID*              11808               0-7.249999995E+02-4.014787810E+01+
*       4.4588646047E+01               0
GRID*              11809               0-7.125000003E+02-4.854096739E+01+
*       3.5267160284E+01               0
GRID*              11810               0-7.125000027E+02-5.481259211E+01+
*       2.4404417632E+01               0
GRID*              11811               0-7.250000025E+02-5.481260239E+01+
*       2.4404394810E+01               0
GRID*              11812               0-7.125000014E+02-5.868880220E+01+
*       1.2474875847E+01               0
GRID*              11813               0-7.125000000E+02-6.000000000E+01+
*       -2.200015243E-11               0
GRID*              11814               0-7.250000000E+02-6.000000000E+01+
*       -2.408703559E-11               0
GRID*              11815               0-7.125000006E+02-5.868885535E+01+
*       -1.247458699E+01               0
GRID*              11816               0-7.125000029E+02-5.481281525E+01+
*       -2.440392218E+01               0
GRID*              11817               0-7.250000028E+02-5.481280486E+01+
*       -2.440394526E+01               0
GRID*              11818               0-7.124999997E+02-4.854098892E+01+
*       -3.526713280E+01               0
GRID*              11819               0-7.124999995E+02-4.014787860E+01+
*       -4.458864554E+01               0
GRID*              11820               0-7.249999995E+02-4.014787810E+01+
*       -4.458864605E+01               0
GRID*              11821               0-7.125000014E+02-3.000012421E+01+
*       -5.196141750E+01               0
GRID*              11822               0-7.125000025E+02-1.854129600E+01+
*       -5.706327239E+01               0
GRID*              11823               0-7.250000024E+02-1.854127570E+01+
*       -5.706327871E+01               0
GRID*              11824               0-7.124999989E+02-6.271576563E+00+
*       -5.967131618E+01               0
GRID*              11825               0-7.125000004E+026.2716757066E+00+
*       -5.967131023E+01               0
GRID*              11826               0-7.250000004E+026.2716795561E+00+
*       -5.967131000E+01               0
GRID*              11827               0-7.125000017E+021.8540809150E+01+
*       -5.706342387E+01               0
GRID*              11828               0-7.125000014E+023.0000124208E+01+
*       -5.196141750E+01               0
GRID*              11829               0-7.250000013E+023.0000109028E+01+
*       -5.196142667E+01               0
GRID*              11830               0-7.124999995E+024.0147878605E+01+
*       -4.458864554E+01               0
GRID*              11831               0-7.124999997E+024.8540988919E+01+
*       -3.526713280E+01               0
GRID*              11832               0-7.250000002E+024.8541023287E+01+
*       -3.526708892E+01               0
GRID*              11833               0-7.125000027E+025.4812592113E+01+
*       -2.440441763E+01               0
GRID*              11834               0-7.375000026E+025.4812794138E+01+
*       2.4403969060E+01               0
GRID*              11835               0-7.375000005E+024.8541050817E+01+
*       3.5267053778E+01               0
GRID*              11836               0-7.500000008E+024.8541069620E+01+
*       3.5267029775E+01               0
GRID*              11837               0-7.374999999E+024.0147839871E+01+
*       4.4588684277E+01               0
GRID*              11838               0-7.375000011E+023.0000094321E+01+
*       5.1961435558E+01               0
GRID*              11839               0-7.500000010E+023.0000080181E+01+
*       5.1961444099E+01               0
GRID*              11840               0-7.375000022E+021.8541253270E+01+
*       5.7063285688E+01               0
GRID*              11841               0-7.374999992E+026.2716083809E+00+
*       5.9671314273E+01               0
GRID*              11842               0-7.499999994E+026.2716303015E+00+
*       5.9671312956E+01               0
GRID*              11843               0-7.375000004E+02-6.271683211E+00+
*       5.9671309778E+01               0
GRID*              11844               0-7.375000013E+02-1.854085097E+01+
*       5.7063410855E+01               0
GRID*              11845               0-7.500000012E+02-1.854087109E+01+
*       5.7063404593E+01               0
GRID*              11846               0-7.375000020E+02-2.999977374E+01+
*       5.1961629209E+01               0
GRID*              11847               0-7.374999995E+02-4.014787729E+01+
*       4.4588646861E+01               0
GRID*              11848               0-7.499999995E+02-4.014787609E+01+
*       4.4588648063E+01               0
GRID*              11849               0-7.375000002E+02-4.854097696E+01+
*       3.5267148057E+01               0
GRID*              11850               0-7.375000023E+02-5.481261266E+01+
*       2.4404372016E+01               0
GRID*              11851               0-7.500000021E+02-5.481262280E+01+
*       2.4404349497E+01               0
GRID*              11852               0-7.375000015E+02-5.868879895E+01+
*       1.2474893515E+01               0
GRID*              11853               0-7.375000000E+02-6.000000000E+01+
*       -2.270221928E-11               0
GRID*              11854               0-7.500000000E+02-6.000000000E+01+
*       -2.478789510E-11               0
GRID*              11855               0-7.375000004E+02-5.868885082E+01+
*       -1.247461163E+01               0
GRID*              11856               0-7.375000026E+02-5.481279414E+01+
*       -2.440396906E+01               0
GRID*              11857               0-7.500000024E+02-5.481278326E+01+
*       -2.440399320E+01               0
GRID*              11858               0-7.375000005E+02-4.854105082E+01+
*       -3.526705378E+01               0
GRID*              11859               0-7.374999995E+02-4.014787729E+01+
*       -4.458864686E+01               0
GRID*              11860               0-7.499999995E+02-4.014787609E+01+
*       -4.458864806E+01               0
GRID*              11861               0-7.375000011E+02-3.000009432E+01+
*       -5.196143556E+01               0
GRID*              11862               0-7.375000022E+02-1.854125327E+01+
*       -5.706328569E+01               0
GRID*              11863               0-7.500000020E+02-1.854122928E+01+
*       -5.706329315E+01               0
GRID*              11864               0-7.374999992E+02-6.271608381E+00+
*       -5.967131427E+01               0
GRID*              11865               0-7.375000004E+026.2716832111E+00+
*       -5.967130978E+01               0
GRID*              11866               0-7.500000004E+026.2716866606E+00+
*       -5.967130957E+01               0
GRID*              11867               0-7.375000013E+021.8540850968E+01+
*       -5.706341085E+01               0
GRID*              11868               0-7.375000011E+023.0000094321E+01+
*       -5.196143556E+01               0
GRID*              11869               0-7.500000010E+023.0000080181E+01+
*       -5.196144410E+01               0
GRID*              11870               0-7.374999995E+024.0147877287E+01+
*       -4.458864686E+01               0
GRID*              11871               0-7.375000005E+024.8541050817E+01+
*       -3.526705378E+01               0
GRID*              11872               0-7.500000008E+024.8541069620E+01+
*       -3.526702977E+01               0
GRID*              11873               0-7.375000023E+025.4812612657E+01+
*       -2.440437202E+01               0
GRID*              11874               0-7.625000022E+025.4812772399E+01+
*       2.4404017328E+01               0
GRID*              11875               0-7.625000009E+024.8541080826E+01+
*       3.5267015470E+01               0
GRID*              11876               0-7.750000010E+024.8541085544E+01+
*       3.5267009447E+01               0
GRID*              11877               0-7.624999999E+024.0147838604E+01+
*       4.4588685545E+01               0
GRID*              11878               0-7.625000009E+023.0000066695E+01+
*       5.1961452245E+01               0
GRID*              11879               0-7.750000007E+023.0000053953E+01+
*       5.1961459942E+01               0
GRID*              11880               0-7.625000018E+021.8541204275E+01+
*       5.7063300932E+01               0
GRID*              11881               0-7.624999996E+026.2716576447E+00+
*       5.9671311313E+01               0
GRID*              11882               0-7.749999999E+026.2716919980E+00+
*       5.9671309250E+01               0
GRID*              11883               0-7.625000003E+02-6.271689894E+00+
*       5.9671309376E+01               0
GRID*              11884               0-7.625000010E+02-1.854089048E+01+
*       5.7063398562E+01               0
GRID*              11885               0-7.750000009E+02-1.854090896E+01+
*       5.7063392813E+01               0
GRID*              11886               0-7.625000017E+02-2.999980804E+01+
*       5.1961608488E+01               0
GRID*              11887               0-7.624999996E+02-4.014787440E+01+
*       4.4588649752E+01               0
GRID*              11888               0-7.749999996E+02-4.014787208E+01+
*       4.4588652070E+01               0
GRID*              11889               0-7.625000001E+02-4.854098557E+01+
*       3.5267137066E+01               0
GRID*              11890               0-7.625000019E+02-5.481263271E+01+
*       2.4404327499E+01               0
GRID*              11891               0-7.750000017E+02-5.481264227E+01+
*       2.4404306257E+01               0
GRID*              11892               0-7.625000013E+02-5.868880113E+01+
*       1.2474881646E+01               0
GRID*              11893               0-7.625000000E+02-6.000000000E+01+
*       -2.337531003E-11               0
GRID*              11894               0-7.750000000E+02-6.000000000E+01+
*       -2.537546610E-11               0
GRID*              11895               0-7.625000002E+02-5.868884670E+01+
*       -1.247463404E+01               0
GRID*              11896               0-7.625000022E+02-5.481277240E+01+
*       -2.440401733E+01               0
GRID*              11897               0-7.750000019E+02-5.481276170E+01+
*       -2.440404108E+01               0
GRID*              11898               0-7.625000009E+02-4.854108083E+01+
*       -3.526701547E+01               0
GRID*              11899               0-7.624999996E+02-4.014787440E+01+
*       -4.458864975E+01               0
GRID*              11900               0-7.749999996E+02-4.014787208E+01+
*       -4.458865207E+01               0
GRID*              11901               0-7.625000009E+02-3.000006670E+01+
*       -5.196145225E+01               0
GRID*              11902               0-7.625000018E+02-1.854120427E+01+
*       -5.706330093E+01               0
GRID*              11903               0-7.750000016E+02-1.854117881E+01+
*       -5.706330886E+01               0
GRID*              11904               0-7.624999996E+02-6.271657645E+00+
*       -5.967131131E+01               0
GRID*              11905               0-7.625000003E+026.2716898937E+00+
*       -5.967130938E+01               0
GRID*              11906               0-7.750000003E+026.2716928997E+00+
*       -5.967130920E+01               0
GRID*              11907               0-7.625000010E+021.8540890477E+01+
*       -5.706339856E+01               0
GRID*              11908               0-7.625000009E+023.0000066695E+01+
*       -5.196145225E+01               0
GRID*              11909               0-7.750000007E+023.0000053953E+01+
*       -5.196145994E+01               0
GRID*              11910               0-7.624999996E+024.0147874396E+01+
*       -4.458864975E+01               0
GRID*              11911               0-7.625000009E+024.8541080826E+01+
*       -3.526701547E+01               0
GRID*              11912               0-7.750000010E+024.8541085544E+01+
*       -3.526700945E+01               0
GRID*              11913               0-7.625000019E+025.4812632706E+01+
*       -2.440432750E+01               0
GRID*              11914               0-7.875000017E+025.4812751329E+01+
*       2.4404064112E+01               0
GRID*              11915               0-7.875000009E+024.8541084870E+01+
*       3.5267010308E+01               0
GRID*              11916               0-8.000000009E+024.8541079879E+01+
*       3.5267016679E+01               0
GRID*              11917               0-7.874999999E+024.0147837516E+01+
*       4.4588686632E+01               0
GRID*              11918               0-7.875000006E+023.0000042040E+01+
*       5.1961467139E+01               0
GRID*              11919               0-8.000000005E+023.0000031041E+01+
*       5.1961473783E+01               0
GRID*              11920               0-7.875000013E+021.8541153402E+01+
*       5.7063316759E+01               0
GRID*              11921               0-7.875000002E+026.2717305447E+00+
*       5.9671306935E+01               0
GRID*              11922               0-8.000000004E+026.2717552016E+00+
*       5.9671305453E+01               0
GRID*              11923               0-7.875000003E+02-6.271695668E+00+
*       5.9671309029E+01               0
GRID*              11924               0-7.875000007E+02-1.854092638E+01+
*       5.7063387393E+01               0
GRID*              11925               0-8.000000006E+02-1.854094258E+01+
*       5.7063382351E+01               0
GRID*              11926               0-7.875000013E+02-2.999984969E+01+
*       5.1961583326E+01               0
GRID*              11927               0-7.874999996E+02-4.014786893E+01+
*       4.4588655220E+01               0
GRID*              11928               0-7.999999997E+02-4.014786464E+01+
*       4.4588659507E+01               0
GRID*              11929               0-7.875000000E+02-4.854099308E+01+
*       3.5267127488E+01               0
GRID*              11930               0-7.875000015E+02-5.481265139E+01+
*       2.4404286006E+01               0
GRID*              11931               0-8.000000013E+02-5.481265997E+01+
*       2.4404266973E+01               0
GRID*              11932               0-7.875000010E+02-5.868880700E+01+
*       1.2474849749E+01               0
GRID*              11933               0-7.875000000E+02-6.000000000E+01+
*       -2.399165591E-11               0
GRID*              11934               0-8.000000000E+02-6.000000000E+01+
*       -2.607702990E-11               0
GRID*              11935               0-7.875000000E+02-5.868884306E+01+
*       -1.247465378E+01               0
GRID*              11936               0-7.875000017E+02-5.481275133E+01+
*       -2.440406411E+01               0
GRID*              11937               0-8.000000015E+02-5.481274143E+01+
*       -2.440408608E+01               0
GRID*              11938               0-7.875000009E+02-4.854108487E+01+
*       -3.526701031E+01               0
GRID*              11939               0-7.874999996E+02-4.014786893E+01+
*       -4.458865522E+01               0
GRID*              11940               0-7.999999997E+02-4.014786464E+01+
*       -4.458865951E+01               0
GRID*              11941               0-7.875000006E+02-3.000004204E+01+
*       -5.196146714E+01               0
GRID*              11942               0-7.875000013E+02-1.854115340E+01+
*       -5.706331676E+01               0
GRID*              11943               0-8.000000011E+02-1.854112858E+01+
*       -5.706332448E+01               0
GRID*              11944               0-7.875000002E+02-6.271730545E+00+
*       -5.967130693E+01               0
GRID*              11945               0-7.875000003E+026.2716956679E+00+
*       -5.967130903E+01               0
GRID*              11946               0-8.000000003E+026.2716981878E+00+
*       -5.967130888E+01               0
GRID*              11947               0-7.875000007E+021.8540926377E+01+
*       -5.706338739E+01               0
GRID*              11948               0-7.875000006E+023.0000042040E+01+
*       -5.196146714E+01               0
GRID*              11949               0-8.000000005E+023.0000031041E+01+
*       -5.196147378E+01               0
GRID*              11950               0-7.874999996E+024.0147868928E+01+
*       -4.458865522E+01               0
GRID*              11951               0-7.875000009E+024.8541084870E+01+
*       -3.526701031E+01               0
GRID*              11952               0-8.000000009E+024.8541079879E+01+
*       -3.526701668E+01               0
GRID*              11953               0-7.875000015E+025.4812651393E+01+
*       -2.440428601E+01               0
GRID*              11954               0-8.125000013E+025.4812732167E+01+
*       2.4404106658E+01               0
GRID*              11955               0-8.125000007E+024.8541071636E+01+
*       3.5267027202E+01               0
GRID*              11956               0-8.250000006E+024.8541061190E+01+
*       3.5267040536E+01               0
GRID*              11957               0-8.124999999E+024.0147836620E+01+
*       4.4588687528E+01               0
GRID*              11958               0-8.125000004E+023.0000021039E+01+
*       5.1961479825E+01               0
GRID*              11959               0-8.250000003E+023.0000012115E+01+
*       5.1961485215E+01               0
GRID*              11960               0-8.125000009E+021.8541104863E+01+
*       5.7063331861E+01               0
GRID*              11961               0-8.125000005E+026.2717665634E+00+
*       5.9671304771E+01               0
GRID*              11962               0-8.250000005E+026.2717674557E+00+
*       5.9671304717E+01               0
GRID*              11963               0-8.125000002E+02-6.271700449E+00+
*       5.9671308742E+01               0
GRID*              11964               0-8.125000005E+02-1.854095742E+01+
*       5.7063377735E+01               0
GRID*              11965               0-8.250000004E+02-1.854097074E+01+
*       5.7063373589E+01               0
GRID*              11966               0-8.125000009E+02-2.999989323E+01+
*       5.1961557026E+01               0
GRID*              11967               0-8.124999997E+02-4.014785874E+01+
*       4.4588665408E+01               0
GRID*              11968               0-8.249999998E+02-4.014785043E+01+
*       4.4588673717E+01               0
GRID*              11969               0-8.124999999E+02-4.854099934E+01+
*       3.5267119497E+01               0
GRID*              11970               0-8.125000012E+02-5.481266789E+01+
*       2.4404249383E+01               0
GRID*              11971               0-8.250000010E+02-5.481267506E+01+
*       2.4404233455E+01               0
GRID*              11972               0-8.125000006E+02-5.868881487E+01+
*       1.2474806992E+01               0
GRID*              11973               0-8.125000000E+02-6.000000000E+01+
*       -2.472149153E-11               0
GRID*              11974               0-8.250000000E+02-6.000000000E+01+
*       -2.677829186E-11               0
GRID*              11975               0-8.124999999E+02-5.868884001E+01+
*       -1.247467040E+01               0
GRID*              11976               0-8.125000013E+02-5.481273217E+01+
*       -2.440410666E+01               0
GRID*              11977               0-8.250000011E+02-5.481272368E+01+
*       -2.440412551E+01               0
GRID*              11978               0-8.125000007E+02-4.854107164E+01+
*       -3.526702720E+01               0
GRID*              11979               0-8.124999997E+02-4.014785874E+01+
*       -4.458866541E+01               0
GRID*              11980               0-8.249999998E+02-4.014785043E+01+
*       -4.458867372E+01               0
GRID*              11981               0-8.125000004E+02-3.000002104E+01+
*       -5.196147982E+01               0
GRID*              11982               0-8.125000009E+02-1.854110486E+01+
*       -5.706333186E+01               0
GRID*              11983               0-8.250000007E+02-1.854108274E+01+
*       -5.706333874E+01               0
GRID*              11984               0-8.125000005E+02-6.271766563E+00+
*       -5.967130477E+01               0
GRID*              11985               0-8.125000002E+026.2717004491E+00+
*       -5.967130874E+01               0
GRID*              11986               0-8.250000002E+026.2717024414E+00+
*       -5.967130862E+01               0
GRID*              11987               0-8.125000005E+021.8540957421E+01+
*       -5.706337773E+01               0
GRID*              11988               0-8.125000004E+023.0000021039E+01+
*       -5.196147982E+01               0
GRID*              11989               0-8.250000003E+023.0000012115E+01+
*       -5.196148521E+01               0
GRID*              11990               0-8.124999997E+024.0147858741E+01+
*       -4.458866541E+01               0
GRID*              11991               0-8.125000007E+024.8541071636E+01+
*       -3.526702720E+01               0
GRID*              11992               0-8.250000006E+024.8541061190E+01+
*       -3.526704054E+01               0
GRID*              11993               0-8.125000012E+025.4812667888E+01+
*       -2.440424938E+01               0
GRID*              11994               0-8.375000009E+025.4812716108E+01+
*       2.4404142315E+01               0
GRID*              11995               0-8.375000004E+024.8541049579E+01+
*       3.5267055359E+01               0
GRID*              11996               0-8.500000003E+024.8541037828E+01+
*       3.5267070361E+01               0
GRID*              11997               0-8.374999999E+024.0147835930E+01+
*       4.4588688218E+01               0
GRID*              11998               0-8.375000002E+023.0000004351E+01+
*       5.1961489905E+01               0
GRID*              11999               0-8.500000002E+022.9999997826E+01+
*       5.1961493846E+01               0
GRID*              12000               0-8.375000005E+021.8541062715E+01+
*       5.7063344975E+01               0
GRID*              12001               0-8.375000005E+026.2717606787E+00+
*       5.9671305124E+01               0
GRID*              12002               0-8.500000004E+026.2717490087E+00+
*       5.9671305825E+01               0
GRID*              12003               0-8.375000002E+02-6.271704155E+00+
*       5.9671308520E+01               0
GRID*              12004               0-8.375000003E+02-1.854098240E+01+
*       5.7063369961E+01               0
GRID*              12005               0-8.500000002E+02-1.854099226E+01+
*       5.7063366895E+01               0
GRID*              12006               0-8.375000005E+02-2.999993338E+01+
*       5.1961532775E+01               0
GRID*              12007               0-8.375000000E+02-4.014783828E+01+
*       4.4588685864E+01               0
GRID*              12008               0-8.500000001E+02-4.014782619E+01+
*       4.4588697953E+01               0
GRID*              12009               0-8.374999999E+02-4.854100422E+01+
*       3.5267113262E+01               0
GRID*              12010               0-8.375000008E+02-5.481268139E+01+
*       2.4404219405E+01               0
GRID*              12011               0-8.500000006E+02-5.481268677E+01+
*       2.4404207447E+01               0
GRID*              12012               0-8.375000003E+02-5.868882310E+01+
*       1.2474762259E+01               0
GRID*              12013               0-8.375000000E+02-6.000000000E+01+
*       -2.542285410E-11               0
GRID*              12014               0-8.500000000E+02-6.000000000E+01+
*       -2.750842931E-11               0
GRID*              12015               0-8.374999998E+02-5.868883760E+01+
*       -1.247468347E+01               0
GRID*              12016               0-8.375000009E+02-5.481271611E+01+
*       -2.440414232E+01               0
GRID*              12017               0-8.500000007E+02-5.481270960E+01+
*       -2.440415676E+01               0
GRID*              12018               0-8.375000004E+02-4.854104958E+01+
*       -3.526705536E+01               0
GRID*              12019               0-8.375000000E+02-4.014783828E+01+
*       -4.458868586E+01               0
GRID*              12020               0-8.500000001E+02-4.014782619E+01+
*       -4.458869795E+01               0
GRID*              12021               0-8.375000002E+02-3.000000435E+01+
*       -5.196148990E+01               0
GRID*              12022               0-8.375000005E+02-1.854106272E+01+
*       -5.706334497E+01               0
GRID*              12023               0-8.500000004E+02-1.854104527E+01+
*       -5.706335040E+01               0
GRID*              12024               0-8.375000005E+02-6.271760679E+00+
*       -5.967130512E+01               0
GRID*              12025               0-8.375000002E+026.2717041546E+00+
*       -5.967130852E+01               0
GRID*              12026               0-8.500000001E+026.2717055786E+00+
*       -5.967130843E+01               0
GRID*              12027               0-8.375000003E+021.8540982405E+01+
*       -5.706336996E+01               0
GRID*              12028               0-8.375000002E+023.0000004351E+01+
*       -5.196148990E+01               0
GRID*              12029               0-8.500000002E+022.9999997826E+01+
*       -5.196149385E+01               0
GRID*              12030               0-8.375000000E+024.0147838284E+01+
*       -4.458868586E+01               0
GRID*              12031               0-8.375000004E+024.8541049579E+01+
*       -3.526705536E+01               0
GRID*              12032               0-8.500000003E+024.8541037828E+01+
*       -3.526707036E+01               0
GRID*              12033               0-8.375000008E+025.4812681389E+01+
*       -2.440421941E+01               0
GRID*              12034               0-8.625000005E+025.4812704306E+01+
*       2.4404168520E+01               0
GRID*              12035               0-8.625000002E+024.8541026951E+01+
*       3.5267084245E+01               0
GRID*              12036               0-8.750000001E+024.8541017955E+01+
*       3.5267095730E+01               0
GRID*              12037               0-8.624999999E+024.0147835458E+01+
*       4.4588688690E+01               0
GRID*              12038               0-8.625000001E+022.9999992617E+01+
*       5.1961496993E+01               0
GRID*              12039               0-8.750000001E+022.9999988803E+01+
*       5.1961499297E+01               0
GRID*              12040               0-8.625000002E+021.8541030885E+01+
*       5.7063354878E+01               0
GRID*              12041               0-8.625000003E+026.2717351998E+00+
*       5.9671306655E+01               0
GRID*              12042               0-8.750000002E+026.2717219857E+00+
*       5.9671307449E+01               0
GRID*              12043               0-8.625000001E+02-6.271706703E+00+
*       5.9671308367E+01               0
GRID*              12044               0-8.625000001E+02-1.854100017E+01+
*       5.7063364435E+01               0
GRID*              12045               0-8.750000001E+02-1.854100598E+01+
*       5.7063362625E+01               0
GRID*              12046               0-8.625000002E+02-2.999996502E+01+
*       5.1961513664E+01               0
GRID*              12047               0-8.625000001E+02-4.014782382E+01+
*       4.4588700330E+01               0
GRID*              12048               0-8.750000000E+02-4.014782733E+01+
*       4.4588696815E+01               0
GRID*              12049               0-8.624999999E+02-4.854100760E+01+
*       3.5267108947E+01               0
GRID*              12050               0-8.625000005E+02-5.481269112E+01+
*       2.4404197790E+01               0
GRID*              12051               0-8.750000003E+02-5.481269434E+01+
*       2.4404190640E+01               0
GRID*              12052               0-8.625000000E+02-5.868883011E+01+
*       1.2474724186E+01               0
GRID*              12053               0-8.625000000E+02-6.000000000E+01+
*       -2.606757242E-11               0
GRID*              12054               0-8.750000000E+02-6.000000000E+01+
*       -2.812447336E-11               0
GRID*              12055               0-8.624999998E+02-5.868883592E+01+
*       -1.247469258E+01               0
GRID*              12056               0-8.625000005E+02-5.481270431E+01+
*       -2.440416852E+01               0
GRID*              12057               0-8.750000003E+02-5.481270035E+01+
*       -2.440417730E+01               0
GRID*              12058               0-8.625000002E+02-4.854102695E+01+
*       -3.526708425E+01               0
GRID*              12059               0-8.625000001E+02-4.014782382E+01+
*       -4.458870033E+01               0
GRID*              12060               0-8.750000000E+02-4.014782733E+01+
*       -4.458869681E+01               0
GRID*              12061               0-8.625000001E+02-2.999999262E+01+
*       -5.196149699E+01               0
GRID*              12062               0-8.625000002E+02-1.854103088E+01+
*       -5.706335488E+01               0
GRID*              12063               0-8.750000001E+02-1.854102003E+01+
*       -5.706335825E+01               0
GRID*              12064               0-8.625000003E+02-6.271735200E+00+
*       -5.967130665E+01               0
GRID*              12065               0-8.625000001E+026.2717067034E+00+
*       -5.967130837E+01               0
GRID*              12066               0-8.750000001E+026.2717075190E+00+
*       -5.967130832E+01               0
GRID*              12067               0-8.625000001E+021.8541000166E+01+
*       -5.706336444E+01               0
GRID*              12068               0-8.625000001E+022.9999992617E+01+
*       -5.196149699E+01               0
GRID*              12069               0-8.750000001E+022.9999988803E+01+
*       -5.196149930E+01               0
GRID*              12070               0-8.625000001E+024.0147823818E+01+
*       -4.458870033E+01               0
GRID*              12071               0-8.625000002E+024.8541026951E+01+
*       -3.526708425E+01               0
GRID*              12072               0-8.750000000E+024.8541017955E+01+
*       -3.526709573E+01               0
GRID*              12073               0-8.625000005E+025.4812691124E+01+
*       -2.440419779E+01               0
GRID*              12074               0-2.500001171E+015.8688835381E+01+
*       1.2474695526E+01               0
GRID*              12075               0-1.250001199E+015.8688835049E+01+
*       1.2474697328E+01               0
GRID*              12076               0-1.249999985E+015.4812696342E+01+
*       2.4404186203E+01               0
GRID*              12077               0-5.000001142E+015.8688836665E+01+
*       1.2474688546E+01               0
GRID*              12078               0-3.750001174E+015.8688835923E+01+
*       1.2474692582E+01               0
GRID*              12079               0-7.500001106E+015.8688838716E+01+
*       1.2474677402E+01               0
GRID*              12080               0-6.250001141E+015.8688837600E+01+
*       1.2474683470E+01               0
GRID*              12081               0-1.000000106E+025.8688841458E+01+
*       1.2474662504E+01               0
GRID*              12082               0-8.750001102E+015.8688840005E+01+
*       1.2474670397E+01               0
GRID*              12083               0-1.250000102E+025.8688844813E+01+
*       1.2474644272E+01               0
GRID*              12084               0-1.125000106E+025.8688843064E+01+
*       1.2474653778E+01               0
GRID*              12085               0-1.500000097E+025.8688848702E+01+
*       1.2474623141E+01               0
GRID*              12086               0-1.375000101E+025.8688846696E+01+
*       1.2474634041E+01               0
GRID*              12087               0-1.750000091E+025.8688853041E+01+
*       1.2474599559E+01               0
GRID*              12088               0-1.625000096E+025.8688850820E+01+
*       1.2474611627E+01               0
GRID*              12089               0-2.000000086E+025.8688857746E+01+
*       1.2474573992E+01               0
GRID*              12090               0-1.875000090E+025.8688855354E+01+
*       1.2474586993E+01               0
GRID*              12091               0-2.250000080E+025.8688862727E+01+
*       1.2474546928E+01               0
GRID*              12092               0-2.125000085E+025.8688860208E+01+
*       1.2474560616E+01               0
GRID*              12093               0-2.500000074E+025.8688867889E+01+
*       1.2474518880E+01               0
GRID*              12094               0-2.375000079E+025.8688865291E+01+
*       1.2474532994E+01               0
GRID*              12095               0-2.750000068E+025.8688873132E+01+
*       1.2474490390E+01               0
GRID*              12096               0-2.625000073E+025.8688870506E+01+
*       1.2474504655E+01               0
GRID*              12097               0-3.000000063E+025.8688878350E+01+
*       1.2474462035E+01               0
GRID*              12098               0-2.875000067E+025.8688875751E+01+
*       1.2474476158E+01               0
GRID*              12099               0-3.250000057E+025.8688883428E+01+
*       1.2474434440E+01               0
GRID*              12100               0-3.125000061E+025.8688880914E+01+
*       1.2474448102E+01               0
GRID*              12101               0-3.500000051E+025.8688888242E+01+
*       1.2474408279E+01               0
GRID*              12102               0-3.375000055E+025.8688885876E+01+
*       1.2474421135E+01               0
GRID*              12103               0-3.750000045E+025.8688892655E+01+
*       1.2474384298E+01               0
GRID*              12104               0-3.625000050E+025.8688890508E+01+
*       1.2474395967E+01               0
GRID*              12105               0-4.000000040E+025.8688896515E+01+
*       1.2474363323E+01               0
GRID*              12106               0-3.875000044E+025.8688894665E+01+
*       1.2474373379E+01               0
GRID*              12107               0-4.250000035E+025.8688899650E+01+
*       1.2474346288E+01               0
GRID*              12108               0-4.125000039E+025.8688898185E+01+
*       1.2474354250E+01               0
GRID*              12109               0-4.500000031E+025.8688901864E+01+
*       1.2474334261E+01               0
GRID*              12110               0-4.375000035E+025.8688900886E+01+
*       1.2474339576E+01               0
GRID*              12111               0-4.750000027E+025.8688902927E+01+
*       1.2474328485E+01               0
GRID*              12112               0-4.625000030E+025.8688902555E+01+
*       1.2474330506E+01               0
GRID*              12113               0-5.000000023E+025.8688902568E+01+
*       1.2474330432E+01               0
GRID*              12114               0-4.875000027E+025.8688902944E+01+
*       1.2474328390E+01               0
GRID*              12115               0-5.250000021E+025.8688900461E+01+
*       1.2474341882E+01               0
GRID*              12116               0-5.125000024E+025.8688901756E+01+
*       1.2474334843E+01               0
GRID*              12117               0-5.500000019E+025.8688896202E+01+
*       1.2474365028E+01               0
GRID*              12118               0-5.375000022E+025.8688898629E+01+
*       1.2474351835E+01               0
GRID*              12119               0-5.750000019E+025.8688889280E+01+
*       1.2474402639E+01               0
GRID*              12120               0-5.625000021E+025.8688893111E+01+
*       1.2474381824E+01               0
GRID*              12121               0-6.000000020E+025.8688879037E+01+
*       1.2474458299E+01               0
GRID*              12122               0-5.875000021E+025.8688884623E+01+
*       1.2474427948E+01               0
GRID*              12123               0-6.250000023E+025.8688864595E+01+
*       1.2474536778E+01               0
GRID*              12124               0-6.125000023E+025.8688872407E+01+
*       1.2474494328E+01               0
GRID*              12125               0-6.500000029E+025.8688844749E+01+
*       1.2474644620E+01               0
GRID*              12126               0-6.375000027E+025.8688855440E+01+
*       1.2474586527E+01               0
GRID*              12127               0-6.750000036E+025.8688821278E+01+
*       1.2474772160E+01               0
GRID*              12128               0-6.625000034E+025.8688832388E+01+
*       1.2474711790E+01               0
GRID*              12129               0-7.000000039E+025.8688806428E+01+
*       1.2474852857E+01               0
GRID*              12130               0-6.875000039E+025.8688812707E+01+
*       1.2474818733E+01               0
GRID*              12131               0-7.250000038E+025.8688799780E+01+
*       1.2474888982E+01               0
GRID*              12132               0-7.125000040E+025.8688802197E+01+
*       1.2474875847E+01               0
GRID*              12133               0-7.500000034E+025.8688799469E+01+
*       1.2474890670E+01               0
GRID*              12134               0-7.375000038E+025.8688798945E+01+
*       1.2474893515E+01               0
GRID*              12135               0-7.750000028E+025.8688803711E+01+
*       1.2474867621E+01               0
GRID*              12136               0-7.625000033E+025.8688801130E+01+
*       1.2474881646E+01               0
GRID*              12137               0-8.000000022E+025.8688810787E+01+
*       1.2474829167E+01               0
GRID*              12138               0-7.875000027E+025.8688807000E+01+
*       1.2474849749E+01               0
GRID*              12139               0-8.250000015E+025.8688819039E+01+
*       1.2474784328E+01               0
GRID*              12140               0-8.125000020E+025.8688814868E+01+
*       1.2474806992E+01               0
GRID*              12141               0-8.500000008E+025.8688826854E+01+
*       1.2474741859E+01               0
GRID*              12142               0-8.375000013E+025.8688823100E+01+
*       1.2474762259E+01               0
GRID*              12143               0-8.750000003E+025.8688832665E+01+
*       1.2474710286E+01               0
GRID*              12144               0-8.625000007E+025.8688830107E+01+
*       1.2474724186E+01               0
GRID*              12145               0-8.875000003E+025.8688834337E+01+
*       1.2474701196E+01               0
GRID*              12146               0-8.875000002E+025.4812697882E+01+
*       2.4404182785E+01               0
GRID*              12147               0-8.875000000E+024.8541011834E+01+
*       3.5267103544E+01               0
GRID*              12148               0-8.875000000E+024.0147835216E+01+
*       4.4588688933E+01               0
GRID*              12149               0-8.875000000E+022.9999986459E+01+
*       5.1961500713E+01               0
GRID*              12150               0-8.875000000E+021.8541013187E+01+
*       5.7063360384E+01               0
GRID*              12151               0-8.875000001E+026.2717120812E+00+
*       5.9671308044E+01               0
GRID*              12152               0-8.875000000E+02-6.271708015E+00+
*       5.9671308288E+01               0
GRID*              12153               0-8.875000000E+02-1.854100958E+01+
*       5.7063361508E+01               0
GRID*              12154               0-8.875000000E+02-2.999998317E+01+
*       5.1961502701E+01               0
GRID*              12155               0-8.875000000E+02-4.014783252E+01+
*       4.4588691625E+01               0
GRID*              12156               0-8.875000000E+02-4.854100935E+01+
*       3.5267106714E+01               0
GRID*              12157               0-8.875000001E+02-5.481269634E+01+
*       2.4404186203E+01               0
GRID*              12158               0-8.874999999E+02-5.868883434E+01+
*       1.2474701196E+01               0
GRID*              12159               0-8.875000000E+02-6.000000000E+01+
*       -2.676973988E-11               0
GRID*              12160               0-8.874999999E+02-5.868883505E+01+
*       -1.247469733E+01               0
GRID*              12161               0-8.875000002E+02-5.481269788E+01+
*       -2.440418278E+01               0
GRID*              12162               0-8.875000000E+02-4.854101183E+01+
*       -3.526710354E+01               0
GRID*              12163               0-8.875000000E+02-4.014783252E+01+
*       -4.458869162E+01               0
GRID*              12164               0-8.875000000E+02-2.999998646E+01+
*       -5.196150071E+01               0
GRID*              12165               0-8.875000000E+02-1.854101319E+01+
*       -5.706336038E+01               0
GRID*              12166               0-8.875000001E+02-6.271712081E+00+
*       -5.967130804E+01               0
GRID*              12167               0-8.875000000E+026.2717080155E+00+
*       -5.967130829E+01               0
GRID*              12168               0-8.875000000E+021.8541009575E+01+
*       -5.706336151E+01               0
GRID*              12169               0-8.875000000E+022.9999986459E+01+
*       -5.196150071E+01               0
GRID*              12170               0-8.875000000E+024.0147832523E+01+
*       -4.458869162E+01               0
GRID*              12171               0-8.875000000E+024.8541011834E+01+
*       -3.526710354E+01               0
GRID*              12172               0-8.875000001E+025.4812696342E+01+
*       -2.440418620E+01               0
GRID*              12173               0-8.875000003E+025.8688834337E+01+
*       -1.247470120E+01               0
GRID*              12174               0-8.750000003E+025.8688832665E+01+
*       -1.247471029E+01               0
GRID*              12175               0-8.625000007E+025.8688830107E+01+
*       -1.247472419E+01               0
GRID*              12176               0-8.500000008E+025.8688826854E+01+
*       -1.247474186E+01               0
GRID*              12177               0-8.375000013E+025.8688823100E+01+
*       -1.247476226E+01               0
GRID*              12178               0-8.250000015E+025.8688819039E+01+
*       -1.247478433E+01               0
GRID*              12179               0-8.125000020E+025.8688814868E+01+
*       -1.247480699E+01               0
GRID*              12180               0-8.000000022E+025.8688810787E+01+
*       -1.247482917E+01               0
GRID*              12181               0-7.875000027E+025.8688807000E+01+
*       -1.247484975E+01               0
GRID*              12182               0-7.750000028E+025.8688803711E+01+
*       -1.247486762E+01               0
GRID*              12183               0-7.625000033E+025.8688801130E+01+
*       -1.247488165E+01               0
GRID*              12184               0-7.500000034E+025.8688799469E+01+
*       -1.247489067E+01               0
GRID*              12185               0-7.375000038E+025.8688798945E+01+
*       -1.247489352E+01               0
GRID*              12186               0-7.250000038E+025.8688799780E+01+
*       -1.247488898E+01               0
GRID*              12187               0-7.125000040E+025.8688802197E+01+
*       -1.247487585E+01               0
GRID*              12188               0-7.000000039E+025.8688806428E+01+
*       -1.247485286E+01               0
GRID*              12189               0-6.875000039E+025.8688812707E+01+
*       -1.247481873E+01               0
GRID*              12190               0-6.750000036E+025.8688821278E+01+
*       -1.247477216E+01               0
GRID*              12191               0-6.625000034E+025.8688832388E+01+
*       -1.247471179E+01               0
GRID*              12192               0-6.500000029E+025.8688844749E+01+
*       -1.247464462E+01               0
GRID*              12193               0-6.375000027E+025.8688855440E+01+
*       -1.247458653E+01               0
GRID*              12194               0-6.250000023E+025.8688864595E+01+
*       -1.247453678E+01               0
GRID*              12195               0-6.125000023E+025.8688872407E+01+
*       -1.247449433E+01               0
GRID*              12196               0-6.000000020E+025.8688879037E+01+
*       -1.247445830E+01               0
GRID*              12197               0-5.875000021E+025.8688884623E+01+
*       -1.247442795E+01               0
GRID*              12198               0-5.750000019E+025.8688889280E+01+
*       -1.247440264E+01               0
GRID*              12199               0-5.625000021E+025.8688893111E+01+
*       -1.247438182E+01               0
GRID*              12200               0-5.500000019E+025.8688896202E+01+
*       -1.247436503E+01               0
GRID*              12201               0-5.375000022E+025.8688898629E+01+
*       -1.247435184E+01               0
GRID*              12202               0-5.250000021E+025.8688900461E+01+
*       -1.247434188E+01               0
GRID*              12203               0-5.125000024E+025.8688901756E+01+
*       -1.247433484E+01               0
GRID*              12204               0-5.000000023E+025.8688902568E+01+
*       -1.247433043E+01               0
GRID*              12205               0-4.875000027E+025.8688902944E+01+
*       -1.247432839E+01               0
GRID*              12206               0-4.750000027E+025.8688902927E+01+
*       -1.247432848E+01               0
GRID*              12207               0-4.625000030E+025.8688902555E+01+
*       -1.247433051E+01               0
GRID*              12208               0-4.500000031E+025.8688901864E+01+
*       -1.247433426E+01               0
GRID*              12209               0-4.375000035E+025.8688900886E+01+
*       -1.247433958E+01               0
GRID*              12210               0-4.250000035E+025.8688899650E+01+
*       -1.247434629E+01               0
GRID*              12211               0-4.125000039E+025.8688898185E+01+
*       -1.247435425E+01               0
GRID*              12212               0-4.000000040E+025.8688896515E+01+
*       -1.247436332E+01               0
GRID*              12213               0-3.875000044E+025.8688894665E+01+
*       -1.247437338E+01               0
GRID*              12214               0-3.750000045E+025.8688892655E+01+
*       -1.247438430E+01               0
GRID*              12215               0-3.625000050E+025.8688890508E+01+
*       -1.247439597E+01               0
GRID*              12216               0-3.500000051E+025.8688888242E+01+
*       -1.247440828E+01               0
GRID*              12217               0-3.375000055E+025.8688885876E+01+
*       -1.247442114E+01               0
GRID*              12218               0-3.250000057E+025.8688883428E+01+
*       -1.247443444E+01               0
GRID*              12219               0-3.125000061E+025.8688880914E+01+
*       -1.247444810E+01               0
GRID*              12220               0-3.000000063E+025.8688878350E+01+
*       -1.247446204E+01               0
GRID*              12221               0-2.875000067E+025.8688875751E+01+
*       -1.247447616E+01               0
GRID*              12222               0-2.750000068E+025.8688873132E+01+
*       -1.247449039E+01               0
GRID*              12223               0-2.625000073E+025.8688870506E+01+
*       -1.247450466E+01               0
GRID*              12224               0-2.500000074E+025.8688867889E+01+
*       -1.247451888E+01               0
GRID*              12225               0-2.375000079E+025.8688865291E+01+
*       -1.247453299E+01               0
GRID*              12226               0-2.250000080E+025.8688862727E+01+
*       -1.247454693E+01               0
GRID*              12227               0-2.125000085E+025.8688860208E+01+
*       -1.247456062E+01               0
GRID*              12228               0-2.000000086E+025.8688857746E+01+
*       -1.247457399E+01               0
GRID*              12229               0-1.875000090E+025.8688855354E+01+
*       -1.247458699E+01               0
GRID*              12230               0-1.750000091E+025.8688853041E+01+
*       -1.247459956E+01               0
GRID*              12231               0-1.625000096E+025.8688850820E+01+
*       -1.247461163E+01               0
GRID*              12232               0-1.500000097E+025.8688848702E+01+
*       -1.247462314E+01               0
GRID*              12233               0-1.375000101E+025.8688846696E+01+
*       -1.247463404E+01               0
GRID*              12234               0-1.250000102E+025.8688844813E+01+
*       -1.247464427E+01               0
GRID*              12235               0-1.125000106E+025.8688843064E+01+
*       -1.247465378E+01               0
GRID*              12236               0-1.000000106E+025.8688841458E+01+
*       -1.247466250E+01               0
GRID*              12237               0-8.750001102E+015.8688840005E+01+
*       -1.247467040E+01               0
GRID*              12238               0-7.500001106E+015.8688838716E+01+
*       -1.247467740E+01               0
GRID*              12239               0-6.250001141E+015.8688837600E+01+
*       -1.247468347E+01               0
GRID*              12240               0-5.000001142E+015.8688836665E+01+
*       -1.247468855E+01               0
GRID*              12241               0-3.750001174E+015.8688835923E+01+
*       -1.247469258E+01               0
GRID*              12242               0-2.500001171E+015.8688835381E+01+
*       -1.247469553E+01               0
GRID*              12243               0-1.249999985E+015.4812697882E+01+
*       -2.440418278E+01               0
GRID*              12244               0-1.250001199E+015.8688835049E+01+
*       -1.247469733E+01               0
GRID*              12245               0-1.250000005E+014.0147835216E+01+
*       -4.458868893E+01               0
GRID*              12246               0-1.250000004E+014.8541009351E+01+
*       -3.526710671E+01               0
GRID*              12247               0-1.249999996E+011.8541013187E+01+
*       -5.706336038E+01               0
GRID*              12248               0-1.249999996E+012.9999983167E+01+
*       -5.196150270E+01               0
GRID*              12249               0-1.249999996E+01-6.271708015E+00+
*       -5.967130829E+01               0
GRID*              12250               0-1.249999993E+016.2717120812E+00+
*       -5.967130804E+01               0
GRID*              12251               0-1.249999996E+01-2.999998317E+01+
*       -5.196150270E+01               0
GRID*              12252               0-1.249999997E+01-1.854100958E+01+
*       -5.706336151E+01               0
GRID*              12253               0-1.250000004E+01-4.854100935E+01+
*       -3.526710671E+01               0
GRID*              12254               0-1.250000005E+01-4.014783522E+01+
*       -4.458868893E+01               0
GRID*              12255               0-1.250000005E+01-5.868883434E+01+
*       -1.247470120E+01               0
GRID*              12256               0-1.249999985E+01-5.481269634E+01+
*       -2.440418620E+01               0
GRID*              12257               0-1.250000007E+01-5.868883505E+01+
*       1.2474697328E+01               0
GRID*              12258               0-1.250000000E+01-6.000000000E+01+
*       -2.785172218E-12               0
GRID*              12259               0-1.250000001E+01-4.854101183E+01+
*       3.5267103544E+01               0
GRID*              12260               0-1.249999985E+01-5.481269788E+01+
*       2.4404182785E+01               0
GRID*              12261               0-1.249999997E+01-2.999998646E+01+
*       5.1961500713E+01               0
GRID*              12262               0-1.250000005E+01-4.014783522E+01+
*       4.4588688933E+01               0
GRID*              12263               0-1.249999993E+01-6.271712081E+00+
*       5.9671308044E+01               0
GRID*              12264               0-1.249999996E+01-1.854101319E+01+
*       5.7063360384E+01               0
GRID*              12265               0-1.249999997E+011.8541009575E+01+
*       5.7063361508E+01               0
GRID*              12266               0-1.249999996E+016.2717080155E+00+
*       5.9671308288E+01               0
GRID*              12267               0-1.250000001E+014.0147832523E+01+
*       4.4588691625E+01               0
GRID*              12268               0-1.249999996E+012.9999983167E+01+
*       5.1961502701E+01               0
GRID*              12269               0-1.250000004E+014.8541009351E+01+
*       3.5267106714E+01               0
GRID*              12270               00.0000000000E+00-4.866539333E+01+
*       2.3646356531E+01               0
GRID*              12271               00.0000000000E+00-4.307671499E+01+
*       3.4294415148E+01               0
GRID*              12272               00.0000000000E+00-5.373930630E+01+
*       1.2250151640E+01               0
GRID*              12273               00.0000000000E+00-5.373930630E+01+
*       2.2454572706E-01               0
GRID*              12274               00.0000000000E+00-5.373930630E+01+
*       -1.225015164E+01               0
GRID*              12275               00.0000000000E+00-3.380620343E+01+
*       -4.264161206E+01               0
GRID*              12276               00.0000000000E+00-4.307671499E+01+
*       -3.429441515E+01               0
GRID*              12277               00.0000000000E+00-2.390933646E+01+
*       -4.947277876E+01               0
GRID*              12278               00.0000000000E+00-4.866539333E+01+
*       -2.364635653E+01               0
GRID*              12279               00.0000000000E+00-1.204519712E+01+
*       -5.332768250E+01               0
GRID*              12280               00.0000000000E+00-1.074088664E-01+
*       -5.477716358E+01               0
GRID*              12281               00.0000000000E+001.2298950046E+01+
*       -5.347318998E+01               0
GRID*              12282               00.0000000000E+004.2320923556E+01+
*       -3.397048160E+01               0
GRID*              12283               00.0000000000E+004.9653354353E+01+
*       -2.387822972E+01               0
GRID*              12284               00.0000000000E+003.4346409748E+01+
*       -4.297163608E+01               0
GRID*              12285               00.0000000000E+002.3542997169E+01+
*       -4.920897237E+01               0
GRID*              12286               00.0000000000E+00-3.380620343E+01+
*       4.2641612062E+01               0
GRID*              12287               00.0000000000E+00-2.390933646E+01+
*       4.9472778764E+01               0
GRID*              12288               00.0000000000E+00-1.204519712E+01+
*       5.3327682501E+01               0
GRID*              12289               00.0000000000E+00-1.074088664E-01+
*       5.4777163584E+01               0
GRID*              12290               00.0000000000E+001.2298950046E+01+
*       5.3473189984E+01               0
GRID*              12291               00.0000000000E+002.3542997169E+01+
*       4.9208972366E+01               0
GRID*              12292               00.0000000000E+003.4346409748E+01+
*       4.2971636077E+01               0
GRID*              12293               00.0000000000E+004.2320923556E+01+
*       3.3970481598E+01               0
GRID*              12294               00.0000000000E+004.9653354353E+01+
*       2.3878229716E+01               0
GRID*              12295               00.0000000000E+005.2531348551E+01+
*       -1.220209245E+01               0
GRID*              12296               0-2.384185791E-055.5125000000E+01+
*       -6.278846233E-15               0
GRID*              12297               00.0000000000E+005.2531348551E+01+
*       1.2202092455E+01               0
GRID*              12298               0-9.000000000E+025.4812697065E+01+
*       2.4404184899E+01               0
GRID*              12299               0-9.000000000E+024.0147835512E+01+
*       4.4588688677E+01               0
GRID*              12300               0-9.000000000E+021.8541010388E+01+
*       5.7063361379E+01               0
GRID*              12301               0-9.000000000E+02-6.271707467E+00+
*       5.9671308380E+01               0
GRID*              12302               0-9.000000000E+02-2.999998618E+01+
*       5.1961501009E+01               0
GRID*              12303               0-9.000000000E+02-4.854100916E+01+
*       3.5267107076E+01               0
GRID*              12304               0-9.000000000E+02-5.868883514E+01+
*       1.2474697348E+01               0
GRID*              12305               0-9.000000000E+02-5.868883514E+01+
*       -1.247469735E+01               0
GRID*              12306               0-9.000000000E+02-4.854100916E+01+
*       -3.526710708E+01               0
GRID*              12307               0-9.000000000E+02-2.999998618E+01+
*       -5.196150101E+01               0
GRID*              12308               0-9.000000000E+02-6.271707467E+00+
*       -5.967130838E+01               0
GRID*              12309               0-9.000000000E+021.8541010388E+01+
*       -5.706336138E+01               0
GRID*              12310               0-9.000000000E+024.0147835512E+01+
*       -4.458868868E+01               0
GRID*              12311               0-9.000000000E+025.4812697065E+01+
*       -2.440418490E+01               0
GRID*              12312               0-9.000000000E+02-5.481269706E+01+
*       -2.440418490E+01               0
GRID*              12313               0-9.000000000E+02-6.000000000E+01+
*       1.1021821409E-14               0
GRID*              12314               0-9.000000000E+02-4.014783551E+01+
*       4.4588688677E+01               0
GRID*              12315               0-9.000000000E+02-5.481269706E+01+
*       2.4404184899E+01               0
GRID*              12316               0-9.000000000E+02-1.854101039E+01+
*       5.7063361379E+01               0
GRID*              12317               0-9.000000000E+026.2717074673E+00+
*       5.9671308380E+01               0
GRID*              12318               0-9.000000000E+024.8541009165E+01+
*       3.5267107076E+01               0
GRID*              12319               0-9.000000000E+022.9999986175E+01+
*       5.1961501009E+01               0
GRID*              12320               0-9.000000000E+02-4.014783551E+01+
*       -4.458868868E+01               0
GRID*              12321               0-9.000000000E+02-1.854101039E+01+
*       -5.706336138E+01               0
GRID*              12322               0-9.000000000E+026.2717074673E+00+
*       -5.967130838E+01               0
GRID*              12323               0-9.000000000E+022.9999986175E+01+
*       -5.196150101E+01               0
GRID*              12324               0-9.000000000E+024.8541009165E+01+
*       -3.526710708E+01               0
GRID*              12325               0-9.000000000E+025.8688835137E+01+
*       1.2474697348E+01               0
GRID*              12326               0-9.000000000E+025.8688835137E+01+
*       -1.247469735E+01               0
GRID*              12327               0-9.000000000E+024.4494011607E+01+
*       2.3352274524E+01               0
GRID*              12328               0-9.000000000E+022.8544983987E+01+
*       4.1354583478E+01               0
GRID*              12329               0-9.000000000E+026.0568897421E+00+
*       4.9883018715E+01               0
GRID*              12330               0-9.000000000E+02-1.781868677E+01+
*       4.6984056554E+01               0
GRID*              12331               0-9.000000000E+02-3.761242070E+01+
*       3.3321723146E+01               0
GRID*              12332               0-9.000000000E+02-4.878977739E+01+
*       1.2025605913E+01               0
GRID*              12333               0-9.000000000E+02-4.878977739E+01+
*       -1.202560591E+01               0
GRID*              12334               0-9.000000000E+02-3.761242070E+01+
*       -3.332172315E+01               0
GRID*              12335               0-9.000000000E+02-1.781868677E+01+
*       -4.698405655E+01               0
GRID*              12336               0-9.000000000E+026.0568897421E+00+
*       -4.988301871E+01               0
GRID*              12337               0-9.000000000E+022.8544983987E+01+
*       -4.135458348E+01               0
GRID*              12338               0-9.000000000E+024.4494011607E+01+
*       -2.335227452E+01               0
GRID*              12339               0-9.000000000E+02-4.449401161E+01+
*       -2.335227452E+01               0
GRID*              12340               0-9.000000000E+02-4.951988870E+01+
*       2.9753977060E-14               0
GRID*              12341               0-9.000000000E+02-2.854498399E+01+
*       4.1354583478E+01               0
GRID*              12342               0-9.000000000E+02-4.449401161E+01+
*       2.3352274524E+01               0
GRID*              12343               0-9.000000000E+02-6.056889742E+00+
*       4.9883018715E+01               0
GRID*              12344               0-9.000000000E+023.7612420705E+01+
*       3.3321723146E+01               0
GRID*              12345               0-9.000000000E+021.7818686766E+01+
*       4.6984056554E+01               0
GRID*              12346               0-9.000000000E+02-2.854498399E+01+
*       -4.135458348E+01               0
GRID*              12347               0-9.000000000E+02-6.056889742E+00+
*       -4.988301871E+01               0
GRID*              12348               0-9.000000000E+021.7818686766E+01+
*       -4.698405655E+01               0
GRID*              12349               0-9.000000000E+023.7612420705E+01+
*       -3.332172315E+01               0
GRID*              12350               0-9.000000000E+024.8789777394E+01+
*       1.2025605913E+01               0
GRID*              12351               0-9.000000000E+024.8789777394E+01+
*       -1.202560591E+01               0
GRID*              12352               00.0000000000E+005.4812697065E+01+
*       2.4404184899E+01               0
GRID*              12353               00.0000000000E+004.0147835513E+01+
*       4.4588688677E+01               0
GRID*              12354               00.0000000000E+001.8541010388E+01+
*       5.7063361379E+01               0
GRID*              12355               00.0000000000E+00-6.271707467E+00+
*       5.9671308380E+01               0
GRID*              12356               00.0000000000E+00-2.999998618E+01+
*       5.1961501009E+01               0
GRID*              12357               00.0000000000E+00-4.854100916E+01+
*       3.5267107076E+01               0
GRID*              12358               00.0000000000E+00-5.868883514E+01+
*       1.2474697348E+01               0
GRID*              12359               00.0000000000E+00-5.868883514E+01+
*       -1.247469735E+01               0
GRID*              12360               00.0000000000E+00-4.854100916E+01+
*       -3.526710708E+01               0
GRID*              12361               00.0000000000E+00-2.999998618E+01+
*       -5.196150101E+01               0
GRID*              12362               00.0000000000E+00-6.271707467E+00+
*       -5.967130838E+01               0
GRID*              12363               00.0000000000E+001.8541010388E+01+
*       -5.706336138E+01               0
GRID*              12364               00.0000000000E+004.0147835513E+01+
*       -4.458868868E+01               0
GRID*              12365               00.0000000000E+005.4812697065E+01+
*       -2.440418490E+01               0
GRID*              12366               00.0000000000E+005.8688835137E+01+
*       1.2474697348E+01               0
GRID*              12367               00.0000000000E+005.8688835137E+01+
*       -1.247469735E+01               0
GRID*              12368               00.0000000000E+004.8541009165E+01+
*       -3.526710708E+01               0
GRID*              12369               00.0000000000E+002.9999986175E+01+
*       -5.196150101E+01               0
GRID*              12370               00.0000000000E+006.2717074673E+00+
*       -5.967130838E+01               0
GRID*              12371               00.0000000000E+00-1.854101039E+01+
*       -5.706336138E+01               0
GRID*              12372               00.0000000000E+00-4.014783551E+01+
*       -4.458868868E+01               0
GRID*              12373               00.0000000000E+00-5.481269706E+01+
*       -2.440418490E+01               0
GRID*              12374               00.0000000000E+00-6.000000000E+01+
*       1.1021821409E-14               0
GRID*              12375               00.0000000000E+00-5.481269706E+01+
*       2.4404184899E+01               0
GRID*              12376               00.0000000000E+00-4.014783551E+01+
*       4.4588688677E+01               0
GRID*              12377               00.0000000000E+00-1.854101039E+01+
*       5.7063361379E+01               0
GRID*              12378               00.0000000000E+006.2717074673E+00+
*       5.9671308380E+01               0
GRID*              12379               00.0000000000E+002.9999986175E+01+
*       5.1961501009E+01               0
GRID*              12380               00.0000000000E+004.8541009165E+01+
*       3.5267107076E+01               0
GRID*              12381               00.0000000000E+004.4494011607E+01+
*       2.3352274524E+01               0
GRID*              12382               00.0000000000E+002.8544983987E+01+
*       4.1354583478E+01               0
GRID*              12383               00.0000000000E+006.0568897421E+00+
*       4.9883018715E+01               0
GRID*              12384               00.0000000000E+00-1.781868677E+01+
*       4.6984056554E+01               0
GRID*              12385               00.0000000000E+00-3.761242070E+01+
*       3.3321723146E+01               0
GRID*              12386               00.0000000000E+00-4.878977739E+01+
*       1.2025605913E+01               0
GRID*              12387               00.0000000000E+00-4.878977739E+01+
*       -1.202560591E+01               0
GRID*              12388               00.0000000000E+00-3.761242070E+01+
*       -3.332172315E+01               0
GRID*              12389               00.0000000000E+00-1.781868677E+01+
*       -4.698405655E+01               0
GRID*              12390               00.0000000000E+006.0568897421E+00+
*       -4.988301871E+01               0
GRID*              12391               00.0000000000E+002.8544983987E+01+
*       -4.135458348E+01               0
GRID*              12392               00.0000000000E+004.4494011607E+01+
*       -2.335227452E+01               0
GRID*              12393               0-4.015242980E-074.8789777394E+01+
*       -1.202560591E+01               0
GRID*              12394               0-4.015242980E-074.8789777394E+01+
*       1.2025605913E+01               0
GRID*              12395               00.0000000000E+003.7612420705E+01+
*       3.3321723146E+01               0
GRID*              12396               00.0000000000E+001.7818686766E+01+
*       4.6984056554E+01               0
GRID*              12397               00.0000000000E+00-6.056889742E+00+
*       4.9883018715E+01               0
GRID*              12398               00.0000000000E+00-2.854498399E+01+
*       4.1354583478E+01               0
GRID*              12399               00.0000000000E+00-4.449401161E+01+
*       2.3352274524E+01               0
GRID*              12400               00.0000000000E+00-5.025000000E+01+
*       2.8421709430E-14               0
GRID*              12401               00.0000000000E+00-4.449401161E+01+
*       -2.335227452E+01               0
GRID*              12402               00.0000000000E+00-2.854498399E+01+
*       -4.135458348E+01               0
GRID*              12403               00.0000000000E+00-6.056889742E+00+
*       -4.988301871E+01               0
GRID*              12404               00.0000000000E+001.7818686766E+01+
*       -4.698405655E+01               0
GRID*              12405               00.0000000000E+003.7612420705E+01+
*       -3.332172315E+01               0
GRID*              12406               0-8.750000007E+026.0000000000E+01+
*       -9.482769567E-15               0
GRID*              12407               0-8.500000013E+026.0000000000E+01+
*       -9.316803025E-15               0
GRID*              12408               0-8.250000020E+026.0000000000E+01+
*       -9.150836484E-15               0
GRID*              12409               0-8.000000026E+026.0000000000E+01+
*       -8.984869942E-15               0
GRID*              12410               0-7.750000033E+026.0000000000E+01+
*       -8.818903400E-15               0
GRID*              12411               0-7.500000040E+026.0000000000E+01+
*       -8.652936859E-15               0
GRID*              12412               0-7.250000046E+026.0000000000E+01+
*       -8.486970317E-15               0
GRID*              12413               0-7.000000053E+026.0000000000E+01+
*       -8.321003776E-15               0
GRID*              12414               0-6.750000060E+026.0000000000E+01+
*       -8.155037234E-15               0
GRID*              12415               0-6.500000066E+026.0000000000E+01+
*       -7.989070692E-15               0
GRID*              12416               0-6.250000073E+026.0000000000E+01+
*       -7.823104151E-15               0
GRID*              12417               0-6.000000079E+026.0000000000E+01+
*       -7.657137609E-15               0
GRID*              12418               0-5.750000086E+026.0000000000E+01+
*       -7.491171068E-15               0
GRID*              12419               0-5.500000093E+026.0000000000E+01+
*       -7.325204526E-15               0
GRID*              12420               0-5.250000099E+026.0000000000E+01+
*       -7.159237984E-15               0
GRID*              12421               0-5.000000106E+026.0000000000E+01+
*       -6.993271443E-15               0
GRID*              12422               0-4.750000113E+026.0000000000E+01+
*       -6.827304901E-15               0
GRID*              12423               0-4.500000119E+026.0000000000E+01+
*       -6.661338360E-15               0
GRID*              12424               0-4.250000126E+026.0000000000E+01+
*       -6.495371818E-15               0
GRID*              12425               0-4.000000132E+026.0000000000E+01+
*       -6.329405276E-15               0
GRID*              12426               0-3.750000139E+026.0000000000E+01+
*       -6.163438735E-15               0
GRID*              12427               0-3.500000146E+026.0000000000E+01+
*       -5.997472193E-15               0
GRID*              12428               0-3.250000152E+026.0000000000E+01+
*       -5.831505652E-15               0
GRID*              12429               0-3.000000159E+026.0000000000E+01+
*       -5.665539110E-15               0
GRID*              12430               0-2.750000166E+026.0000000000E+01+
*       -5.499572568E-15               0
GRID*              12431               0-2.500000172E+026.0000000000E+01+
*       -5.333606027E-15               0
GRID*              12432               0-2.250000179E+026.0000000000E+01+
*       -5.167639485E-15               0
GRID*              12433               0-2.000000185E+026.0000000000E+01+
*       -5.001672944E-15               0
GRID*              12434               0-1.750000192E+026.0000000000E+01+
*       -4.835706402E-15               0
GRID*              12435               0-1.500000199E+026.0000000000E+01+
*       -4.669739860E-15               0
GRID*              12436               0-1.250000205E+026.0000000000E+01+
*       -4.503773319E-15               0
GRID*              12437               0-1.000000212E+026.0000000000E+01+
*       -4.337806777E-15               0
GRID*              12438               0-7.500002186E+016.0000000000E+01+
*       -4.171840235E-15               0
GRID*              12439               0-5.000002252E+016.0000000000E+01+
*       -4.005873694E-15               0
GRID*              12440               0-2.500002318E+016.0000000000E+01+
*       -3.839907152E-15               0
GRID*              12441               0-1.250002351E+016.0000000000E+01+
*       -3.756923881E-15               0
GRID*              12442               0-3.750002285E+016.0000000000E+01+
*       -3.922890423E-15               0
GRID*              12443               0-6.250002219E+016.0000000000E+01+
*       -4.088856965E-15               0
GRID*              12444               0-8.750002152E+016.0000000000E+01+
*       -4.254823506E-15               0
GRID*              12445               0-1.125000209E+026.0000000000E+01+
*       -4.420790048E-15               0
GRID*              12446               0-1.375000202E+026.0000000000E+01+
*       -4.586756589E-15               0
GRID*              12447               0-1.625000195E+026.0000000000E+01+
*       -4.752723131E-15               0
GRID*              12448               0-1.875000189E+026.0000000000E+01+
*       -4.918689673E-15               0
GRID*              12449               0-2.125000182E+026.0000000000E+01+
*       -5.084656214E-15               0
GRID*              12450               0-2.375000176E+026.0000000000E+01+
*       -5.250622756E-15               0
GRID*              12451               0-2.625000169E+026.0000000000E+01+
*       -5.416589298E-15               0
GRID*              12452               0-2.875000162E+026.0000000000E+01+
*       -5.582555839E-15               0
GRID*              12453               0-3.125000156E+026.0000000000E+01+
*       -5.748522381E-15               0
GRID*              12454               0-3.375000149E+026.0000000000E+01+
*       -5.914488922E-15               0
GRID*              12455               0-3.625000142E+026.0000000000E+01+
*       -6.080455464E-15               0
GRID*              12456               0-3.875000136E+026.0000000000E+01+
*       -6.246422006E-15               0
GRID*              12457               0-4.125000129E+026.0000000000E+01+
*       -6.412388547E-15               0
GRID*              12458               0-4.375000123E+026.0000000000E+01+
*       -6.578355089E-15               0
GRID*              12459               0-4.625000116E+026.0000000000E+01+
*       -6.744321630E-15               0
GRID*              12460               0-4.875000109E+026.0000000000E+01+
*       -6.910288172E-15               0
GRID*              12461               0-5.125000103E+026.0000000000E+01+
*       -7.076254714E-15               0
GRID*              12462               0-5.375000096E+026.0000000000E+01+
*       -7.242221255E-15               0
GRID*              12463               0-5.625000089E+026.0000000000E+01+
*       -7.408187797E-15               0
GRID*              12464               0-5.875000083E+026.0000000000E+01+
*       -7.574154338E-15               0
GRID*              12465               0-6.125000076E+026.0000000000E+01+
*       -7.740120880E-15               0
GRID*              12466               0-6.375000070E+026.0000000000E+01+
*       -7.906087422E-15               0
GRID*              12467               0-6.625000063E+026.0000000000E+01+
*       -8.072053963E-15               0
GRID*              12468               0-6.875000056E+026.0000000000E+01+
*       -8.238020505E-15               0
GRID*              12469               0-7.125000050E+026.0000000000E+01+
*       -8.403987046E-15               0
GRID*              12470               0-7.375000043E+026.0000000000E+01+
*       -8.569953588E-15               0
GRID*              12471               0-7.625000036E+026.0000000000E+01+
*       -8.735920130E-15               0
GRID*              12472               0-7.875000030E+026.0000000000E+01+
*       -8.901886671E-15               0
GRID*              12473               0-8.125000023E+026.0000000000E+01+
*       -9.067853213E-15               0
GRID*              12474               0-8.375000017E+026.0000000000E+01+
*       -9.233819754E-15               0
GRID*              12475               0-8.625000010E+026.0000000000E+01+
*       -9.399786296E-15               0
GRID*              12476               0-8.875000003E+026.0000000000E+01+
*       -9.565752838E-15               0
GRID*              12477               0-8.750000007E+025.0250000000E+01+
*       -3.215922085E-15               0
GRID*              12478               0-8.500000013E+025.0250000000E+01+
*       -3.354919062E-15               0
GRID*              12479               0-8.250000020E+025.0250000000E+01+
*       -3.493916040E-15               0
GRID*              12480               0-8.000000026E+025.0250000000E+01+
*       -3.632913017E-15               0
GRID*              12481               0-7.750000033E+025.0250000000E+01+
*       -3.771909994E-15               0
GRID*              12482               0-7.500000040E+025.0250000000E+01+
*       -3.910906972E-15               0
GRID*              12483               0-7.250000046E+025.0250000000E+01+
*       -4.049903949E-15               0
GRID*              12484               0-7.000000053E+025.0250000000E+01+
*       -4.188900926E-15               0
GRID*              12485               0-6.750000060E+025.0250000000E+01+
*       -4.327897903E-15               0
GRID*              12486               0-6.500000066E+025.0250000000E+01+
*       -4.466894881E-15               0
GRID*              12487               0-6.250000073E+025.0250000000E+01+
*       -4.605891858E-15               0
GRID*              12488               0-6.000000079E+025.0250000000E+01+
*       -4.744888835E-15               0
GRID*              12489               0-5.750000086E+025.0250000000E+01+
*       -4.883885812E-15               0
GRID*              12490               0-5.500000093E+025.0250000000E+01+
*       -5.022882790E-15               0
GRID*              12491               0-5.250000099E+025.0250000000E+01+
*       -5.161879767E-15               0
GRID*              12492               0-5.000000106E+025.0250000000E+01+
*       -5.300876744E-15               0
GRID*              12493               0-4.750000113E+025.0250000000E+01+
*       -5.439873721E-15               0
GRID*              12494               0-4.500000119E+025.0250000000E+01+
*       -5.578870699E-15               0
GRID*              12495               0-4.250000126E+025.0250000000E+01+
*       -5.717867676E-15               0
GRID*              12496               0-4.000000132E+025.0250000000E+01+
*       -5.856864653E-15               0
GRID*              12497               0-3.750000139E+025.0250000000E+01+
*       -5.995861631E-15               0
GRID*              12498               0-3.500000146E+025.0250000000E+01+
*       -6.134858608E-15               0
GRID*              12499               0-3.250000152E+025.0250000000E+01+
*       -6.273855585E-15               0
GRID*              12500               0-3.000000159E+025.0250000000E+01+
*       -6.412852562E-15               0
GRID*              12501               0-2.750000166E+025.0250000000E+01+
*       -6.551849540E-15               0
GRID*              12502               0-2.500000172E+025.0250000000E+01+
*       -6.690846517E-15               0
GRID*              12503               0-2.250000179E+025.0250000000E+01+
*       -6.829843494E-15               0
GRID*              12504               0-2.000000185E+025.0250000000E+01+
*       -6.968840471E-15               0
GRID*              12505               0-1.750000192E+025.0250000000E+01+
*       -7.107837449E-15               0
GRID*              12506               0-1.500000199E+025.0250000000E+01+
*       -7.246834426E-15               0
GRID*              12507               0-1.250000205E+025.0250000000E+01+
*       -7.385831403E-15               0
GRID*              12508               0-1.000000212E+025.0250000000E+01+
*       -7.524828380E-15               0
GRID*              12509               0-7.500002186E+015.0250000000E+01+
*       -7.663825358E-15               0
GRID*              12510               0-5.000002252E+015.0250000000E+01+
*       -7.802822335E-15               0
GRID*              12511               0-2.500002318E+015.0250000000E+01+
*       -7.941819312E-15               0
GRID*              12512               0-1.250002351E+015.0250000000E+01+
*       -8.011317801E-15               0
GRID*              12513               0-3.750002285E+015.0250000000E+01+
*       -7.872320824E-15               0
GRID*              12514               0-6.250002219E+015.0250000000E+01+
*       -7.733323846E-15               0
GRID*              12515               0-8.750002152E+015.0250000000E+01+
*       -7.594326869E-15               0
GRID*              12516               0-1.125000209E+025.0250000000E+01+
*       -7.455329892E-15               0
GRID*              12517               0-1.375000202E+025.0250000000E+01+
*       -7.316332915E-15               0
GRID*              12518               0-1.625000195E+025.0250000000E+01+
*       -7.177335937E-15               0
GRID*              12519               0-1.875000189E+025.0250000000E+01+
*       -7.038338960E-15               0
GRID*              12520               0-2.125000182E+025.0250000000E+01+
*       -6.899341983E-15               0
GRID*              12521               0-2.375000176E+025.0250000000E+01+
*       -6.760345006E-15               0
GRID*              12522               0-2.625000169E+025.0250000000E+01+
*       -6.621348028E-15               0
GRID*              12523               0-2.875000162E+025.0250000000E+01+
*       -6.482351051E-15               0
GRID*              12524               0-3.125000156E+025.0250000000E+01+
*       -6.343354074E-15               0
GRID*              12525               0-3.375000149E+025.0250000000E+01+
*       -6.204357096E-15               0
GRID*              12526               0-3.625000142E+025.0250000000E+01+
*       -6.065360119E-15               0
GRID*              12527               0-3.875000136E+025.0250000000E+01+
*       -5.926363142E-15               0
GRID*              12528               0-4.125000129E+025.0250000000E+01+
*       -5.787366165E-15               0
GRID*              12529               0-4.375000123E+025.0250000000E+01+
*       -5.648369187E-15               0
GRID*              12530               0-4.625000116E+025.0250000000E+01+
*       -5.509372210E-15               0
GRID*              12531               0-4.875000109E+025.0250000000E+01+
*       -5.370375233E-15               0
GRID*              12532               0-5.125000103E+025.0250000000E+01+
*       -5.231378256E-15               0
GRID*              12533               0-5.375000096E+025.0250000000E+01+
*       -5.092381278E-15               0
GRID*              12534               0-5.625000089E+025.0250000000E+01+
*       -4.953384301E-15               0
GRID*              12535               0-5.875000083E+025.0250000000E+01+
*       -4.814387324E-15               0
GRID*              12536               0-6.125000076E+025.0250000000E+01+
*       -4.675390347E-15               0
GRID*              12537               0-6.375000070E+025.0250000000E+01+
*       -4.536393369E-15               0
GRID*              12538               0-6.625000063E+025.0250000000E+01+
*       -4.397396392E-15               0
GRID*              12539               0-6.875000056E+025.0250000000E+01+
*       -4.258399415E-15               0
GRID*              12540               0-7.125000050E+025.0250000000E+01+
*       -4.119402437E-15               0
GRID*              12541               0-7.375000043E+025.0250000000E+01+
*       -3.980405460E-15               0
GRID*              12542               0-7.625000036E+025.0250000000E+01+
*       -3.841408483E-15               0
GRID*              12543               0-7.875000030E+025.0250000000E+01+
*       -3.702411506E-15               0
GRID*              12544               0-8.125000023E+025.0250000000E+01+
*       -3.563414528E-15               0
GRID*              12545               0-8.375000017E+025.0250000000E+01+
*       -3.424417551E-15               0
GRID*              12546               0-8.625000010E+025.0250000000E+01+
*       -3.285420574E-15               0
GRID*              12547               0-8.875000003E+025.0250000000E+01+
*       -3.146423597E-15               0
GRID*              12548               0-9.000000000E+026.0000000000E+01+
*       -9.648736108E-15               0
GRID*              12549               0-9.000000000E+025.0250000000E+01+
*       -3.076925108E-15               0
GRID*              12550               0-2.384185791E-056.0000000000E+01+
*       -3.673940611E-15               0
GRID*              12551               0-2.384185791E-055.0250000000E+01+
*       -8.080816290E-15               0
$*
$* ELEMENT CARDS
$*
$*  Mesh Collector: Aluminum
$*  Mesh: 3d_mesh(1)
CTETRA         1       1    6077    6007    6006    4515     119    6042+
+            120     121    5793    5794
CTETRA         2       1    6077    6078    6007    4515    6082     122+
+            119     121     123    5793
CTETRA         3       1    2949    4111    4122    4123     124    4537+
+            125     126    4540    4539
CTETRA         4       1    2951    4125    2961       1     127     128+
+           3912     129     130     131
CTETRA         5       1    2939    4123    4122    4134     132    4539+
+            133     134    4580    4579
CTETRA         6       1    2910    4160    4171    4172     135    4685+
+            136     137    4687    4686
CTETRA         7       1    2921    2931    2930    4160    3828    3827+
+           3826     138     139     140
CTETRA         8       1    6077    4503    2646    4515     141     142+
+           4084     121    5660     143
CTETRA         9       1    2898    2899    2908    4170    3737    3764+
+           3763     144     145     146
CTETRA        10       1    2898    2899    4170    4182    3737     145+
+            144     147     148    4715
CTETRA        11       1    2907    2908    2917    4157    3762    3789+
+           3788     149     150     151
CTETRA        12       1    2908    2918    4157    4158    3791     152+
+            150     153     154    4646
CTETRA        13       1    2674    4464    2684       2     155     156+
+           3137     157     158     159
CTETRA        14       1    2908    2909    4158    4170    3765     160+
+            153     146     161    4681
CTETRA        15       1    2766    2776    2775       3    3395    3394+
+           3393     162     163     164
CTETRA        16       1    4346    4347    4358       3    5183    5216+
+           5215     165     166     167
CTETRA        17       1    2675    2676    4478       4    3114     168+
+            169     170     171     172
CTETRA        18       1    2898    2908    4169    4170    3763     173+
+            174     144     146    4680
CTETRA        19       1    2760    4363    4351       5     175    5228+
+            176     177     178     179
CTETRA        20       1    2663    2664    2673       6    3080    3107+
+           3106     180     181     182
CTETRA        21       1    2664    4476    2674       6     183     184+
+           3109     181     185     186
CTETRA        22       1    2673    2674    2683       2    3108    3135+
+           3134     187     157     188
CTETRA        23       1    2900    4184    2910       7     189     190+
+           3769     191     192     193
CTETRA        24       1    2867    2868    4205    4217    3650     194+
+            195     196     197    4814
CTETRA        25       1    2867    2868    2877    4205    3650    3677+
+           3676     195     194     198
CTETRA        26       1    6051    2897    5980       8    3986     199+
+            200     201     202     203
CTETRA        27       1    2878    2888    2887    4193    3707    3706+
+           3705     204     205     206
CTETRA        28       1    2877    2878    4193    4205    3678     204+
+            207     198     208    4780
CTETRA        29       1    2897    4181    4192    4193     209    4744+
+            210     211    4746    4745
CTETRA        30       1    2897    4192    4180       8     210    4743+
+            212     202     213     214
CTETRA        31       1    2877    4193    4192    4204     207    4745+
+            215     216    4778    4777
CTETRA        32       1    2951    2952    2961    4125    3886    3913+
+           3912     127     217     128
CTETRA        33       1    2760    4352    4351    4363     218    5196+
+            176     175    5229    5228
CTETRA        34       1    2952    2962    2961    4114    3915    3914+
+           3913     219     220     221
CTETRA        35       1    6052    2877    2887    4192    3983    3704+
+           3984     222     215     223
CTETRA        36       1    6053    2877    4192    4204    3982     215+
+            224     225     216    4777
CTETRA        37       1    6054    2867    4216       9    3980     226+
+            227     228     229     230
CTETRA        38       1    6055    5984    4228       9     231    5717+
+            232     233     234     235
CTETRA        39       1    2836    4274    4275      10     236    4979+
+            237     238     239     240
CTETRA        40       1    2754    4369    4368      11     241    5245+
+            242     243     244     245
CTETRA        41       1    2836    4275    2846      10     237     246+
+           3591     238     240     247
CTETRA        42       1    2825    2826    4274    4286    3534     248+
+            249     250     251    5011
CTETRA        43       1    6050    2897    2907    4168    3987    3760+
+           3988     252     253     254
CTETRA        44       1    6059    6060    5988    4287    6100     255+
+            256     257     258    5831
CTETRA        45       1    6050    5980    6051    2897     259     200+
+           6109    3987     199    3986
CTETRA        46       1    6060    4287    2816    4299     258     260+
+           4050     261    5048     262
CTETRA        47       1    2815    2816    2825    4286    3506    3533+
+           3532     263     264     250
CTETRA        48       1    2826    4275    4274    4286     265    4979+
+            248     251    5012    5011
CTETRA        49       1    2784    2794    4320    4321    3445     266+
+            267     268     269    5109
CTETRA        50       1    2785    2795    2794    4321    3448    3447+
+           3446     270     271     269
CTETRA        51       1    2774    2784    4332    4333    3417     272+
+            273     274     275    5143
CTETRA        52       1    2690    4436    4435    4447     276    5434+
+            277     278    5467    5466
CTETRA        53       1    2774    2784    4333      12    3417     275+
+            274     279     280     281
CTETRA        54       1    2774    4333    4345      12     274    5178+
+            282     279     281     283
CTETRA        55       1    2764    4345    4344    4356     284    5177+
+            285     286    5210    5209
CTETRA        56       1    2743    2744    4368    4380    3304     287+
+            288     289     290    5277
CTETRA        57       1    2734    2735    4381    4393    3279     291+
+            292     293     294    5314
CTETRA        58       1    6072    2706    2696    4443    4073    3199+
+           4074     295     296     297
CTETRA        59       1    6066    2766    2756    4371    4061    3367+
+           4062     298     299     300
CTETRA        60       1    6065    2766    6066    4371    4060    4061+
+           6094     301     299     298
CTETRA        61       1    5995    4383    4371      13    5816    5286+
+           5817     302     303     304
CTETRA        62       1    2733    2734    4380    4392    3276     305+
+            306     307     308    5311
CTETRA        63       1    2743    2753    2752    4367    3330    3329+
+           3328     309     310     311
CTETRA        64       1    2742    2743    2752    4367    3301    3328+
+           3327     312     309     311
CTETRA        65       1    2754    2764    2763    4356    3361    3360+
+           3359     313     286     314
CTETRA        66       1    2743    2744    2753    4368    3304    3331+
+           3330     288     287     315
CTETRA        67       1    6064    2786    2776    4335    4057    3423+
+           4058     316     317     318
CTETRA        68       1    6063    2786    6064    4335    4056    4057+
+           6096     319     317     316
CTETRA        69       1    2733    2743    4379    4380    3302     320+
+            321     306     289    5276
CTETRA        70       1    2703    2704    4416    4428    3192     322+
+            323     324     325    5413
CTETRA        71       1    2713    4404    4415    4416     326    5377+
+            327     328    5379    5378
CTETRA        72       1    2702    2703    4415    4427    3189     329+
+            330     331     332    5410
CTETRA        73       1    6062    2806    2796    4323    4053    3479+
+           4054     333     334     335
CTETRA        74       1    6061    2806    6062    4323    4052    4053+
+           6098     336     334     333
CTETRA        75       1    2702    2712    2711    4425    3215    3214+
+           3213     337     338     339
CTETRA        76       1    2702    4414    4425    4426     340    5405+
+            337     341    5407    5406
CTETRA        77       1    2702    4414    2712    4425     340     342+
+           3215     337    5405     338
CTETRA        78       1    2702    2703    2712    4415    3189    3216+
+           3215     330     329     343
CTETRA        79       1    2702    4415    4426    4427     330    5408+
+            341     331    5410    5409
CTETRA        80       1    2702    4426    4425    4437     341    5406+
+            337     344    5439    5438
CTETRA        81       1    6060    2826    2816    4287    4049    3535+
+           4050     258     345     260
CTETRA        82       1    6059    2826    6060    4287    4048    4049+
+           6100     257     345     258
CTETRA        83       1    2671    2672    4461    4473    3102     346+
+            347     348     349    5540
CTETRA        84       1    2661    2671    4472    4473    3100     350+
+            351     352     348    5539
CTETRA        85       1    2651    2652    2661    4485    3046    3073+
+           3072     353     354     355
CTETRA        86       1    2651    2661    4484    4485    3072     356+
+            357     353     355    5573
CTETRA        87       1    6067    2727    2737    4384    3953    3284+
+           3954     358     359     360
CTETRA        88       1    2827    2828    4253    4265    3538     361+
+            362     363     364    4950
CTETRA        89       1    6067    6068    2727    4384    6092    3952+
+           3953     358     365     359
CTETRA        90       1    2661    2662    2671    4473    3074    3101+
+           3100     352     366     348
CTETRA        91       1    2652    4486    4485    4497     367    5576+
+            354     368    5609    5608
CTETRA        92       1    2948    4122    4121    4133     369    4535+
+            370     371    4577    4576
CTETRA        93       1    2620    4508    2630      14     372     373+
+           2979     374     375     376
CTETRA        94       1    2807    2817    4276    4277    3508     377+
+            378     379     380    4983
CTETRA        95       1    5936    4110    2959    4111    5879     381+
+            382    5876    4538     383
CTETRA        96       1    2631    2641    4508    4509    3016     384+
+            385     386     387    5641
CTETRA        97       1    6068    2717    2727    4384    3951    3256+
+           3952     365     388     359
CTETRA        98       1    6068    5998    6069    2717     389     390+
+           6091    3951     391    3950
CTETRA        99       1    2807    4277    4288    4289     379    5016+
+            392     393    5018    5017
CTETRA       100       1    6053    5981    5982    4192     394    6017+
+            395     224    5711    5712
CTETRA       101       1    6051    5980    6052       8     200     396+
+           6108     201     203     397
CTETRA       102       1    2744    2754    4368      11    3333     242+
+            287     398     243     245
CTETRA       103       1    6049    2936    2926    4167    4027    3843+
+           4028     399     400     401
CTETRA       104       1    6045    2966    6046    4119    4020    4021+
+           6114     402     403     404
CTETRA       105       1    6045    5974    6046    4108     405     406+
+           6114     407    5696     408
CTETRA       106       1    2661    2662    4473    4485    3074     366+
+            352     355     409    5574
CTETRA       107       1    2640    2641    4496    4508    3015     410+
+            411     412     384    5639
CTETRA       108       1    2630    2631    2640    4508    2982    3014+
+           3013     373     385     412
CTETRA       109       1    2644    2654    2653      15    3053    3052+
+           3051     413     414     415
CTETRA       110       1    2664    4477    4476    4488     416    5551+
+            183     417    5584    5583
CTETRA       111       1    6077    6007    2627    2637     119     418+
+           3933    3934     419    3004
CTETRA       112       1    6124    2619    6125    4519     420     421+
+           6131    5773     422    5772
CTETRA       113       1    6059    2817    4264    4276    3970     423+
+            424     425     377    4981
CTETRA       114       1    5960    6125    6124    2619    5905    6131+
+           5906    4103     421     420
CTETRA       115       1    6077    6007    6078    2627     119     122+
+           6082    3933     418    3932
CTETRA       116       1    2701    4425    4424    4436     426    5403+
+            427     428    5436    5435
CTETRA       117       1    2690    2691    2700    4436    3155    3182+
+           3181     276     429     430
CTETRA       118       1    2690    4435    4436      16     277    5434+
+            276     431     432     433
CTETRA       119       1    2669    4459    2670      17     434     435+
+           3096     436     437     438
CTETRA       120       1    2690    2691    4436    4448    3155     429+
+            276     439     440    5469
CTETRA       121       1    2682    4439    4438    4450     441    5443+
+            442     443    5476    5475
CTETRA       122       1    5913    2960    2961    4112    4006    3911+
+           4007     444     445     446
CTETRA       123       1    6070    4419    2716    4431     447     448+
+           4070     449    5422     450
CTETRA       124       1    2715    2716    4406    4418    3226     451+
+            452     453     454    5385
CTETRA       125       1    6047    2956    2946    4131    4023    3899+
+           4024     455     456     457
CTETRA       126       1    4112    4113    4124       1    4546    4545+
+           4544     458     459     460
CTETRA       127       1    6046    2956    6047    4131    4022    4023+
+           6113     461     456     455
CTETRA       128       1    2750    4364    4375    4376     462    5263+
+            463     464    5265    5264
CTETRA       129       1    2741    2751    2750    4376    3324    3323+
+           3322     465     466     464
CTETRA       130       1    2730    2731    2740    4388    3267    3294+
+           3293     467     468     469
CTETRA       131       1    2720    4399    4400      18     470    5332+
+            471     472     473     474
CTETRA       132       1    2762    2763    4343    4355    3357     475+
+            476     477     478    5206
CTETRA       133       1    2753    2754    2763    4356    3332    3359+
+           3358     479     313     314
CTETRA       134       1    2786    4335    4334    4346     317    5149+
+            480     481    5182    5181
CTETRA       135       1    2785    4334    4333      12     482    5146+
+            483     484     485     281
CTETRA       136       1    2621    4509    4508    4520     486    5641+
+            487     488    5674    5673
CTETRA       137       1    5960    2619    2618      19    4103    2973+
+           4106     489     490     491
CTETRA       138       1    2779    4314    4326      20     492    5123+
+            493     494     495     496
CTETRA       139       1    2621    2631    2630    4508    2983    2982+
+           2980     487     385     373
CTETRA       140       1    2780    4328    4339    4340     497    5161+
+            498     499    5163    5162
CTETRA       141       1    2778    2779    4326      21    3401     493+
+            500     501     502     503
CTETRA       142       1    5960    6125    2619      19    5905     421+
+           4103     489     504     490
CTETRA       143       1    2952    2953    2962    4115    3889    3916+
+           3915     505     506     507
CTETRA       144       1    2835    4274    2836      10     508     236+
+           3562     509     239     238
CTETRA       145       1    2846    4263    4262      10     510    4945+
+            511     247     512     513
CTETRA       146       1    4263    4275    4274      10    4980    4979+
+           4978     512     240     239
CTETRA       147       1    2860    2861    4220    4232    3631     514+
+            515     516     517    4857
CTETRA       148       1    2861    2871    2870    4220    3660    3659+
+           3658     514     518     519
CTETRA       149       1    2825    2835    4273    4274    3560     520+
+            521     249     508    4976
CTETRA       150       1    2818    4266    4265    4277     522    4952+
+            523     524    4985    4984
CTETRA       151       1    2862    4223    4222    4234     525    4831+
+            526     527    4864    4863
CTETRA       152       1    2862    4234    4245    4246     527    4895+
+            528     529    4897    4896
CTETRA       153       1    2860    2861    2870    4220    3631    3658+
+           3657     515     514     519
CTETRA       154       1    2642    2643    2652    4487    3021    3048+
+           3047     530     531     532
CTETRA       155       1    2852    4246    4257    4258     533    4929+
+            534     535    4931    4930
CTETRA       156       1    2643    2653    2652    4487    3050    3049+
+           3048     531     536     532
CTETRA       157       1    2862    4235    4234    4246     537    4865+
+            527     529    4898    4897
CTETRA       158       1    2842    2843    4247    4259    3581     538+
+            539     540     541    4934
CTETRA       159       1    2875    2885    2884    4225    3700    3699+
+           3698     542     543     544
CTETRA       160       1    2864    2865    4237    4249    3643     545+
+            546     547     548    4906
CTETRA       161       1    2826    2836    2835    4274    3563    3562+
+           3561     248     236     508
CTETRA       162       1    2826    2836    4274    4275    3563     236+
+            248     265     237    4979
CTETRA       163       1    2825    2826    2835    4274    3534    3561+
+           3560     249     248     508
CTETRA       164       1    2884    4225    4213      22     544    4838+
+            549     550     551     552
CTETRA       165       1    5912    4112    2961    4113     553     446+
+           4008     554    4546     555
CTETRA       166       1    6076    6077    2637      23    6083    3934+
+           3935     556     557     558
CTETRA       167       1    6076    6005    6077      23     559     560+
+           6083     556     561     557
CTETRA       168       1    2901    4173    4184    4185     562    4722+
+            563     564    4724    4723
CTETRA       169       1    2891    4185    2901    4196     565     564+
+           3744     566    4756     567
CTETRA       170       1    6076    2656    6077    4491    4082    4083+
+           6083     568     569     570
CTETRA       171       1    2924    2934    4164    4165    3837     571+
+            572     573     574    4667
CTETRA       172       1    2935    4142    4153    4154     575    4635+
+            576     577    4637    4636
CTETRA       173       1    2805    4298    4310      24     578    5079+
+            579     580     581     582
CTETRA       174       1    2805    4310    2806      24     579     583+
+           3478     580     582     584
CTETRA       175       1    2934    4153    4164    4165     585    4666+
+            571     574    4668    4667
CTETRA       176       1    6076    6077    6005    4491    6083     560+
+            559     568     570    5797
CTETRA       177       1    6049    5978    6050    4156     586     587+
+           6110     588    5705     589
CTETRA       178       1    2805    2806    2815      24    3478    3505+
+           3504     580     584     590
CTETRA       179       1    2805    2815    4298      24    3504     591+
+            578     580     590     581
CTETRA       180       1    2765    2766    2775       3    3366    3393+
+           3392     592     162     164
CTETRA       181       1    2765    2775    4345    4346    3392     593+
+            594     595     596    5180
CTETRA       182       1    2776    4347    4346       3     597    5183+
+            598     163     166     165
CTETRA       183       1    2918    4146    4157    4158     599    4645+
+            152     154    4647    4646
CTETRA       184       1    6057    2856    2846    4263    4043    3619+
+           4044     600     601     510
CTETRA       185       1    2775    2776    4346       3    3394     598+
+            596     164     163     165
CTETRA       186       1    6057    5986    5985    4263     602    6021+
+            603     600    5835    5836
CTETRA       187       1    2754    4357    4368    4369     604    5244+
+            242     241    5246    5245
CTETRA       188       1    2766    4358    4359       3     605    5217+
+            606     162     167     607
CTETRA       189       1    2765    4358    2766       3     608     605+
+           3366     592     167     162
CTETRA       190       1    6057    2846    6058    4275    4044    4045+
+           6102     609     246     610
CTETRA       191       1    2765    4346    4358       3     595    5215+
+            608     592     165     167
CTETRA       192       1    6057    4263    2846    4275     600     510+
+           4044     609    4980     246
CTETRA       193       1    6057    5985    5986    4240     603    6021+
+            602     611    5719    5720
CTETRA       194       1    6056    6057    2837    4240    6103    3974+
+           3975     612     611     613
CTETRA       195       1    2846    2856    4262    4263    3619     614+
+            511     510     601    4945
CTETRA       196       1    6058    6059    5987    4275    6101     615+
+            616     610     617    5833
CTETRA       197       1    6059    2836    2826    4275    4047    3563+
+           4048     617     237     265
CTETRA       198       1    2815    2825    2824    4285    3532    3531+
+           3530     618     619     620
CTETRA       199       1    2919    2929    4146      25    3822     621+
+            622     623     624     625
CTETRA       200       1    2928    4134    4133    4145     626    4578+
+            627     628    4611    4610
CTETRA       201       1    2745    2746    2755    4382    3310    3337+
+           3336     629     630     631
CTETRA       202       1    2938    2939    2948    4122    3849    3876+
+           3875     632     133     369
CTETRA       203       1    2927    2928    2937    4133    3818    3845+
+           3844     633     627     634
CTETRA       204       1    2927    4133    4144    4145     633    4608+
+            635     636    4610    4609
CTETRA       205       1    2928    2929    2938    4134    3821    3848+
+           3847     626     637     638
CTETRA       206       1    2716    2726    2725    4406    3255    3254+
+           3253     451     639     640
CTETRA       207       1    2700    4424    4435      16     641    5433+
+            642     643     644     432
CTETRA       208       1    2927    2928    4133    4145    3818     627+
+            633     636     628    4610
CTETRA       209       1    2928    2938    4133    4134    3847     645+
+            627     626     638    4578
CTETRA       210       1    2888    2898    2897    4193    3735    3734+
+           3733     205     646     211
CTETRA       211       1    6075    6005    6004    4491     647    6040+
+            648     649    5797    5798
CTETRA       212       1    6123    2620    6124    4520     650     651+
+           6132    5775     652    5774
CTETRA       213       1    2700    4424    4423    4435     641    5400+
+            653     642    5433    5432
CTETRA       214       1    2897    2898    4169    4181    3734     174+
+            654     209     655    4712
CTETRA       215       1    5914    5936    2959      26    2593     382+
+           4004     656     657     658
CTETRA       216       1    6050    5979    5980    4168     659    6015+
+            259     252    5707    5708
CTETRA       217       1    2897    2907    4168    4169    3760     254+
+            253     654     660    4677
CTETRA       218       1    2959    4111    2960      26     383     661+
+           3908     658     662     663
CTETRA       219       1    5935    4112    4111      26    5874    4542+
+           5877     664     665     662
CTETRA       220       1    5913    5936    5914      26    2604    2593+
+           5921     666     657     656
CTETRA       221       1    5914    2959    2960      26    4004    3908+
+           4005     656     658     663
CTETRA       222       1    5913    5914    2960      26    5921    4005+
+           4006     666     656     663
CTETRA       223       1    5913    5935    5936      26    2605    5945+
+           2604     666     664     657
CTETRA       224       1    2666    2675    4478       4    3113     169+
+            667     668     170     172
CTETRA       225       1    2888    2889    4182    4194    3709     669+
+            670     671     672    4749
CTETRA       226       1    2897    4169    4168    4180     654    4677+
+            253     212    4710    4709
CTETRA       227       1    6052    5981    4192       8     673    5711+
+            222     397     674     213
CTETRA       228       1    2845    2855    4261    4262    3616     675+
+            676     677     678    4942
CTETRA       229       1    2856    4251    4262    4263     679    4944+
+            614     601    4946    4945
CTETRA       230       1    5961    5962    6126    4517    5973    5899+
+           5900     680     681    5769
CTETRA       231       1    5935    4111    5936      26    5877    5876+
+           5945     664     662     657
CTETRA       232       1    5913    4112    5935      26     444    5874+
+           2605     666     665     664
CTETRA       233       1    2835    2845    4261    4262    3588     676+
+            682     683     677    4942
CTETRA       234       1    2666    2676    2675       4    3115    3114+
+           3113     668     171     170
CTETRA       235       1    2759      27    4351       5     684     685+
+            686     687     688     179
CTETRA       236       1    2930    2940    2939      28    3853    3852+
+           3851     689     690     691
CTETRA       237       1    2805    4298    4297    4309     578    5044+
+            692     693    5077    5076
CTETRA       238       1    2825    4274    4285    4286     249    5009+
+            619     250    5011    5010
CTETRA       239       1    6060    2816    6061    4311    4050    4051+
+           6099     694     695     696
CTETRA       240       1    2794    4309    4321      29     697    5110+
+            269     698     699     700
CTETRA       241       1    2804    2805    2814    4297    3475    3502+
+           3501     701     692     702
CTETRA       242       1    2910    4160    4159    4171     135    4652+
+            703     136    4685    4684
CTETRA       243       1    2909    2910    2919    4159    3768    3795+
+           3794     704     703     705
CTETRA       244       1    2814    2815    2824    4285    3503    3530+
+           3529     706     618     620
CTETRA       245       1    2814    2815    4285    4297    3503     618+
+            706     702     707    5042
CTETRA       246       1    2804    2814    2813    4296    3501    3500+
+           3499     708     709     710
CTETRA       247       1    2910    2920    2919    4159    3797    3796+
+           3795     703     711     705
CTETRA       248       1    2794    2804    4308    4309    3473     712+
+            713     697     714    5075
CTETRA       249       1    2909    2910    4159    4171    3768     703+
+            704     715     136    4684
CTETRA       250       1    2939    2940    4135      28    3852     716+
+            717     691     690     718
CTETRA       251       1    2763    4344    4355    4356     719    5207+
+            478     314    5209    5208
CTETRA       252       1    2753    4356    4355    4367     479    5208+
+            720     310    5241    5240
CTETRA       253       1    2663    4476    2664       6     721     183+
+           3080     180     185     181
CTETRA       254       1    2663    2673    4463       6    3106     722+
+            723     180     182     724
CTETRA       255       1    2674    4465    4464    4476     725    5517+
+            155     184    5550    5549
CTETRA       256       1    2752    4355    2762    4366     726     477+
+           3355     727    5238     728
CTETRA       257       1    2673    4464    2674       2     729     155+
+           3108     187     158     157
CTETRA       258       1    2664    2674    2673       6    3109    3108+
+           3107     181     186     182
CTETRA       259       1    2763    2773    2772    4343    3386    3385+
+           3384     475     730     731
CTETRA       260       1    2736    4394    4395      30     732    5319+
+            733     734     735     736
CTETRA       261       1    2663    4475    4476       6     737    5548+
+            721     180     738     185
CTETRA       262       1    2722    2723    2732    4391    3245    3272+
+           3271     739     740     741
CTETRA       263       1    4467    4479    4478       4    5558    5557+
+           5556     742     743     172
CTETRA       264       1    2732    4390    4401    4402     744    5337+
+            745     746    5339    5338
CTETRA       265       1    2684    4453    4452    4464     747    5483+
+            748     156    5516    5515
CTETRA       266       1    2713    2723    4403    4404    3246     749+
+            750     326     751    5344
CTETRA       267       1    2712    2713    4403    4415    3217     750+
+            752     343     327    5376
CTETRA       268       1    2760    4351      27       5     176     685+
+            753     177     179     688
CTETRA       269       1    2683    4452    4451       2     754    5480+
+            755     188     756     757
CTETRA       270       1    2722    4402    4413    4414     758    5371+
+            759     760    5373    5372
CTETRA       271       1    2712    2722    2721    4413    3243    3242+
+           3241     761     759     762
CTETRA       272       1    2673    2674    4464       6    3108     155+
+            729     182     186     763
CTETRA       273       1    2732    4391    4390    4402     741    5307+
+            744     746    5340    5339
CTETRA       274       1    2674    2684    2683       2    3137    3136+
+           3135     157     159     188
CTETRA       275       1    2722    2723    4391    4403    3245     740+
+            739     764     749    5342
CTETRA       276       1    4375    4376    4387      31    5264    5297+
+           5296     765     766     767
CTETRA       277       1    4452    4464    4463       2    5515    5514+
+           5513     756     158     768
CTETRA       278       1    2722    4403    4402    4414     764    5341+
+            758     760    5374    5373
CTETRA       279       1    2702    4426    4437    4438     341    5439+
+            344     769    5441    5440
CTETRA       280       1    2683    2693    4439    4440    3162     770+
+            771     772     773    5446
CTETRA       281       1    4247    4248    4259      32    4902    4935+
+           4934     774     775     776
CTETRA       282       1    4183    4184    4195      33    4720    4753+
+           4752     777     778     779
CTETRA       283       1    2889    2890    2899      33    3712    3739+
+           3738     780     781     782
CTETRA       284       1    2889    2899    4182    4183    3738     148+
+            669     783     784    4717
CTETRA       285       1    2900    4196    4184      33     785    4755+
+            189     786     787     778
CTETRA       286       1    2681    2682    2691    4449    3130    3157+
+           3156     788     789     790
CTETRA       287       1    2682    4439    4450    4451     441    5476+
+            443     791    5478    5477
CTETRA       288       1    2681    2691    2690    4448    3156    3155+
+           3154     792     440     439
CTETRA       289       1    2682    2692    2691    4449    3159    3158+
+           3157     789     793     790
CTETRA       290       1    2691    4437    4448    4449     794    5470+
+            440     790    5472    5471
CTETRA       291       1    2899      34    4183       7     795     796+
+            784     797     798     799
CTETRA       292       1    2889    4195    2890      33     800     801+
+           3712     780     779     781
CTETRA       293       1    2890    2900    2899      33    3741    3740+
+           3739     781     786     782
CTETRA       294       1    2681    2682    4449    4461    3130     789+
+            788     802     803    5506
CTETRA       295       1    2652    4475    4486    4487     804    5578+
+            367     532    5580    5579
CTETRA       296       1    2889    4183    4194    4195     783    4750+
+            672     800    4752    4751
CTETRA       297       1    2641    2651    4496    4497    3044     805+
+            410     806     807    5607
CTETRA       298       1    2869    2870    2879      35    3656    3683+
+           3682     808     809     810
CTETRA       299       1    2879    2880    4207      35    3684     811+
+            812     810     813     814
CTETRA       300       1    2651    4485    4484    4496     353    5573+
+            357     805    5606    5605
CTETRA       301       1    2640    4496    2650      36     411     815+
+           3041     816     817     818
CTETRA       302       1    2640    2650      37      36    3041     819+
+            820     816     818     821
CTETRA       303       1    2661    2671    2670    4472    3100    3099+
+           3098     351     350     822
CTETRA       304       1    2839    2840    2849    4255    3572    3599+
+           3598     823     824     825
CTETRA       305       1    2840    2850    2849    4255    3601    3600+
+           3599     824     826     825
CTETRA       306       1    2640    2641    2650    4496    3015    3042+
+           3041     411     410     815
CTETRA       307       1    2760    4351    2770      27     176     827+
+           3377     753     685     828
CTETRA       308       1    4493    4494    4505      38    5598    5631+
+           5630     829     830     831
CTETRA       309       1    2929    4135    4134    4146     832    4581+
+            637     621    4614    4613
CTETRA       310       1    2620    2630      39      14    2979     833+
+            834     374     376     835
CTETRA       311       1    5962    6127    6126    4517    5898    6129+
+           5899     681    5768    5769
CTETRA       312       1    2939    2949    4122    4123    3878     125+
+            133     132     126    4539
CTETRA       313       1    6064    2767    4324    4336    3960     836+
+            837     838     839    5151
CTETRA       314       1    6079    6144    6008      40     840    6044+
+            841     842     843     844
CTETRA       315       1    5953    2626    4526    4527    4089     845+
+            846     847     848    5693
CTETRA       316       1    2618    2619    2628    4506    2973    2972+
+           2971     849     850     851
CTETRA       317       1    2884    2885    2894      41    3699    3726+
+           3725     852     853     854
CTETRA       318       1    2884    4213    2885      41     549     855+
+           3699     852     856     853
CTETRA       319       1    5954    6118    6117    4526    5888    6138+
+           5889     857    5786    5787
CTETRA       320       1    2631    2641    2640    4508    3016    3015+
+           3014     385     384     412
CTETRA       321       1    2621    2631    4508    4509    2983     385+
+            487     486     386    5641
CTETRA       322       1    2630    2640    4507    4508    3013     858+
+            859     373     412    5638
CTETRA       323       1    2884    4201    4213      41     860    4804+
+            549     852     861     856
CTETRA       324       1    4201    4202    4213      41    4772    4805+
+           4804     861     862     856
CTETRA       325       1    2903    4187    4188      42     863    4732+
+            864     865     866     867
CTETRA       326       1    2653    4475    4487      43     868    5580+
+            536     869     870     871
CTETRA       327       1    2885    2895    2894      41    3728    3727+
+           3726     853     872     854
CTETRA       328       1    2885    4213    4214      41     855    4806+
+            873     853     856     874
CTETRA       329       1    2643    4500    4511    4512     875    5649+
+            876     877    5651    5650
CTETRA       330       1    4424    4436    4435      16    5435    5434+
+           5433     644     433     432
CTETRA       331       1    2679    2689    4446    4447    3150     878+
+            879     880     881    5465
CTETRA       332       1    2884    2894    4201      41    3725     882+
+            860     852     854     861
CTETRA       333       1    5954    2624    5955    4525    4094    4093+
+           5966     883     884     885
CTETRA       334       1    2701    4425    4436    4437     426    5436+
+            428     886    5438    5437
CTETRA       335       1    2703    2704    4428      44    3192     325+
+            324     887     888     889
CTETRA       336       1    2702    2712    4414    4415    3215     342+
+            340     330     343    5375
CTETRA       337       1    4176    4188    4187      42    4733    4732+
+           4731     890     867     866
CTETRA       338       1    2726    2736    4406    4407    3283     891+
+            639     892     893    5353
CTETRA       339       1    6067    4372    5997    4384     894    5742+
+            895     358    5287    5743
CTETRA       340       1    2912    4175    4174    4186     896    4695+
+            897     898    4728    4727
CTETRA       341       1    2892    2902    4185    4186    3747     899+
+            900     901     902    4726
CTETRA       342       1    2778    2779    2788    4314    3401    3428+
+           3427     903     492     904
CTETRA       343       1    2739    4375    4386      45     905    5294+
+            906     907     908     909
CTETRA       344       1    2838    2839    4254      46    3569     910+
+            911     912     913     914
CTETRA       345       1    2740    2750    4375    4376    3321     463+
+            915     916     464    5264
CTETRA       346       1    2828    2829    2838      46    3541    3568+
+           3567     917     918     912
CTETRA       347       1    2839    4266    4254      46     919    4953+
+            910     913     920     914
CTETRA       348       1    2729    4387    4386      47     921    5295+
+            922     923     924     925
CTETRA       349       1    4254    4266    4265      46    4953    4952+
+           4951     914     920     926
CTETRA       350       1    2828    4266    2829      46     927     928+
+           3541     917     920     918
CTETRA       351       1    2742    2752    4377    4378    3327     929+
+            930     931     932    5270
CTETRA       352       1    2763    4344    4343    4355     719    5174+
+            475     478    5207    5206
CTETRA       353       1    2912    4174    4173      48     897    4692+
+            933     934     935     936
CTETRA       354       1    2912    2913    4163    4175    3777     937+
+            938     896     939    4696
CTETRA       355       1    2778    4314    4325    4326     903    5121+
+            940     500    5123    5122
CTETRA       356       1    6067    4383    2746    4395     941     942+
+           4064     943    5320     944
CTETRA       357       1    2758    2759    4338    4350    3345     945+
+            946     947     948    5191
CTETRA       358       1    2768    4326    4325    4337     949    5122+
+            950     951    5155    5154
CTETRA       359       1    2758    2768    2767    4337    3371    3370+
+           3369     952     951     953
CTETRA       360       1    2912    2913    4175    4187    3777     939+
+            896     954     955    4730
CTETRA       361       1    2812    4294    4305    4306     956    5065+
+            957     958    5067    5066
CTETRA       362       1    2849    2859    2858      49    3626    3625+
+           3624     959     960     961
CTETRA       363       1    2705    2715    4417      50    3224     962+
+            963     964     965     966
CTETRA       364       1    2812    2813    4283    4295    3497     967+
+            968     969     970    5036
CTETRA       365       1    2803    2804    2813    4296    3472    3499+
+           3498     971     708     710
CTETRA       366       1    2822    4283    4282    4294     972    5001+
+            973     974    5034    5033
CTETRA       367       1    2812    4283    2822    4294     968     972+
+           3523     956    5034     974
CTETRA       368       1    2814    4285    4284    4296     706    5007+
+            975     709    5040    5039
CTETRA       369       1    2704    2705    4417    4429    3195     963+
+            976     977     978    5416
CTETRA       370       1    2804    2814    4296    4297    3501     709+
+            708     701     702    5041
CTETRA       371       1    2839    2840    4255    4267    3572     824+
+            823     979     980    4956
CTETRA       372       1    2867    2868    4217    4229    3650     197+
+            196     981     982    4848
CTETRA       373       1    4253    4254    4265      46    4918    4951+
+           4950     983     914     926
CTETRA       374       1    2868    4206    4205    4217     984    4782+
+            194     197    4815    4814
CTETRA       375       1    2704    2705    2714    4417    3195    3222+
+           3221     976     963     985
CTETRA       376       1    2684    2685    2694      51    3139    3166+
+           3165     986     987     988
CTETRA       377       1    2684    4453    2685      51     747     989+
+           3139     986     990     987
CTETRA       378       1    2879    4206    4207      52     991    4785+
+            812     992     993     994
CTETRA       379       1    2684    4452    4453      51     748    5483+
+            747     986     995     990
CTETRA       380       1    2685    2695    2694      51    3168    3167+
+           3166     987     996     988
CTETRA       381       1    4236    4248    4247      53    4903    4902+
+           4901     997     998     999
CTETRA       382       1    4202    4214    4213      41    4807    4806+
+           4805     862     874     856
CTETRA       383       1    2874    4236    4224      54    1000    4869+
+           1001    1002    1003    1004
CTETRA       384       1    2886    4215    4214    4226    1005    4809+
+           1006    1007    4842    4841
CTETRA       385       1    2684    2694    4440      51    3165    1008+
+           1009     986     988    1010
CTETRA       386       1    2654    2655    2664    4477    3055    3082+
+           3081    1011    1012     416
CTETRA       387       1    2655    2665    2664    4477    3084    3083+
+           3082    1012    1013     416
CTETRA       388       1    2884    4213    4212      22     549    4803+
+           1014     550     552    1015
CTETRA       389       1    2877    2878    2887    4193    3678    3705+
+           3704     207     204     206
CTETRA       390       1    6053    6054    2867    4204    6106    3980+
+           3981     225    1016    1017
CTETRA       391       1    6053    2867    2877    4204    3981    3676+
+           3982     225    1017     216
CTETRA       392       1    2912    4163    4162    4174     938    4661+
+           1018     897    4694    4693
CTETRA       393       1    2901    4185    4184    4196     564    4723+
+            563     567    4756    4755
CTETRA       394       1    6067    2746    6068    4395    4064    4065+
+           6092     943     944    1019
CTETRA       395       1    2796    4323    4322      55     335    5115+
+           1020    1021    1022    1023
CTETRA       396       1    2746    4395    4383      30     944    5320+
+            942    1024     736    1025
CTETRA       397       1    2755    2756    4370    4382    3338    1026+
+           1027     631    1028    5283
CTETRA       398       1    2736    4395    4406    4407     733    5352+
+            891     893    5354    5353
CTETRA       399       1    2725    2726    2735    4406    3254    3281+
+           3280     640     639    1029
CTETRA       400       1    2912    2922    4161    4162    3803    1030+
+           1031    1018    1032    4658
CTETRA       401       1    2885    4214    4213    4225     873    4806+
+            855     543    4839    4838
CTETRA       402       1    5960    2618    5961      19    4106    4105+
+           5972     489     491    1033
CTETRA       403       1    2912    4186    4174      48     898    4727+
+            897     934    1034     935
CTETRA       404       1    2849    2850    4243    4255    3600    1035+
+           1036     825     826    4922
CTETRA       405       1    2858    2859    4230      49    3625    1037+
+           1038     961     960    1039
CTETRA       406       1    2696    4443    2706      56     297     296+
+           3199    1040    1041    1042
CTETRA       407       1    2914      57    2915      58    1043    1044+
+           3783    1045    1046    1047
CTETRA       408       1    2885    2886    4214    4226    3702    1006+
+            873    1048    1007    4841
CTETRA       409       1    2928    4134    4145    4146     626    4611+
+            628    1049    4613    4612
CTETRA       410       1    2875    4226    4237    4238    1050    4873+
+           1051    1052    4875    4874
CTETRA       411       1    2917    4145    4144    4156    1053    4609+
+           1054    1055    4642    4641
CTETRA       412       1    2918    2928    2927    4145    3819    3818+
+           3817    1056     628     636
CTETRA       413       1    2884      22    4212      59     550    1015+
+           1014    1057    1058    1059
CTETRA       414       1    2920    2930    2929    4159    3825    3824+
+           3823     711    1060    1061
CTETRA       415       1    2908    2918    2917    4157    3791    3790+
+           3789     150     152     151
CTETRA       416       1    2927    4133    2937    4144     633     634+
+           3844     635    4608    1062
CTETRA       417       1    2841    4257    4268    4269    1063    4960+
+           1064    1065    4962    4961
CTETRA       418       1    2756    4371    2766      60     300     299+
+           3367    1066    1067    1068
CTETRA       419       1    2796    2806    2805      61    3479    3478+
+           3477    1069    1070    1071
CTETRA       420       1    6048    2917    2927    4144    3991    3816+
+           3992    1072    1054     635
CTETRA       421       1    6068    6069    5998    4407    6091     390+
+            389    1073    1074    5811
CTETRA       422       1    2759    4338    4350      27     945    5191+
+            948     684    1075    1076
CTETRA       423       1    2714    4405    4404    4416    1077    5347+
+           1078    1079    5380    5379
CTETRA       424       1    2736    4395    2746      30     733     944+
+           3311     734     736    1024
CTETRA       425       1    2756    4370    4371      60    1026    5251+
+            300    1066    1080    1067
CTETRA       426       1    2695    2696    4442    4454    3170    1081+
+           1082    1083    1084    5487
CTETRA       427       1    2686    2696    2695    4454    3171    3170+
+           3169    1085    1084    1083
CTETRA       428       1    2675    2676    4466    4478    3114    1086+
+           1087     169     168    5555
CTETRA       429       1    2928    2938    2937    4133    3847    3846+
+           3845     627     645     634
CTETRA       430       1    6046    2937    2947    4120    3995    3872+
+           3996    1088    1089    1090
CTETRA       431       1    2947    4121    4120      62    1091    4531+
+           1090    1092    1093    1094
CTETRA       432       1    2696    4443    4442    4454     297    5455+
+           1081    1084    5488    5487
CTETRA       433       1    2755    4370    2756      60    1027    1026+
+           3338    1095    1080    1066
CTETRA       434       1    2715    2716    2725    4406    3226    3253+
+           3252     452     451     640
CTETRA       435       1    6067    5997    6068    4384     895    1096+
+           6092     358    5743     365
CTETRA       436       1    2938    4133    2948      63     645     371+
+           3875    1097    1098    1099
CTETRA       437       1    2666    4479    4478      64    1100    5557+
+            667    1101    1102    1103
CTETRA       438       1    2941    4137    4136    4148    1104    4587+
+           1105    1106    4620    4619
CTETRA       439       1    2929    2939    4134    4135    3850     134+
+            637     832     717    4581
CTETRA       440       1    2950    2960    4111    4112    3909     661+
+           1107    1108     445    4542
CTETRA       441       1    6074    6003    4467    4479    1109    5801+
+           1110    1111    5800    5558
CTETRA       442       1    6075    6003    6004      65    1112    6039+
+            648    1113    1114    1115
CTETRA       443       1    2666    4478    4479       4     667    5557+
+           1100     668     172     743
CTETRA       444       1    2694    2695    4429    4441    3167    1116+
+           1117    1118    1119    5450
CTETRA       445       1    2704    2714    4416    4417    3221    1079+
+            322     976     985    5381
CTETRA       446       1    2930      66    2940      28    1120    1121+
+           3853     689    1122     690
CTETRA       447       1    6075    6004    4479    4491     648    5799+
+           1123     649    5798    5592
CTETRA       448       1    6075    6005    2647    2657     647    1124+
+           3937    3938    1125    3060
CTETRA       449       1    6075    2666    6076    4491    4080    4081+
+           6084     649    1126     568
CTETRA       450       1    2948    2949    2958    4110    3877    3904+
+           3903    1127    1128    1129
CTETRA       451       1    2940    4124    4135    4136    1130    4583+
+            716    1131    4585    4584
CTETRA       452       1    6067    4383    5995      13     941    5816+
+           1132    1133     303     302
CTETRA       453       1    2832    4259    2842    4270    1134     540+
+           3579    1135    4966    1136
CTETRA       454       1    2951    4124    4125       1    1137    4547+
+            127     129     460     130
CTETRA       455       1    2950    4112    4111    4123    1108    4542+
+           1107    1138    4541    4540
CTETRA       456       1    6059    6060    2807    4276    6100    3968+
+           3969     425    1139     378
CTETRA       457       1    6060    5988    5989    4276     255    6024+
+           1140    1139    5725    5726
CTETRA       458       1    2797    2798    4289    4301    3454    1141+
+           1142    1143    1144    5052
CTETRA       459       1    6060    2807    4276    4288    3968     378+
+           1139    1145     392    5015
CTETRA       460       1    6060    2797    2807    4288    3967    3480+
+           3968    1145    1146     392
CTETRA       461       1    2797    2807    4288    4289    3480     392+
+           1146    1142     393    5017
CTETRA       462       1    6077    2656    2646    4491    4083    3059+
+           4084     570     569    1147
CTETRA       463       1    6067    5996    5995    4383    1148    6031+
+           1132     941    5815    5816
CTETRA       464       1    6078    6008    6079    2617    1149     841+
+           6081    3931    1150    3929
CTETRA       465       1    2940      66    4135      28    1121    1151+
+            716     690    1122     718
CTETRA       466       1    6078    2636    6079    4527    4086    4087+
+           6081    1152    1153    1154
CTETRA       467       1    2949    2959    2958    4110    3906    3905+
+           3904    1128     381    1129
CTETRA       468       1    5998    4396    5999      67    5745    5746+
+           6034    1155    1156    1157
CTETRA       469       1    2707    4409    2708      68    1158    1159+
+           3202    1160    1161    1162
CTETRA       470       1    2948    2958    2957    4109    3903    3902+
+           3901    1163    1164    1165
CTETRA       471       1    2940    2950    2949    4123    3881    3880+
+           3879    1166    1138     126
CTETRA       472       1    2948    4110    4121    4122    1127    4533+
+            370     369    4536    4535
CTETRA       473       1    2948    4110    4109    4121    1127    4534+
+           1163     370    4533    4532
CTETRA       474       1    2938    4122    2948    4133     632     369+
+           3875     645    4577     371
CTETRA       475       1    2938    4122    4133    4134     632    4577+
+            645     638    4579    4578
CTETRA       476       1    6047    2937    4132    4144    3994    1167+
+           1168    1169    1062    4607
CTETRA       477       1    2873    2883    4211      59    3694    1170+
+           1171    1172    1173    1174
CTETRA       478       1    2685    2686    2695    4454    3142    3169+
+           3168    1175    1085    1083
CTETRA       479       1    2917    2918    2927    4145    3790    3817+
+           3816    1053    1056     636
CTETRA       480       1    2907    2917    4156    4157    3788    1055+
+           1176     149     151    4643
CTETRA       481       1    2696    4443    4454    4455     297    5488+
+           1084    1177    5490    5489
CTETRA       482       1    6050    2926    2916    4179    4029    3815+
+           4030    1178    1179    1180
CTETRA       483       1    2937    4133    4132    4144     634    4575+
+           1167    1062    4608    4607
CTETRA       484       1    6049    2926    6050    4179    4028    4029+
+           6110    1181    1179    1178
CTETRA       485       1    6048    2946    2936      69    4025    3871+
+           4026    1182    1183    1184
CTETRA       486       1    6048    4155    2936    4167    1185    1186+
+           4026    1187    4674     400
CTETRA       487       1    6049    4144    5978    4156    1188    5704+
+            586     588    4641    5705
CTETRA       488       1    2865    2866    2875    4238    3646    3673+
+           3672    1189    1190    1052
CTETRA       489       1    2866    2876    2875    4238    3675    3674+
+           3673    1190    1191    1052
CTETRA       490       1    2865    4238    4249    4250    1189    4907+
+            548    1192    4909    4908
CTETRA       491       1    2856    2866    2865    4250    3647    3646+
+           3645    1193    1194    1192
CTETRA       492       1    2835    4262    4273    4274     683    4975+
+            520     508    4977    4976
CTETRA       493       1    2840    4256    4255    4267    1195    4924+
+            824     980    4957    4956
CTETRA       494       1    2824    2834    2833    4272    3557    3556+
+           3555    1196    1197    1198
CTETRA       495       1    2824    2825    4273    4285    3531     521+
+           1199     620     619    5008
CTETRA       496       1    2953    2963    4115      70    3918    1200+
+            506    1201    1202    1203
CTETRA       497       1    2824    2834    4272    4273    3557    1197+
+           1196    1199    1204    4973
CTETRA       498       1    2794    2804    2803    4308    3473    3472+
+           3471     713     712    1205
CTETRA       499       1    2793    2794    2803    4308    3444    3471+
+           3470    1206     713    1205
CTETRA       500       1    2784    4321    4332    4333     268    5142+
+            272     275    5144    5143
CTETRA       501       1    2794    4309    4320    4321     697    5108+
+            266     269    5110    5109
CTETRA       502       1    2783    2784    2793    4320    3416    3443+
+           3442    1207     267    1208
CTETRA       503       1    2773    2774    4332    4344    3388     273+
+           1209    1210    1211    5175
CTETRA       504       1    2783    2793    4319    4320    3442    1212+
+           1213    1207    1208    5106
CTETRA       505       1    2783    2784    4320    4332    3416     267+
+           1207    1214     272    5141
CTETRA       506       1    2783    4320    4319    4331    1207    5106+
+           1213    1215    5139    5138
CTETRA       507       1    2773    2783    4331    4332    3414    1215+
+           1216    1209    1214    5140
CTETRA       508       1    2706    4443    4431      56     296    5456+
+           1217    1042    1041    1218
CTETRA       509       1    2773    4332    4331    4343    1209    5140+
+           1216     730    5173    5172
CTETRA       510       1    2743    4368    4367    4379     288    5242+
+            309     320    5275    5274
CTETRA       511       1    2773    2774    2783    4332    3388    3415+
+           3414    1209     273    1214
CTETRA       512       1    2752    4355    4366    4367     726    5238+
+            727     311    5240    5239
CTETRA       513       1    2762    4343    4354    4355     476    5204+
+           1219     477    5206    5205
CTETRA       514       1    2733    2743    2742    4379    3302    3301+
+           3300     321     320    1220
CTETRA       515       1    2752    4366    4365    4377     727    5236+
+           1221     929    5269    5268
CTETRA       516       1    2752    2753    2762    4355    3329    3356+
+           3355     726     720     477
CTETRA       517       1    2673    4463    4464       2     722    5514+
+            729     187     768     158
CTETRA       518       1    2751    4365    4376    4377    1222    5266+
+            466    1223    5268    5267
CTETRA       519       1    2741    2742    4377    4389    3298     930+
+           1224    1225    1226    5302
CTETRA       520       1    2732    4379    4390    4391    1227    5306+
+            744     741    5308    5307
CTETRA       521       1    2742    4378    4389    4390     931    5303+
+           1226    1228    5305    5304
CTETRA       522       1    4431    4443    4442      56    5456    5455+
+           5454    1218    1041    1229
CTETRA       523       1    2712    4403    2722    4414     752     764+
+           3243     342    5374     760
CTETRA       524       1    2701    2711    2710    4424    3212    3211+
+           3210     427    1230    1231
CTETRA       525       1    2701    2711    4424    4425    3212    1230+
+            427     426     339    5403
CTETRA       526       1    6068    5998    5997    4407     389    6033+
+           1096    1073    5811    5812
CTETRA       527       1    6068    5997    5998    4384    1096    6033+
+            389     365    5743    5744
CTETRA       528       1    6066    2747    4348    4360    3956    1232+
+           1233    1234    1235    5219
CTETRA       529       1    6066    4348    5995    4360    1233    5738+
+           1236    1234    5219    5739
CTETRA       530       1    6068    2746    2736    4395    4065    3311+
+           4066    1019     944     733
CTETRA       531       1    6067    4360    5996    4372    1237    5740+
+           1148     894    5253    5741
CTETRA       532       1    2848    2849    4242      71    3597    1238+
+           1239    1240    1241    1242
CTETRA       533       1    2711    4413    4424    4425    1243    5402+
+           1230     339    5404    5403
CTETRA       534       1    2691    2701    4436    4437    3184     428+
+            429     794     886    5437
CTETRA       535       1    4441    4453    4452      51    5484    5483+
+           5482    1244     990     995
CTETRA       536       1    2660    2661    2670    4472    3071    3098+
+           3097    1245     351     822
CTETRA       537       1    6067    5995    5996    4360    1132    6031+
+           1148    1237    5739    5740
CTETRA       538       1    6066    5995    4371      13    1236    5817+
+            298    1246     302     304
CTETRA       539       1    6050    6051    5980    4191    6109     200+
+            259    1247    1248    5847
CTETRA       540       1    6050    5978    5979    4156     587    6014+
+            659     589    5705    5706
CTETRA       541       1    6049    5978    4167    4179     586    5851+
+            399    1181    5850    4708
CTETRA       542       1    6050    5980    5979    4191     259    6015+
+            659    1247    5847    5848
CTETRA       543       1    6050    4156    5979    4168     589    5706+
+            659     252    4675    5707
CTETRA       544       1    2681    4449    4460    4461     788    5504+
+           1249     802    5506    5505
CTETRA       545       1    2691    2692    4437    4449    3158    1250+
+            794     790     793    5472
CTETRA       546       1    5959    2619    6124    2620    4104     420+
+           5903    4101    2977     651
CTETRA       547       1    2620    2630    2629      39    2979    2978+
+           2976     834     833    1251
CTETRA       548       1    2620    4520    4508      14     652    5673+
+            372     374    1252     375
CTETRA       549       1    2620    2621    2630    4508    2981    2980+
+           2979     372     487     373
CTETRA       550       1    2662    4463    4474    4475    1253    5544+
+           1254    1255    5546    5545
CTETRA       551       1    2669    2670    4459    4471    3096     435+
+            434    1256    1257    5534
CTETRA       552       1    6123    2621    2620    4520    1258    2981+
+            650    5775     488     652
CTETRA       553       1    2621    2622    2631      72    2985    2984+
+           2983    1259    1260    1261
CTETRA       554       1    2622    4523    4522      73    1262    5681+
+           1263    1264    1265    1266
CTETRA       555       1    2622    2623    2632    4511    2989    2988+
+           2987    1267    1268    1269
CTETRA       556       1    2650    2651    2660    4484    3043    3070+
+           3069    1270     357    1271
CTETRA       557       1    2622    4511    4510    4522    1267    5647+
+           1272    1263    5680    5679
CTETRA       558       1    2650    2660    4483    4484    3069    1273+
+           1274    1270    1271    5570
CTETRA       559       1    2632    4510    4509      72    1275    5644+
+           1276    1277    1278    1279
CTETRA       560       1    2670    2671    4460    4472    3099    1280+
+           1281     822     350    5537
CTETRA       561       1    6047    5975    4131    4143    1282    5857+
+            455    1283    5856    4606
CTETRA       562       1    6047    5976    4143      69    1284    5855+
+           1283    1285    1286    1287
CTETRA       563       1    6047    4120    5976    4132    1288    5700+
+           1284    1168    4573    5701
CTETRA       564       1    6046    6047    2937    4120    6113    3994+
+           3995    1088    1288    1089
CTETRA       565       1    2661    4473    4484    4485     352    5572+
+            356     355    5574    5573
CTETRA       566       1    4171    4172    4183       7    4686    4719+
+           4718    1289    1290     799
CTETRA       567       1    2619    4518    4519      39    1291    5669+
+            422    1292    1293    1294
CTETRA       568       1    4507    4519    4518      39    5670    5669+
+           5668    1295    1294    1293
CTETRA       569       1    4506    4507    4518      39    5635    5668+
+           5667    1296    1295    1293
CTETRA       570       1    2618    2619    4506    4518    2973     850+
+            849    1297    1291    5667
CTETRA       571       1    2623    4523    4524      74    1298    5684+
+           1299    1300    1301    1302
CTETRA       572       1    4512    4524    4523      74    5685    5684+
+           5683    1303    1302    1301
CTETRA       573       1    2630    4508    4507    4519     373    5638+
+            859    1304    5671    5670
CTETRA       574       1    5956    6120    2623      73    5895    1305+
+           4095    1306    1307    1308
CTETRA       575       1    2622    2623    4511    4523    2989    1268+
+           1267    1262    1298    5682
CTETRA       576       1    2623    2633    2632    4511    2991    2990+
+           2988    1268    1309    1269
CTETRA       577       1    6124    2620    2619      14     651    2977+
+            420    1310     374    1311
CTETRA       578       1    5936    4111    2959      26    5876     383+
+            382     657     662     658
CTETRA       579       1    5956    5957    6120      73    5968    5896+
+           5895    1306    1312    1307
CTETRA       580       1    5956    6120    6119    2623    5895    6136+
+           5894    4095    1305    1313
CTETRA       581       1    5912    5913    2961    4112    5922    4007+
+           4008     553     444     446
CTETRA       582       1    6054    5982    5983    4204    1314    6018+
+           1315    1016    5713    5714
CTETRA       583       1    6050    5979    4179    4191     659    5849+
+           1178    1247    5848    4742
CTETRA       584       1    2875    2876    2885    4226    3674    3701+
+           3700    1050    1316    1048
CTETRA       585       1    5974    4119    6142      75    5859    5861+
+           6009    1317    1318    1319
CTETRA       586       1    6141    5928    5907      75    2607    2608+
+           5923    1320    1321    1322
CTETRA       587       1    2876    2886    2885    4226    3703    3702+
+           3701    1316    1007    1048
CTETRA       588       1    4177      58      76      77    1323    1324+
+           1325    1326    1327    1328
CTETRA       589       1    5907    5928    2966      75    2608    1329+
+           4018    1322    1321    1330
CTETRA       590       1    2896    4203    4202    4214    1331    4775+
+           1332    1333    4808    4807
CTETRA       591       1    6052    4203    2896    4215    1334    1331+
+           4034    1335    4810    1336
CTETRA       592       1    2886    2896    4214    4215    3731    1333+
+           1006    1005    1336    4809
CTETRA       593       1    6046    5974    4119    4131     406    5859+
+            404     461    5858    4572
CTETRA       594       1    6052    5981    4203    4215     673    5845+
+           1334    1335    5844    4810
CTETRA       595       1    2829    2839    4266    4267    3570     919+
+            928    1337     979    4955
CTETRA       596       1    2617    4505    4516    4517    1338    5662+
+           1339    1340    5664    5663
CTETRA       597       1    2636    4515    4514    4526    1341    5659+
+           1342    1343    5692    5691
CTETRA       598       1    2626    2636    4526    4527    3003    1343+
+            845     848    1153    5693
CTETRA       599       1    2618    4506    4517    4518     849    5665+
+           1344    1297    5667    5666
CTETRA       600       1    2639    4507    2640      36    1345     858+
+           3012    1346    1347     816
CTETRA       601       1    2629    2630    2639    4507    2978    3011+
+           3010    1348     859    1345
CTETRA       602       1    6122    2621    6123    4521    1349    1258+
+           6133    5777    1350    5776
CTETRA       603       1    2629    2630    4507      39    2978     859+
+           1348    1251     833    1295
CTETRA       604       1    4470    4482    4481      78    5565    5564+
+           5563    1351    1352    1353
CTETRA       605       1    2803    2813    4295    4296    3498     970+
+           1354     971     710    5038
CTETRA       606       1    6005    4480    6006      23    5759    5760+
+           6041     561    1355    1356
CTETRA       607       1    2689    4435    4434    4446    1357    5431+
+           1358     878    5464    5463
CTETRA       608       1    5957    4522    6121      73    1359    5779+
+           5892    1312    1266    1360
CTETRA       609       1    6122    2622    4521    4522    1361    1362+
+           5777    5778    1263    5678
CTETRA       610       1    2955    2956    4118    4130    3898    1363+
+           1364    1365    1366    4568
CTETRA       611       1    2700    4435      79      16     642    1367+
+           1368     643     432    1369
CTETRA       612       1    2691    2701    2700    4436    3184    3183+
+           3182     429     428     430
CTETRA       613       1    2691    2692    2701    4437    3158    3185+
+           3184     794    1250     886
CTETRA       614       1    5907    5929    5908    2966    2609    2610+
+           5924    4018    1370    4017
CTETRA       615       1    6005    2647    4480      23    1124    1371+
+           5759     561    1372    1355
CTETRA       616       1    5929    2965    2966    4118    1373    3926+
+           1370    5862    1374    1375
CTETRA       617       1    2715    2725    2724    4405    3252    3251+
+           3250    1376    1377    1378
CTETRA       618       1    5907    5928    5929    2966    2608    5948+
+           2609    4018    1329    1370
CTETRA       619       1    5928    4118    2966    4119    5863    1375+
+           1329    5860    4570     403
CTETRA       620       1    6070    5999    4419    4431    1379    5809+
+            447     449    5808    5422
CTETRA       621       1    6067    2737    4372    4384    3954    1380+
+            894     358     360    5287
CTETRA       622       1    2812    4283    4294    4295     968    5034+
+            956     969    5036    5035
CTETRA       623       1    2728    4386    2729      80    1381     922+
+           3261    1382    1383    1384
CTETRA       624       1    5931    4116    4115      81    5866    4558+
+           5869    1385    1386    1387
CTETRA       625       1    4375    4387    4386      45    5296    5295+
+           5294     908    1388     909
CTETRA       626       1    2718    2728    4385    4386    3259    1389+
+           1390    1391    1381    5292
CTETRA       627       1    5956    2622    5957      73    4098    4097+
+           5968    1306    1264    1312
CTETRA       628       1    2718    4386    4397    4398    1391    5325+
+           1392    1393    5327    5326
CTETRA       629       1    2762    2772    4353    4354    3383    1394+
+           1395    1219    1396    5202
CTETRA       630       1    6001    2687    4420    4432    1397    1398+
+           5750    5751    1399    5423
CTETRA       631       1    6000    2687    2697    4420    1400    3172+
+           1401    5749    1398    1402
CTETRA       632       1    2762    4343    2772    4354     476     731+
+           3383    1219    5204    1396
CTETRA       633       1    2802    2803    2812    4295    3469    3496+
+           3495    1403    1354     969
CTETRA       634       1    4397    4409    4408      68    5358    5357+
+           5356    1404    1161    1405
CTETRA       635       1    2697    4409    4408    4420    1406    5357+
+           1407    1402    5390    5389
CTETRA       636       1    2753    2763    2762    4355    3358    3357+
+           3356     720     478     477
CTETRA       637       1    2755    2765    2764    4357    3364    3363+
+           3362    1408    1409    1410
CTETRA       638       1    4299    4311    4310      24    5082    5081+
+           5080    1411    1412     582
CTETRA       639       1    6060    5988    4287    4299     255    5831+
+            258     261    5830    5048
CTETRA       640       1    4334    4346    4345      12    5181    5180+
+           5179     485    1413     283
CTETRA       641       1    6060    4299    2816    4311     261     262+
+           4050     694    5082     695
CTETRA       642       1    2801    4305    4316    4317    1414    5096+
+           1415    1416    5098    5097
CTETRA       643       1    2797    2798    4301    4313    3454    1144+
+           1143    1417    1418    5086
CTETRA       644       1    2779    2789    2788    4314    3430    3429+
+           3428     492    1419     904
CTETRA       645       1    2800    4304    4303      82    1420    5060+
+           1421    1422    1423    1424
CTETRA       646       1    2769    2770    4339      27    3376    1425+
+           1426    1427     828    1428
CTETRA       647       1    2647    2648    4481    4493    3034    1429+
+           1430    1431    1432    5596
CTETRA       648       1    2811    4293    4304    4305    1433    5062+
+           1434    1435    5064    5063
CTETRA       649       1    2647    2648    4469    4481    3034    1436+
+           1437    1430    1429    5562
CTETRA       650       1    2779    4326    4327      20     493    5125+
+           1438     494     496    1439
CTETRA       651       1    2824    4273    4272    4284    1199    4973+
+           1196    1440    5006    5005
CTETRA       652       1    2862    2872    4221    4222    3663    1441+
+           1442     526    1443    4828
CTETRA       653       1    2683    2684    2693    4440    3136    3163+
+           3162     772    1009     773
CTETRA       654       1    2684    2694    2693    4440    3165    3164+
+           3163    1009    1008     773
CTETRA       655       1    2683    4440    4451    4452     772    5479+
+            755     754    5481    5480
CTETRA       656       1    2861    4233    4232      83    1444    4859+
+            517    1445    1446    1447
CTETRA       657       1    2693    4439    4440      44     770    5446+
+            773    1448    1449    1450
CTETRA       658       1    2841    2842    2851    4257    3578    3605+
+           3604    1063    1451    1452
CTETRA       659       1    2720    4400    4411    4412     471    5365+
+           1453    1454    5367    5366
CTETRA       660       1    2731    4389    4388    4400    1455    5301+
+            468    1456    5334    5333
CTETRA       661       1    2730    4388    4399    4400     467    5331+
+           1457    1458    5333    5332
CTETRA       662       1    2841    2851    4256    4257    3604    1459+
+           1460    1063    1452    4927
CTETRA       663       1    2720    2721    4400    4412    3239    1461+
+            471    1454    1462    5367
CTETRA       664       1    2862    2863    4223    4235    3637    1463+
+            525     537    1464    4866
CTETRA       665       1    2864    4248    4236      53    1465    4903+
+           1466    1467     998     997
CTETRA       666       1    6065    4359    2766    4371    1468     606+
+           4060     301    5252     299
CTETRA       667       1    2873    4223    4224      59    1469    4834+
+           1470    1172    1471    1472
CTETRA       668       1    6064    5993    4347    4359    1473    5821+
+           1474    1475    5820    5218
CTETRA       669       1    2863    2873    4223      54    3666    1469+
+           1463    1476    1477    1478
CTETRA       670       1    4235    4236    4247      53    4868    4901+
+           4900    1479     997     999
CTETRA       671       1    2637    4492    2647      23    1480    1481+
+           3032     558    1482    1372
CTETRA       672       1    2877    2887    4192    4193    3704     223+
+            215     207     206    4745
CTETRA       673       1    2782    2783    4319    4331    3413    1213+
+           1483    1484    1215    5138
CTETRA       674       1    2783    2793    2792    4319    3442    3441+
+           3440    1213    1212    1485
CTETRA       675       1    6049    6050    5978    4179    6110     587+
+            586    1181    1178    5850
CTETRA       676       1    2782    4319    4330    4331    1483    5136+
+           1486    1484    5138    5137
CTETRA       677       1    2898    4182    4181    4193     147    4714+
+            655     646    4747    4746
CTETRA       678       1    2792    4307    4318    4319    1487    5102+
+           1488    1485    5104    5103
CTETRA       679       1    2888    4182    2898    4193     670     147+
+           3735     205    4747     646
CTETRA       680       1    6055    5983    5984       9    1489    6019+
+            231     233    1490     234
CTETRA       681       1    2820    2830    2829    4279    3545    3544+
+           3543    1491    1492    1493
CTETRA       682       1    2830    4268    4279    4280    1494    4991+
+           1492    1495    4993    4992
CTETRA       683       1    2819    2820    2829    4279    3516    3543+
+           3542    1496    1491    1493
CTETRA       684       1    2819    4279    4290    4291    1496    5022+
+           1497    1498    5024    5023
CTETRA       685       1    2897    4181    4180    4192     209    4711+
+            212     210    4744    4743
CTETRA       686       1    2878    4194    4193    4205    1499    4748+
+            204     208    4781    4780
CTETRA       687       1    2865    2875    4237    4238    3672    1051+
+            545    1189    1052    4874
CTETRA       688       1    2865    2866    4238    4250    3646    1190+
+           1189    1192    1194    4909
CTETRA       689       1    2855    2865    4249    4250    3644     548+
+           1500    1501    1192    4908
CTETRA       690       1    6077    6006    2637      23     120    1502+
+           3934     557    1356     558
CTETRA       691       1    6052    5981    6053    4192     673     394+
+           6107     222    5711     224
CTETRA       692       1    6077    6005    6006      23     560    6041+
+            120     557     561    1356
CTETRA       693       1    2900    4183    4184       7    1503    4720+
+            189     191     799     192
CTETRA       694       1    2902    2912    2911      48    3775    3774+
+           3773    1504     934    1505
CTETRA       695       1    2882    4198    4209    4210    1506    4793+
+           1507    1508    4795    4794
CTETRA       696       1    2892    2902    4186      84    3747     902+
+            901    1509    1510    1511
CTETRA       697       1    2911    2912    4173      48    3774     933+
+           1512    1505     934     936
CTETRA       698       1    6062    6063    5991    4335    6097    1513+
+           1514    1515     319    5824
CTETRA       699       1    2944    4141    4140    4152    1516    4599+
+           1517    1518    4632    4631
CTETRA       700       1    2944    4141    4152    4153    1516    4632+
+           1518    1519    4634    4633
CTETRA       701       1    5908    5930    5909    4117    2611    2614+
+           5926    1520    5864    1521
CTETRA       702       1    2934    2944    4152    4153    3865    1518+
+           1522     585    1519    4633
CTETRA       703       1    2924    2934    2933      85    3837    3836+
+           3835    1523    1524    1525
CTETRA       704       1    5908    5929    5930    4117    2610    5949+
+           2611    1520    5865    5864
CTETRA       705       1    2946    4131    4142    4143     457    4604+
+           1526    1527    4606    4605
CTETRA       706       1    5929    4117    2965    4118    5865    1528+
+           1373    5862    4566    1374
CTETRA       707       1    2849    2850    2859    4231    3600    3627+
+           3626    1529    1530    1531
CTETRA       708       1    6056    2866    2856    4251    4041    3647+
+           4042    1532    1533     679
CTETRA       709       1    6055    6056    5984    4251    6104    1534+
+            231    1535    1532    5838
CTETRA       710       1    5909    5930    4116    4117    2614    5867+
+           1536    1521    5864    4562
CTETRA       711       1    5909    5930    5931    4116    2614    5951+
+           2615    1536    5867    5866
CTETRA       712       1    2901    4173    4185      48     562    4724+
+            564    1537     936    1538
CTETRA       713       1    5909    4116    5931      81    1536    5866+
+           2615    1539    1386    1385
CTETRA       714       1    6056    2856    6057    4263    4042    4043+
+           6103    1540     601     600
CTETRA       715       1    2747    4361    4360      86    1541    5221+
+           1235    1542    1543    1544
CTETRA       716       1    2747    2748    4361      87    3314    1545+
+           1541    1546    1547    1548
CTETRA       717       1    6066    2737    2747    4360    3955    3312+
+           3956    1234    1549    1235
CTETRA       718       1    6056    4251    2856    4263    1532     679+
+           4042    1540    4946     601
CTETRA       719       1    6119    2624    2623    4524    1550    2993+
+           1313    5783    1551    1299
CTETRA       720       1    6056    2847    4228    4240    3976    1552+
+           1553     612    1554    4879
CTETRA       721       1    6055    5984    6056    4228     231    1534+
+           6104     232    5717    1553
CTETRA       722       1    2846    2856    2855    4262    3619    3618+
+           3617     511     614     678
CTETRA       723       1    2855    2856    4250    4262    3618    1193+
+           1501     678     614    4943
CTETRA       724       1    2856    2866    4250    4251    3647    1194+
+           1193     679    1533    4911
CTETRA       725       1    2866    4239    4250    4251    1555    4910+
+           1194    1533    4912    4911
CTETRA       726       1    6066    6067    2737    4360    6093    3954+
+           3955    1234    1237    1549
CTETRA       727       1    6066    5995    6067    4360    1236    1132+
+           6093    1234    5739    1237
CTETRA       728       1    2807    4277    4276    4288     379    4983+
+            378     392    5016    5015
CTETRA       729       1    6060    5989    5988    4299    1140    6024+
+            255     261    5829    5830
CTETRA       730       1    6059    5988    6060    4276     256     255+
+           6100     425    5725    1139
CTETRA       731       1    2918    2919    2928    4146    3793    3820+
+           3819     599     622    1049
CTETRA       732       1    2634    2644    2643    4512    3025    3024+
+           3023    1556    1557     877
CTETRA       733       1    2947    2948    4121      63    3874     370+
+           1091    1558    1099    1559
CTETRA       734       1    2643    4499    4500      15    1560    5616+
+            875    1561    1562    1563
CTETRA       735       1    2644    4500    2654      15    1564    1565+
+           3053     413    1563     414
CTETRA       736       1    2947    4121      62      63    1091    1093+
+           1092    1558    1559    1566
CTETRA       737       1    2670    4460    4471    4472    1281    5535+
+           1257     822    5537    5536
CTETRA       738       1    2660    2670    4471    4472    3097    1257+
+           1567    1245     822    5536
CTETRA       739       1    2671    4461    4460    4472     347    5505+
+           1280     350    5538    5537
CTETRA       740       1    2908    4158    4157    4169     153    4646+
+            150     173    4679    4678
CTETRA       741       1    2907    4157    4156    4168     149    4643+
+           1176     254    4676    4675
CTETRA       742       1    6050    2907    4156    4168    3988    1176+
+            589     252     254    4675
CTETRA       743       1    6049    4167    2926    4179     399     401+
+           4028    1181    4708    1179
CTETRA       744       1    2743    2753    4367    4368    3330     310+
+            309     288     315    5242
CTETRA       745       1    2902    4185    4186      48     899    4726+
+            902    1504    1538    1034
CTETRA       746       1    2732    4379    2742    4390    1227    1220+
+           3299     744    5306    1228
CTETRA       747       1    2742    4367    4378    4379     312    5272+
+            931    1220    5274    5273
CTETRA       748       1    2926    2936    4166    4167    3843    1568+
+           1569     401     400    4673
CTETRA       749       1    2926    4167    4166    4178     401    4673+
+           1569    1570    4706    4705
CTETRA       750       1    2916    2926    2925    4178    3815    3814+
+           3813    1571    1570    1572
CTETRA       751       1    2886    4215    4226    4227    1005    4842+
+           1007    1573    4844    4843
CTETRA       752       1    2885    4214    4225    4226     873    4839+
+            543    1048    4841    4840
CTETRA       753       1    2759    4350    4351      27     948    5193+
+            686     684    1076     685
CTETRA       754       1    4339    4351    4350      27    5194    5193+
+           5192    1428     685    1076
CTETRA       755       1    2779    2780    4327    4339    3404    1574+
+           1438    1575     498    5160
CTETRA       756       1    2780    4328    4327    4339     497    5128+
+           1574     498    5161    5160
CTETRA       757       1    2769    4339    2779      88    1426    1575+
+           3402    1576    1577    1578
CTETRA       758       1    2854    2855    4249    4261    3615    1500+
+           1579    1580     675    4940
CTETRA       759       1    2865    2875    2874    4237    3672    3671+
+           3670     545    1051    1581
CTETRA       760       1    2805    4298    4309    4310     578    5077+
+            693     579    5079    5078
CTETRA       761       1    2816    2826    2825    4286    3535    3534+
+           3533     264     251     250
CTETRA       762       1    2815    4286    4297    4298     263    5043+
+            707     591    5045    5044
CTETRA       763       1    2902    4186    2912      48     902     898+
+           3775    1504    1034     934
CTETRA       764       1    2816    2826    4286    4287    3535     251+
+            264     260     345    5013
CTETRA       765       1    2816    4287    4298    4299     260    5046+
+           1582     262    5048    5047
CTETRA       766       1    2845    2846    2855    4262    3590    3617+
+           3616     677     511     678
CTETRA       767       1    2842    4247    2852    4258     539    1583+
+           3607    1584    4932     535
CTETRA       768       1    2852    4247    4246    4258    1583    4899+
+            533     535    4932    4931
CTETRA       769       1    2842    4259    4258    4270     540    4933+
+           1584    1136    4966    4965
CTETRA       770       1    2832    2842    4269    4270    3579    1585+
+           1586    1135    1136    4964
CTETRA       771       1    2854    4260    4248      32    1587    4937+
+           1588    1589    1590     775
CTETRA       772       1    2854    4249    4260    4261    1579    4938+
+           1587    1580    4940    4939
CTETRA       773       1    2869    4207    4206    4218    1591    4785+
+           1592    1593    4818    4817
CTETRA       774       1    2858    2859    2868    4218    3625    3652+
+           3651    1594    1595    1596
CTETRA       775       1    2859    2869    4218    4219    3654    1593+
+           1595    1597    1598    4819
CTETRA       776       1    2858    4218    2868    4229    1594    1596+
+           3651    1599    4849     982
CTETRA       777       1    6120    6121    4523      73    6135    5780+
+           5781    1307    1360    1265
CTETRA       778       1    2855    2865    2864    4249    3644    3643+
+           3642    1500     548     547
CTETRA       779       1    2925    4166    4165    4177    1600    4670+
+           1601    1602    4703    4702
CTETRA       780       1    4165    4177    4176      76    4702    4701+
+           4700    1603    1325    1604
CTETRA       781       1    2834    2844    4260    4261    3585    1605+
+           1606    1607    1608    4939
CTETRA       782       1    2915    4189    4177      57    1609    4736+
+           1610    1044    1611    1612
CTETRA       783       1    2904    4189    2905      57    1613    1614+
+           3755    1615    1611    1616
CTETRA       784       1    5957    6121    6120      73    5892    6135+
+           5896    1312    1360    1307
CTETRA       785       1    2844    2845    2854    4261    3587    3614+
+           3613    1608     676    1580
CTETRA       786       1    2941    4137    4148    4149    1104    4620+
+           1106    1617    4622    4621
CTETRA       787       1    2931    2941    4148    4149    3856    1106+
+           1618    1619    1617    4621
CTETRA       788       1    4298    4299    4310      24    5047    5080+
+           5079     581    1411     582
CTETRA       789       1    2941    2942    4137    4149    3858    1620+
+           1104    1617    1621    4622
CTETRA       790       1    6061    5990    5989    4311    1622    6025+
+           1623     696    5827    5828
CTETRA       791       1    5957    2622    4522      73    4097    1263+
+           1359    1312    1264    1266
CTETRA       792       1    2952    4115    4114    4126     505    4554+
+            219    1624    4553    4552
CTETRA       793       1    2814    4285    4296    4297     706    5040+
+            709     702    5042    5041
CTETRA       794       1    2952    4127    4126    4138    1625    4555+
+           1624    1626    4592    4591
CTETRA       795       1    2793    2794    4308    4320    3444     713+
+           1206    1208     266    5107
CTETRA       796       1    2942    2952    2951    4137    3887    3886+
+           3885    1620    1627    1628
CTETRA       797       1    2911    2912    4161    4173    3774    1031+
+           1629    1512     933    4690
CTETRA       798       1    2911    4161    4172    4173    1629    4688+
+           1630    1512    4690    4689
CTETRA       799       1    2622    2623    4523      73    2989    1298+
+           1262    1264    1308    1265
CTETRA       800       1    2803    2813    2812    4295    3498    3497+
+           3496    1354     970     969
CTETRA       801       1    2901    2911    4173      48    3772    1512+
+            562    1537    1505     936
CTETRA       802       1    2860    2870    2869    4219    3657    3656+
+           3655    1631    1632    1598
CTETRA       803       1    2870    4219    4220      35    1632    4822+
+            519     809    1633    1634
CTETRA       804       1    2870    2871    2880    4220    3659    3686+
+           3685     519     518    1635
CTETRA       805       1    2870    4220    2880      35     519    1635+
+           3685     809    1634     813
CTETRA       806       1    2860    4220    4231    4232     515    4855+
+           1636     516    4857    4856
CTETRA       807       1    2813    2814    4284    4296    3500     975+
+           1637     710     709    5039
CTETRA       808       1    2838    4254    4253      46     911    4918+
+           1638     912     914     983
CTETRA       809       1    2793    4308    4307    4319    1206    5072+
+           1639    1212    5105    5104
CTETRA       810       1    2829    4266    2839      46     928     919+
+           3570     918     920     913
CTETRA       811       1    2829    4267    4266      89    1337    4955+
+            928    1640    1641    1642
CTETRA       812       1    2829    2830    4267    4279    3544    1643+
+           1337    1493    1492    4990
CTETRA       813       1    6049    5978    5977    4167     586    6013+
+           1644     399    5851    5852
CTETRA       814       1    2778    4314    4313    4325     903    5088+
+           1645     940    5121    5120
CTETRA       815       1    6120    4523    2623      73    5781    1298+
+           1305    1307    1265    1308
CTETRA       816       1    2788    2798    2797    4313    3455    3454+
+           3453    1646    1418    1417
CTETRA       817       1    2735    2745    2744    4381    3308    3307+
+           3306     291    1647    1648
CTETRA       818       1    2784    2794    2793    4320    3445    3444+
+           3443     267     266    1208
CTETRA       819       1    2788    2789    4302    4314    3429    1649+
+           1650     904    1419    5089
CTETRA       820       1    2772    2773    2782    4331    3385    3412+
+           3411    1651    1216    1484
CTETRA       821       1    2735    4394    2736      30    1652     732+
+           3282    1653     735     734
CTETRA       822       1    2773    2783    2782    4331    3414    3413+
+           3412    1216    1215    1484
CTETRA       823       1    2763    2773    4343    4344    3386     730+
+            475     719    1210    5174
CTETRA       824       1    2746    2756    2755    4382    3339    3338+
+           3337     630    1028     631
CTETRA       825       1    2761    2762    4353    4365    3354    1395+
+           1654    1655    1656    5234
CTETRA       826       1    2762    2772    2771    4353    3383    3382+
+           3381    1395    1394    1657
CTETRA       827       1    2752    2762    4365    4366    3355    1656+
+           1221     727     728    5236
CTETRA       828       1    2762    4355    4354    4366     477    5205+
+           1219     728    5238    5237
CTETRA       829       1    2722    2732    4401    4402    3271     745+
+           1658     758     746    5338
CTETRA       830       1    6067    2746    4383      13    4064     942+
+            941    1133    1659     303
CTETRA       831       1    6142    4119    5928      75    5861    5860+
+           5947    1319    1318    1321
CTETRA       832       1    4429    4430    4441      90    5418    5451+
+           5450    1660    1661    1662
CTETRA       833       1    2671    2681    2680    4460    3128    3127+
+           3126    1280    1249    1663
CTETRA       834       1    2695    4441    4442      90    1119    5452+
+           1082    1664    1662    1665
CTETRA       835       1    2652    2653    2662    4475    3049    3076+
+           3075     804     868    1255
CTETRA       836       1    2654    4477    2664    4488    1011     416+
+           3081    1666    5584     417
CTETRA       837       1    2670    4460    4459    4471    1281    5502+
+            435    1257    5535    5534
CTETRA       838       1    2664    2665    2674    4477    3083    3110+
+           3109     416    1013    1667
CTETRA       839       1    2679    2680    4447      17    3124    1668+
+            880    1669    1670    1671
CTETRA       840       1    2690    4436    4447    4448     276    5467+
+            278     439    5469    5468
CTETRA       841       1    2668    2669    2678    4446    3093    3120+
+           3119    1672    1673    1674
CTETRA       842       1    5953    2625    5954    4526    4092    4091+
+           5965     846    1675     857
CTETRA       843       1    5954    5955    6118    4525    5966    5884+
+           5888     883     885    5785
CTETRA       844       1    2669    2679    4447      17    3122     880+
+           1676     436    1669    1671
CTETRA       845       1    5954    4525    6118    4526     883    5785+
+           5888     857    5690    5786
CTETRA       846       1    5953    5954    6117    4526    5965    5889+
+           5890     846     857    5787
CTETRA       847       1    2659    2660    4471    4483    3068    1567+
+           1677    1678    1273    5568
CTETRA       848       1    2660    2661    4472    4484    3071     351+
+           1245    1271     356    5571
CTETRA       849       1    2650    4484    4483    4495    1270    5570+
+           1274    1679    5603    5602
CTETRA       850       1    2671    2672    2681    4461    3102    3129+
+           3128     347     346     802
CTETRA       851       1    2650    2651    4484    4496    3043     357+
+           1270     815     805    5605
CTETRA       852       1    2640    2650    2649      37    3041    3040+
+           3039     820     819    1680
CTETRA       853       1    2639    4494    4495      37    1681    5601+
+           1682    1683    1684    1685
CTETRA       854       1    6050    4179    2916    4191    1178    1180+
+           4030    1247    4742    1686
CTETRA       855       1    6050    5979    5978    4179     659    6014+
+            587    1178    5849    5850
CTETRA       856       1    6048    5977    6049    4144    1687    1644+
+           6111    1072    5703    1188
CTETRA       857       1    2639    4482    4494      37    1688    5599+
+           1681    1683    1689    1684
CTETRA       858       1    2732    2742    4389    4390    3299    1226+
+           1690     744    1228    5304
CTETRA       859       1    5911    5933    5912    4114    2603    2601+
+           5920    1691    5870    1692
CTETRA       860       1    5912    2961    2962    4114    4008    3914+
+           4009    1692     221     220
CTETRA       861       1    5911    5932    4114    4115    2612    5871+
+           1691    1693    5868    4554
CTETRA       862       1    5958    6123    6122    2621    5901    6133+
+           5893    4099    1258    1349
CTETRA       863       1    5911    4114    2962    4115    1691     220+
+           4010    1693    4554     507
CTETRA       864       1    6000    6001    2687    4420    6036    1397+
+           1400    5749    5750    1398
CTETRA       865       1    6001    6002    2677    4432    6037    1694+
+           1695    5751    5752    1696
CTETRA       866       1    6072    6001    6000    4443    1697    6036+
+           1698     295    5805    5806
CTETRA       867       1    2733    4380    4379    4391     306    5276+
+            321    1699    5309    5308
CTETRA       868       1    5962    2617    6127    4517    3930    1700+
+           5898     681    1340    5768
CTETRA       869       1    2636    4514    4515      91    1342    5659+
+           1341    1701    1702    1703
CTETRA       870       1    2622    4510    2632      72    1272    1275+
+           2987    1260    1278    1277
CTETRA       871       1    5955    2623    6119    2624    4096    1313+
+           5883    4093    2993    1550
CTETRA       872       1    5953    2626    2625    4526    4089    3001+
+           4092     846     845    1675
CTETRA       873       1    2625    4526    2626      92    1675     845+
+           3001    1704    1705    1706
CTETRA       874       1    2638    2639    4494      38    3009    1681+
+           1707    1708    1709     830
CTETRA       875       1    6067    2737    4360    4372    3954    1549+
+           1237     894    1380    5253
CTETRA       876       1    2747    4349    4348    4360    1710    5187+
+           1232    1235    5220    5219
CTETRA       877       1    6049    5977    5978    4144    1644    6013+
+            586    1188    5703    5704
CTETRA       878       1    2639    4495    4506    4507    1682    5634+
+           1711    1345    5636    5635
CTETRA       879       1    6141    6142    5928      75    2597    5947+
+           2607    1320    1319    1321
CTETRA       880       1    6047    5976    5977    4132    1284    6012+
+           1712    1168    5701    5702
CTETRA       881       1    2689    4446    4434      93     878    5463+
+           1358    1713    1714    1715
CTETRA       882       1    4458    4470    4469      94    5531    5530+
+           5529    1716    1717    1718
CTETRA       883       1    2721    2722    4401    4413    3242    1658+
+           1719     762     759    5370
CTETRA       884       1    6141    5974    6142      75    1720    6009+
+           2597    1320    1317    1319
CTETRA       885       1    2721    2731    2730    4400    3268    3267+
+           3266    1461    1456    1458
CTETRA       886       1    6045    2966    4119      75    4020     403+
+            402    1721    1330    1318
CTETRA       887       1    4428    4440    4439      44    5447    5446+
+           5445     889    1450    1449
CTETRA       888       1    2693    4427    4439      44    1722    5444+
+            770    1448    1723    1449
CTETRA       889       1    2692    4427    4438    4439    1724    5442+
+           1725    1726    5444    5443
CTETRA       890       1    2735    4382    4394      30    1727    5317+
+           1652    1653    1728     735
CTETRA       891       1    2738    2748    4373      95    3315    1729+
+           1730    1731    1732    1733
CTETRA       892       1    4398    4410    4409      96    5361    5360+
+           5359    1734    1735    1736
CTETRA       893       1    2729    4386      45      80     922     909+
+           1737    1384    1383    1738
CTETRA       894       1    2719    4399    4410    4411    1739    5362+
+           1740    1741    5364    5363
CTETRA       895       1    2729    2730    4387      47    3264    1742+
+            921     923    1743     924
CTETRA       896       1    4387    4399    4398      47    5330    5329+
+           5328     924    1744    1745
CTETRA       897       1    2724    4393    4404    4405    1746    5346+
+           1747    1378    5348    5347
CTETRA       898       1    2720    4400    2730      18     471    1458+
+           3265     472     474    1748
CTETRA       899       1    2730    4388    4387    4399     467    5298+
+           1742    1457    5331    5330
CTETRA       900       1    2751    4365    4364    4376    1222    5233+
+           1749     466    5266    5265
CTETRA       901       1    4376    4388    4387      31    5299    5298+
+           5297     766    1750     767
CTETRA       902       1    2755    4358    4357    4369    1751    5214+
+           1408    1752    5247    5246
CTETRA       903       1    2785    4334    2786      55     482     480+
+           3422    1753    1754    1755
CTETRA       904       1    2767    4325    4324    4336    1756    5119+
+            836     839    5152    5151
CTETRA       905       1    4347    4359    4358       3    5218    5217+
+           5216     166     607     167
CTETRA       906       1    6048    6049    2917    4144    6111    3990+
+           3991    1072    1188    1054
CTETRA       907       1    2767    2777    4324    4325    3396    1757+
+            836    1756    1758    5119
CTETRA       908       1    2792    4318    4329    4330    1488    5133+
+           1759    1760    5135    5134
CTETRA       909       1    2811    2812    2821    4293    3494    3521+
+           3520    1433    1761    1762
CTETRA       910       1    2793    2803    4307    4308    3470    1763+
+           1639    1206    1205    5072
CTETRA       911       1    2792    2793    4307    4319    3441    1639+
+           1487    1485    1212    5104
CTETRA       912       1    2792    4307    2802    4318    1487    1764+
+           3467    1488    5102    1765
CTETRA       913       1    5928    4119    2966      75    5860     403+
+           1329    1321    1318    1330
CTETRA       914       1    2802    4306    4317    4318    1766    5099+
+           1767    1765    5101    5100
CTETRA       915       1    2811    4293    4292    4304    1433    5029+
+           1768    1434    5062    5061
CTETRA       916       1    2818    4278    4277      97    1769    4986+
+            524    1770    1771    1772
CTETRA       917       1    2819    4279    2829      89    1496    1493+
+           3542    1773    1774    1640
CTETRA       918       1    2818    4278      97      98    1769    1771+
+           1770    1775    1776    1777
CTETRA       919       1    2808    4289    4290      97    1778    5020+
+           1779    1780    1781    1782
CTETRA       920       1    2801    4305    4304    4316    1414    5063+
+           1783    1415    5096    5095
CTETRA       921       1    4374    4386    4385      80    5293    5292+
+           5291    1784    1383    1785
CTETRA       922       1    2875    4226    4225    4237    1050    4840+
+            542    1051    4873    4872
CTETRA       923       1    2738    4374    4385      80    1786    5291+
+           1787    1788    1784    1785
CTETRA       924       1    2874    4225    4236    4237    1789    4870+
+           1000    1581    4872    4871
CTETRA       925       1    2854    2864    4248    4249    3641    1465+
+           1588    1579     547    4905
CTETRA       926       1    2834    4261    4272    4273    1607    4972+
+           1197    1204    4974    4973
CTETRA       927       1    2738    2739    4374      80    3289    1790+
+           1786    1788    1791    1784
CTETRA       928       1    2813    4284    4283    4295    1637    5004+
+            967     970    5037    5036
CTETRA       929       1    6052    2906    2896    4203    4033    3759+
+           4034    1334    1792    1331
CTETRA       930       1    6058    2817    2827    4264    3971    3536+
+           3972    1793     423    1794
CTETRA       931       1    2891    2892    2901    4185    3718    3745+
+           3744     565     900     564
CTETRA       932       1    2851    2861    2860      83    3632    3631+
+           3630    1795    1445    1796
CTETRA       933       1    2739    4386    4374      80     906    5293+
+           1790    1791    1383    1784
CTETRA       934       1    2881    2882    2891    4197    3690    3717+
+           3716    1797    1798    1799
CTETRA       935       1    2739      45    4386      80     907     909+
+            906    1791    1738    1383
CTETRA       936       1    2892    4186    4197    4198     901    4759+
+           1800    1801    4761    4760
CTETRA       937       1    2850    2851    2860      83    3603    3630+
+           3629    1802    1795    1796
CTETRA       938       1    4233    4245    4244      83    4894    4893+
+           4892    1446    1803    1804
CTETRA       939       1    2907    4157    4168    4169     149    4676+
+            254     660    4678    4677
CTETRA       940       1    2918    4146    4145    4157     599    4612+
+           1056     152    4645    4644
CTETRA       941       1    6008    6116    4527      40    5790    5789+
+           5791     844    1805    1806
CTETRA       942       1    2917    4145    4156    4157    1053    4642+
+           1055     151    4644    4643
CTETRA       943       1    2861    4245    4233      83    1807    4894+
+           1444    1445    1803    1446
CTETRA       944       1    2883    2884    4200    4212    3696    1808+
+           1809    1810    1014    4801
CTETRA       945       1    6049    6050    2907    4156    6110    3988+
+           3989     588     589    1176
CTETRA       946       1    6049    2907    2917    4156    3989    3788+
+           3990     588    1176    1055
CTETRA       947       1    2907    2908    4157    4169    3762     150+
+            149     660     173    4678
CTETRA       948       1    2917    2918    4145    4157    3790    1056+
+           1053     151     152    4644
CTETRA       949       1    2917    2927    4144    4145    3816     635+
+           1054    1053     636    4609
CTETRA       950       1    6079    6008    4527      40     841    5791+
+           1154     842     844    1806
CTETRA       951       1    6079    6143    6144      40    6080    5887+
+            840     842    1811     843
CTETRA       952       1    2716    4431    4419      99     450    5422+
+            448    1812    1813    1814
CTETRA       953       1    2884    4201    4212    4213     860    4802+
+           1014     549    4804    4803
CTETRA       954       1    2726    2736    2735    4406    3283    3282+
+           3281     639     891    1029
CTETRA       955       1    6051    5980    4191    4203     200    5847+
+           1248    1815    5846    4776
CTETRA       956       1    5909    5931    5910      81    2615    2616+
+           5927    1539    1385    1816
CTETRA       957       1    2954    2964    4128    4129    3921    1817+
+           1818    1819    1820    4563
CTETRA       958       1    5909    2964    2965    4117    4014    3923+
+           4015    1521    1821    1528
CTETRA       959       1    5957    2621    6122    2622    4100    1349+
+           5891    4097    2985    1361
CTETRA       960       1    6052    6053    5981    4215    6107     394+
+            673    1335    1822    5844
CTETRA       961       1    2900    4184    4183      33     189    4720+
+           1503     786     778     777
CTETRA       962       1    6143    5953    6116      40    5964    5886+
+           5885    1811    1823    1805
CTETRA       963       1    5953    4527    6116      40     847    5789+
+           5886    1823    1806    1805
CTETRA       964       1    2912    2922    4162    4163    3803    1032+
+           1018     938    1824    4661
CTETRA       965       1    6045    5974    6141      75     405    1720+
+           6115    1721    1317    1320
CTETRA       966       1    5910    5931    5932    4115    2616    5952+
+           2613    1825    5869    5868
CTETRA       967       1    5910    5931    4115      81    2616    5869+
+           1825    1816    1385    1387
CTETRA       968       1    2931    2941    2940    4148    3856    3855+
+           3854    1618    1106    1826
CTETRA       969       1    2659    2660    2669    4471    3068    3095+
+           3094    1677    1567    1256
CTETRA       970       1    6047    5977    6048    4144    1712    1687+
+           6112    1169    5703    1072
CTETRA       971       1    2931    4149    4160    4161    1619    4654+
+            139    1827    4656    4655
CTETRA       972       1    2921    2922    2931    4161    3802    3829+
+           3828    1828    1030    1827
CTETRA       973       1    4509    4510    4521      72    5644    5677+
+           5676    1279    1278    1829
CTETRA       974       1    2949    2959    4110    4111    3906     381+
+           1128     124     383    4538
CTETRA       975       1    6073    4455    2686    4467    1830    1831+
+           4076    1832    5524    1833
CTETRA       976       1    2890    4196    4195     100    1834    4754+
+            801    1835    1836    1837
CTETRA       977       1    2880    4207    4196     100     811    4787+
+           1838    1839    1840    1836
CTETRA       978       1    2880    2881    2890    4196    3687    3714+
+           3713    1838    1841    1834
CTETRA       979       1    2881    4197    4196    4208    1797    4757+
+           1841    1842    4790    4789
CTETRA       980       1    2859    4231    4230    4242    1531    4853+
+           1037    1843    4886    4885
CTETRA       981       1    2849    2850    4231    4243    3600    1530+
+           1529    1036    1035    4888
CTETRA       982       1    2622    4521    4510      72    1362    5677+
+           1272    1260    1829    1278
CTETRA       983       1    2839    2849    2848      71    3598    3597+
+           3596    1844    1241    1240
CTETRA       984       1    2849    4243    4242    4254    1036    4887+
+           1238    1845    4920    4919
CTETRA       985       1    2849    4243    4254    4255    1036    4920+
+           1845     825    4922    4921
CTETRA       986       1    2807    2808    2817    4277    3482    3509+
+           3508     379    1846     380
CTETRA       987       1    2798    4290    4289    4301    1847    5020+
+           1141    1144    5053    5052
CTETRA       988       1    2798    2808    4289    4290    3483    1778+
+           1141    1847    1779    5020
CTETRA       989       1    6073    6074    6003    4467    6086    1109+
+           1848    1832    1110    5801
CTETRA       990       1    2798    2799    2808    4290    3457    3484+
+           3483    1847    1849    1779
CTETRA       991       1    4278    4290    4289      97    5021    5020+
+           5019    1771    1782    1781
CTETRA       992       1    6074    6075    6003    4479    6085    1112+
+           1109    1111    1123    5800
CTETRA       993       1    2746    4371    4382    4383    1850    5284+
+            630     942    5286    5285
CTETRA       994       1    2776    4359    4347       3    1851    5218+
+            597     163     607     166
CTETRA       995       1    6075    6004    6003    4479     648    6039+
+           1112    1123    5799    5800
CTETRA       996       1    6064    4347    2776    4359    1474     597+
+           4058    1475    5218    1851
CTETRA       997       1    6065    5994    4359    4371    1852    5819+
+           1468     301    5818    5252
CTETRA       998       1    2670    4460    2680      17    1281    1663+
+           3125     438    1853    1670
CTETRA       999       1    5937    2958    2959    4110    1854    3905+
+           1855    5878    1129     381
CTETRA      1000       1    2939    2949    2948    4122    3878    3877+
+           3876     133     125     369
CTETRA      1001       1    6067    5996    5997    4372    1148    6032+
+            895     894    5741    5742
CTETRA      1002       1    2715    2725    4405    4406    3252    1377+
+           1376     452     640    5350
CTETRA      1003       1    2725    2735    2734    4393    3280    3279+
+           3278    1856     294     293
CTETRA      1004       1    2725    4393    4405     101    1856    5348+
+           1377    1857    1858    1859
CTETRA      1005       1    2621    4521    2622      72    1350    1362+
+           2985    1259    1829    1260
CTETRA      1006       1    2621    4509    4521      72     486    5676+
+           1350    1259    1279    1829
CTETRA      1007       1    2715    4406    4417    4418     452    5383+
+            962     453    5385    5384
CTETRA      1008       1    2716    2726    4406    4407    3255     639+
+            451    1860     892    5353
CTETRA      1009       1    5913    2960    4112      26    4006     445+
+            444     666     663     665
CTETRA      1010       1    2643    4500    4499    4511     875    5616+
+           1560     876    5649    5648
CTETRA      1011       1    4487    4488    4499      15    5582    5615+
+           5614    1861    1862    1562
CTETRA      1012       1    2643    4487    4499      15     531    5614+
+           1560    1561    1861    1562
CTETRA      1013       1    2643    4500    2644      15     875    1564+
+           3024    1561    1563     413
CTETRA      1014       1    2960    4111    4112      26     661    4542+
+            445     663     662     665
CTETRA      1015       1    2949    4111    4110    4122     124    4538+
+           1128     125    4537    4536
CTETRA      1016       1    2633    2643    4511    4512    3022     876+
+           1309    1863     877    5650
CTETRA      1017       1    6068    4395    2736    4407    1019     733+
+           4066    1073    5354     893
CTETRA      1018       1    6060    6061    2797    4288    6099    3966+
+           3967    1145    1864    1146
CTETRA      1019       1    2668    4446    4445    4457    1672    5462+
+           1865    1866    5495    5494
CTETRA      1020       1    2787    2788    2797    4313    3426    3453+
+           3452    1867    1646    1417
CTETRA      1021       1    2797    4301    4300    4312    1143    5051+
+           1868    1869    5084    5083
CTETRA      1022       1    2797    4289    4300    4301    1142    5050+
+           1868    1143    5052    5051
CTETRA      1023       1    6121    4522    4523      73    5779    5681+
+           5780    1360    1266    1265
CTETRA      1024       1    2636    4515    4526    4527    1341    5692+
+           1343    1153    5694    5693
CTETRA      1025       1    6066    6067    5995      13    6093    1132+
+           1236    1246    1133     302
CTETRA      1026       1    6079    6143    5962    6144    6080    5963+
+           3928     840    5887    5897
CTETRA      1027       1    6143    6116    6144      40    5885    6140+
+           5887    1811    1805     843
CTETRA      1028       1    5954    2625    4525    4526    4091    1870+
+            883     857    1675    5690
CTETRA      1029       1    5953    2626    4527      40    4089     848+
+            847    1823    1871    1806
CTETRA      1030       1    2643    2644    2653      15    3024    3051+
+           3050    1561     413     415
CTETRA      1031       1    2667    4445    2677    4456    1872    1873+
+           3116    1874    5492    1875
CTETRA      1032       1    6120    2623    4523    4524    1305    1298+
+           5781    5782    1299    5684
CTETRA      1033       1    2955    2956    4130    4142    3898    1366+
+           1365    1876    1877    4603
CTETRA      1034       1    2659    2669    2668      94    3094    3093+
+           3092    1878    1879    1880
CTETRA      1035       1    2924    4165      76      77     573    1603+
+           1881    1882    1883    1328
CTETRA      1036       1    2669    4447    4458    4459    1676    5498+
+           1884     434    5500    5499
CTETRA      1037       1    2936    2946    4143      69    3871    1527+
+           1885    1184    1183    1287
CTETRA      1038       1    2670    2680    2679      17    3125    3124+
+           3123     438    1670    1669
CTETRA      1039       1    2670    4459    4460      17     435    5502+
+           1281     438     437    1853
CTETRA      1040       1    2916    4179    4178    4190    1180    4707+
+           1571    1886    4740    4739
CTETRA      1041       1    6050    2916    6051    4191    4030    4031+
+           6109    1247    1686    1248
CTETRA      1042       1    2725    4406    2735     101     640    1029+
+           3280    1857    1887    1888
CTETRA      1043       1    2705    4417    4429      50     963    5416+
+            978     964     966    1889
CTETRA      1044       1    6051    2916    2906    4191    4031    3787+
+           4032    1248    1686    1890
CTETRA      1045       1    2895    2896    2905    4202    3730    3757+
+           3756    1891    1332    1892
CTETRA      1046       1    2732    2733    2742    4379    3273    3300+
+           3299    1227     321    1220
CTETRA      1047       1    2742    2743    4367    4379    3301     309+
+            312    1220     320    5274
CTETRA      1048       1    6122    2622    2621    4521    1361    2985+
+           1349    5777    1362    1350
CTETRA      1049       1    2904    2905    4189    4201    3755    1614+
+           1613    1893    1894    4770
CTETRA      1050       1    2742    4367    2752    4378     312     311+
+           3327     931    5272     932
CTETRA      1051       1    2752    4367    4366    4378     311    5239+
+            727     932    5272    5271
CTETRA      1052       1    2895    2905    4201    4202    3756    1894+
+           1895    1891    1892    4772
CTETRA      1053       1    4165    4177      76      77    4702    1325+
+           1603    1883    1326    1328
CTETRA      1054       1    2779    4327    4326      88    1438    5125+
+            493    1578    1896    1897
CTETRA      1055       1    2876    4227    4238    4239    1898    4876+
+           1191    1899    4878    4877
CTETRA      1056       1    2779    4339    4327      88    1575    5160+
+           1438    1578    1577    1896
CTETRA      1057       1    2759    2769    2768    4338    3374    3373+
+           3372     945    1900    1901
CTETRA      1058       1    2758    4338    4349    4350     946    5189+
+           1902     947    5191    5190
CTETRA      1059       1    2875    2876    4226    4238    3674    1316+
+           1050    1052    1191    4875
CTETRA      1060       1    2876    2886    4226    4227    3703    1007+
+           1316    1898    1573    4843
CTETRA      1061       1    2815    4286    4285    4297     263    5010+
+            618     707    5043    5042
CTETRA      1062       1    2815    2825    4285    4286    3532     619+
+            618     263     250    5010
CTETRA      1063       1    2805    2815    2814    4297    3504    3503+
+           3502     692     707     702
CTETRA      1064       1    2804    4297    4308    4309     701    5074+
+            712     714    5076    5075
CTETRA      1065       1    2677    4445    4444    4456    1873    5459+
+           1903    1875    5492    5491
CTETRA      1066       1    2865    4238    4237    4249    1189    4874+
+            545     548    4907    4906
CTETRA      1067       1    2841    4257    4256    4268    1063    4927+
+           1460    1064    4960    4959
CTETRA      1068       1    2851    2852    4245    4257    3606    1904+
+           1905    1452     534    4928
CTETRA      1069       1    2915      58    4177      77    1047    1323+
+           1610    1906    1327    1326
CTETRA      1070       1    2852    4246    4245    4257     533    4896+
+           1904     534    4929    4928
CTETRA      1071       1    2914    2915    2924      77    3783    3810+
+           3809    1907    1906    1882
CTETRA      1072       1    2894    2895    4201      41    3727    1895+
+            882     854     872     861
CTETRA      1073       1    2864    4237    4248    4249     546    4904+
+           1465     547    4906    4905
CTETRA      1074       1    2825    2835    2834    4273    3560    3559+
+           3558     521     520    1204
CTETRA      1075       1    6075    2676    2666    4479    4079    3115+
+           4080    1123    1908    1100
CTETRA      1076       1    2868    2878    4205    4206    3679     208+
+            194     984    1909    4782
CTETRA      1077       1    2868    4206    4217    4218     984    4815+
+            197    1596    4817    4816
CTETRA      1078       1    2867    4205    4216    4217     195    4812+
+            226     196    4814    4813
CTETRA      1079       1    2804    2805    4297    4309    3475     692+
+            701     714     693    5076
CTETRA      1080       1    2813    2814    2823    4284    3500    3527+
+           3526    1637     975    1910
CTETRA      1081       1    2823    4272    4283    4284    1911    5003+
+           1912    1910    5005    5004
CTETRA      1082       1    2857    2858    2867    4229    3622    3649+
+           3648    1913    1599     981
CTETRA      1083       1    2867    4217    4228    4229     196    4846+
+           1914     981    4848    4847
CTETRA      1084       1    6054    2867    4204    4216    3980    1017+
+           1016     227     226    4811
CTETRA      1085       1    2867    4205    4204    4216     195    4779+
+           1017     226    4812    4811
CTETRA      1086       1    2823    2833    2832    4271    3554    3553+
+           3552    1915    1916    1917
CTETRA      1087       1    2738    4373    4374      95    1730    5258+
+           1786    1731    1733    1918
CTETRA      1088       1    2822    2823    4271    4283    3525    1915+
+           1919     972    1912    5002
CTETRA      1089       1    2802    4307    4306    4318    1764    5069+
+           1766    1765    5102    5101
CTETRA      1090       1    2793    4308    4319    4320    1206    5105+
+           1212    1208    5107    5106
CTETRA      1091       1    2924    4165    4164    4176     573    4667+
+            572    1920    4700    4699
CTETRA      1092       1    2914      76    4176      58    1921    1604+
+           1922    1045    1324    1923
CTETRA      1093       1    2913    4175    4176     102     939    4698+
+           1924    1925    1926    1927
CTETRA      1094       1    2924    2925    4165      77    3811    1601+
+            573    1882    1928    1883
CTETRA      1095       1    2772    2782    2781    4341    3411    3410+
+           3409    1929    1930    1931
CTETRA      1096       1    2772    2773    4331    4343    3385    1216+
+           1651     731     730    5172
CTETRA      1097       1    2772    4331    2782    4342    1651    1484+
+           3411    1932    5170    1933
CTETRA      1098       1    2792    4319    4318    4330    1485    5103+
+           1488    1760    5136    5135
CTETRA      1099       1    2950    2951    4124     103    3883    1137+
+           1934    1935    1936    1937
CTETRA      1100       1    2940    2950    4124     103    3881    1934+
+           1130    1938    1935    1937
CTETRA      1101       1    2941    2942    2951    4137    3858    3885+
+           3884    1104    1620    1628
CTETRA      1102       1    2751    2752    2761    4365    3326    3353+
+           3352    1222    1221    1655
CTETRA      1103       1    4291    4303    4302     104    5058    5057+
+           5056    1939    1940    1941
CTETRA      1104       1    2751    2752    4365    4377    3326    1221+
+           1222    1223     929    5268
CTETRA      1105       1    2742    4379    4378    4390    1220    5273+
+            931    1228    5306    5305
CTETRA      1106       1    2742    4378    4377    4389     931    5270+
+            930    1226    5303    5302
CTETRA      1107       1    2961    4125    4113       1     128    4548+
+            555     131     130     459
CTETRA      1108       1    2750    2751    4364    4376    3323    1749+
+            462     464     466    5265
CTETRA      1109       1    2761    4353    4364    4365    1654    5232+
+           1942    1655    5234    5233
CTETRA      1110       1    2942    2952    4137    4138    3887    1627+
+           1620    1943    1626    4590
CTETRA      1111       1    2940    4124    4136     103    1130    4585+
+           1131    1938    1937    1944
CTETRA      1112       1    4172    4184    4183       7    4721    4720+
+           4719    1290     192     799
CTETRA      1113       1    2899    2909      34       7    3766    1945+
+            795     797    1946     798
CTETRA      1114       1    2741    2751    4376    4377    3324     466+
+            465    1224    1223    5267
CTETRA      1115       1    2900    2901    2910    4184    3743    3770+
+           3769     189     563     190
CTETRA      1116       1    2910    4184    4172       7     190    4721+
+            137     193     192    1290
CTETRA      1117       1    2901    4173    2911    4184     562    1512+
+           3772     563    4722    1947
CTETRA      1118       1    2732    2742    2741    4389    3299    3298+
+           3297    1690    1226    1225
CTETRA      1119       1    2910    2911    4160    4172    3771    1948+
+            135     137    1630    4687
CTETRA      1120       1    6045    6141    5974    5939    6115    1720+
+            405    1949    2595    5695
CTETRA      1121       1    2621    4509    4520    4521     486    5674+
+            488    1350    5676    5675
CTETRA      1122       1    2711    4413    4412    4424    1243    5369+
+           1950    1230    5402    5401
CTETRA      1123       1    2711    2721    4412    4413    3240    1462+
+           1950    1243     762    5369
CTETRA      1124       1    2799    4302    4303     104    1951    5057+
+           1952    1953    1941    1940
CTETRA      1125       1    2711    2721    2720    4412    3240    3239+
+           3238    1950    1462    1454
CTETRA      1126       1    2818    2819    2828      89    3513    3540+
+           3539    1954    1773    1955
CTETRA      1127       1    2828    4265    4266      46     364    4952+
+            927     917     926     920
CTETRA      1128       1    2799    4303     105      82    1952    1956+
+           1957    1958    1424    1959
CTETRA      1129       1    2818    2828    4265    4266    3539     364+
+            523     522     927    4952
CTETRA      1130       1    2776    4335    2786    4346     318     317+
+           3423     598    5182     481
CTETRA      1131       1    2786    4335    2796      55     317    1960+
+           3451    1755    1961    1021
CTETRA      1132       1    2796    4335    4323      55    1960    5150+
+            335    1021    1961    1022
CTETRA      1133       1    2712    4414    4413    4425     342    5372+
+            761     338    5405    5404
CTETRA      1134       1    6065    2776    2766    4359    4059    3395+
+           4060    1468    1851     606
CTETRA      1135       1    2756    4371    4370    4382     300    5251+
+           1026    1028    5284    5283
CTETRA      1136       1    2700    2710    2709    4423    3209    3208+
+           3207     653    1962    1963
CTETRA      1137       1    2700    2710    4423    4424    3209    1962+
+            653     641    1231    5400
CTETRA      1138       1    2665    2666    4478      64    3086     667+
+           1964    1965    1101    1103
CTETRA      1139       1    2699    2700    4423      79    3180     653+
+           1966    1967    1368    1968
CTETRA      1140       1    2735    4382    4381    4393    1727    5282+
+            291     294    5315    5314
CTETRA      1141       1    2635    2636    2645     106    3002    3029+
+           3028    1969    1970    1971
CTETRA      1142       1    2744    2745    2754     107    3307    3334+
+           3333    1972    1973    1974
CTETRA      1143       1    4370    4382    4381     107    5283    5282+
+           5281    1975    1976    1977
CTETRA      1144       1    2735    4382    4393    4394    1727    5315+
+            294    1652    5317    5316
CTETRA      1145       1    2645    4502     106      91    1978    1979+
+           1971    1980    1981    1982
CTETRA      1146       1    2746    4371    2756    4382    1850     300+
+           3339     630    5284    1028
CTETRA      1147       1    2705    2715    2714    4417    3224    3223+
+           3222     963     962     985
CTETRA      1148       1    2839    4254      71     108     910    1983+
+           1844    1984    1985    1986
CTETRA      1149       1    2694    2695    2704    4429    3167    3194+
+           3193    1117    1116     977
CTETRA      1150       1    2653    4487    4488      43     536    5582+
+           1987     869     871    1988
CTETRA      1151       1    2653    2663    2662    4475    3078    3077+
+           3076     868     737    1255
CTETRA      1152       1    2663    2673    2672    4463    3106    3105+
+           3104     723     722    1989
CTETRA      1153       1    2695    2696    2705      90    3170    3197+
+           3196    1664    1990    1991
CTETRA      1154       1    2705    4430      90      56    1992    1661+
+           1991    1993    1994    1995
CTETRA      1155       1    2701    2702    4425    4437    3186     337+
+            426     886     344    5438
CTETRA      1156       1    5910    5932    5911    4115    2613    2612+
+           5925    1825    5868    1693
CTETRA      1157       1    5909    4116    2964    4117    1536    1996+
+           4014    1521    4562    1821
CTETRA      1158       1    2649    4483    2659     109    1997    1678+
+           3066    1998    1999    2000
CTETRA      1159       1    2659     109    4470      78    2000    2001+
+           2002    2003    2004    1351
CTETRA      1160       1    2640    4496    4507    4508     411    5637+
+            858     412    5639    5638
CTETRA      1161       1    2650    2660    2659    4483    3069    3068+
+           3067    1274    1273    1678
CTETRA      1162       1    2662    4462    4473    4474    2005    5541+
+            366    1254    5543    5542
CTETRA      1163       1    5928    5929    2966    4118    5948    1370+
+           1329    5863    5862    1375
CTETRA      1164       1    2964    2965    4117    4129    3923    1528+
+           1821    1820    2006    4564
CTETRA      1165       1    2649    2650    2659    4483    3040    3067+
+           3066    1997    1274    1678
CTETRA      1166       1    4115    4116    4127      70    4558    4557+
+           4556    1203    2007    2008
CTETRA      1167       1    2668    2669    4446    4458    3093    1673+
+           1672    2009    1884    5497
CTETRA      1168       1    4483    4495    4494      37    5602    5601+
+           5600    2010    1685    1684
CTETRA      1169       1    5953    6117    6116    4527    5890    6139+
+           5886     847    5788    5789
CTETRA      1170       1    5959    5960    6124    2619    5971    5906+
+           5903    4104    4103     420
CTETRA      1171       1    6143    2626    5953      40    4090    4089+
+           5964    1811    1871    1823
CTETRA      1172       1    5953    4526    6117    4527     846    5787+
+           5890     847    5693    5788
CTETRA      1173       1    2659    4470    2669      94    2002    2011+
+           3094    1878    1717    1879
CTETRA      1174       1    5958    5959    6123    2620    5970    5902+
+           5901    4102    4101     650
CTETRA      1175       1    5911    2962    2963    4115    4010    3917+
+           4011    1693     507    1200
CTETRA      1176       1    5912    4113    2961    4114     554     555+
+           4008    1692    4550     221
CTETRA      1177       1    5912    5933    5934    4113    2601    5944+
+           2602     554    5873    5872
CTETRA      1178       1    2795    2796    2805      61    3450    3477+
+           3476    2012    1069    1071
CTETRA      1179       1    5957    5958    6122    2621    5969    5893+
+           5891    4100    4099    1349
CTETRA      1180       1    6051    6052    5980    4203    6108     396+
+            200    1815    1334    5846
CTETRA      1181       1    4418    4430    4429      50    5419    5418+
+           5417    2013    2014    1889
CTETRA      1182       1    6054    4227    2876    4239    2015    1898+
+           4038    2016    4878    1899
CTETRA      1183       1    2875    2885    4225    4226    3700     543+
+            542    1050    1048    4840
CTETRA      1184       1    6051    4191    2906    4203    1248    1890+
+           4032    1815    4776    1792
CTETRA      1185       1    2906    4191    4202    4203    1890    4774+
+           2017    1792    4776    4775
CTETRA      1186       1    6053    4215    2886    4227    1822    1005+
+           4036    2018    4844    1573
CTETRA      1187       1    6054    5983    4227    4239    1315    5841+
+           2015    2016    5840    4878
CTETRA      1188       1    2657    4457    2667    4468    2019    2020+
+           3088    2021    5526    2022
CTETRA      1189       1    2705    4429    4430      50     978    5418+
+           1992     964    1889    2014
CTETRA      1190       1    6078    2646    2636    4515    4085    3031+
+           4086     123     143    1341
CTETRA      1191       1    6078    6079    6008    4527    6081     841+
+           1149    1152    1154    5791
CTETRA      1192       1    2676    4467    4466    4478    2023    5523+
+           1086     168    5556    5555
CTETRA      1193       1    2655    4478    4477    4489    2024    5554+
+           1012    2025    5587    5586
CTETRA      1194       1    2655    4478    4489    4490    2024    5587+
+           2025    2026    5589    5588
CTETRA      1195       1    2885    4214    2895      41     873    2027+
+           3728     853     874     872
CTETRA      1196       1    5962    6144    6127    2617    5897    6128+
+           5898    3930    2028    1700
CTETRA      1197       1    6079    2626    6143      40    4088    4090+
+           6080     842    1871    1811
CTETRA      1198       1    2682    4438    2692    4449     442    1725+
+           3159     789    5473     793
CTETRA      1199       1    2682    2683    4439    4451    3133     771+
+            441     791     755    5478
CTETRA      1200       1    2636    4515    2646      91    1341     143+
+           3031    1701    1703    2029
CTETRA      1201       1    5961    2618    4517      19    4105    1344+
+            680    1033     491    2030
CTETRA      1202       1    2702    4427    4426    4438     331    5409+
+            341     769    5442    5441
CTETRA      1203       1    2678    2688    4433      93    3147    2031+
+           2032    2033    2034    2035
CTETRA      1204       1    2646    4515    4503      91     143    5660+
+            142    2029    1703    2036
CTETRA      1205       1    4386    4387    4398      47    5295    5328+
+           5327     925     924    1745
CTETRA      1206       1    2643    2653    4487      15    3050     536+
+            531    1561     415    1861
CTETRA      1207       1    2719    4398    4399      47    2037    5329+
+           1739    2038    1745    1744
CTETRA      1208       1    2625    2635    4513      92    2999    2039+
+           2040    1704    2041    2042
CTETRA      1209       1    2719    4410    4398      96    1740    5361+
+           2037    2043    1735    1734
CTETRA      1210       1    2708    2718    4409      96    3231    2044+
+           1159    2045    2046    1736
CTETRA      1211       1    2619    4506    4518      39     850    5667+
+           1291    1292    1296    1293
CTETRA      1212       1    2652    4474    2662    4485    2047    1254+
+           3075     354    5575     409
CTETRA      1213       1    2642    2652    4486    4487    3047     367+
+           2048     530     532    5579
CTETRA      1214       1    2765    2775    4346       3    3392     596+
+            595     592     164     165
CTETRA      1215       1    2755    2765    4357    4358    3364    1409+
+           1408    1751     608    5214
CTETRA      1216       1    2754    4357    4356    4368     604    5211+
+            313     242    5244    5243
CTETRA      1217       1    2667    4457    4456    4468    2020    5493+
+           1874    2022    5526    5525
CTETRA      1218       1    2674    4465    4476    4477     725    5550+
+            184    1667    5552    5551
CTETRA      1219       1    2791    4317    4328    4329    2049    5130+
+           2050    2051    5132    5131
CTETRA      1220       1    4224    4236    4235      54    4869    4868+
+           4867    1004    1003    2052
CTETRA      1221       1    4358    4359    4370      60    5217    5250+
+           5249    2053    2054    1080
CTETRA      1222       1    2654    2655    4477    4489    3055    1012+
+           1011    2055    2025    5586
CTETRA      1223       1    2791    2801    4316    4317    3464    1415+
+           2056    2049    1416    5097
CTETRA      1224       1    2802    4306    4305    4317    1766    5066+
+           2057    1767    5099    5098
CTETRA      1225       1    6005    2657    4468    4480    1125    2021+
+           5758    5759    2058    5559
CTETRA      1226       1    2792    2802    4317    4318    3467    1767+
+           2059    1488    1765    5100
CTETRA      1227       1    4457    4458    4469      94    5496    5529+
+           5528    2060    1716    1718
CTETRA      1228       1    2689    4422    4434      79    2061    5429+
+           1358    2062    2063    2064
CTETRA      1229       1    4434    4446    4445      93    5463    5462+
+           5461    1715    1714    2065
CTETRA      1230       1    2818    4266    4277    4278     522    4985+
+            524    1769    4987    4986
CTETRA      1231       1    2817    2818    4265    4277    3510     523+
+           2066     380     524    4984
CTETRA      1232       1    2689    4434    4435      79    1358    5431+
+           1357    2062    2064    1367
CTETRA      1233       1    2690    2700      79      16    3181    1368+
+           2067     431     643    1369
CTETRA      1234       1    2711    2712    4413    4425    3214     761+
+           1243     339     338    5404
CTETRA      1235       1    2712    2722    4413    4414    3243     759+
+            761     342     760    5372
CTETRA      1236       1    2863    2864    4236      53    3640    1466+
+           2068    2069    1467     997
CTETRA      1237       1    2864    2874    4236    4237    3669    1000+
+           1466     546    1581    4871
CTETRA      1238       1    2874    4225    4224    4236    1789    4837+
+           1001    1000    4870    4869
CTETRA      1239       1    2853    2863    4235      53    3638    1464+
+           2070    2071    2069    1479
CTETRA      1240       1    4223    4224    4235      54    4834    4867+
+           4866    1478    1004    2052
CTETRA      1241       1    2722    4402    4401    4413     758    5338+
+           1658     759    5371    5370
CTETRA      1242       1    2891    4185    4196    4197     565    4756+
+            566    1799    4758    4757
CTETRA      1243       1    2900    2901    4184    4196    3743     563+
+            189     785     567    4755
CTETRA      1244       1    4248    4260    4259      32    4937    4936+
+           4935     775    1590     776
CTETRA      1245       1    4184    4196    4195      33    4755    4754+
+           4753     778     787     779
CTETRA      1246       1    2890    4195    4196      33     801    4754+
+           1834     781     779     787
CTETRA      1247       1    2732    2733    4379    4391    3273     321+
+           1227     741    1699    5308
CTETRA      1248       1    2714    2715    2724    4405    3223    3250+
+           3249    1077    1376    1378
CTETRA      1249       1    2727    2737    4384    4385    3284     360+
+            359    2072    2073    5289
CTETRA      1250       1    2717    4385    4384    4396    2074    5289+
+            388    2075    5322    5321
CTETRA      1251       1    2880    4196    2890     100    1838    1834+
+           3713    1839    1836    1835
CTETRA      1252       1    2717    4385    4396    4397    2074    5322+
+           2075    2076    5324    5323
CTETRA      1253       1    2717    2718    4385    4397    3230    1390+
+           2074    2076    1392    5324
CTETRA      1254       1    2936    4143    4154    4155    1885    4638+
+           2077    1186    4640    4639
CTETRA      1255       1    4469    4470    4481      78    5530    5563+
+           5562    2078    1351    1353
CTETRA      1256       1    2936    4155    4166    4167    1186    4672+
+           1568     400    4674    4673
CTETRA      1257       1    6047    4131    2946    4143     455     457+
+           4024    1283    4606    1527
CTETRA      1258       1    4382    4383    4394      30    5285    5318+
+           5317    1728    1025     735
CTETRA      1259       1    2762    4354    4365    4366    1219    5235+
+           1656     728    5237    5236
CTETRA      1260       1    2761    2771    4352    4353    3380    2079+
+           2080    1654    1657    5199
CTETRA      1261       1    2647    4469    4480    4481    1437    5560+
+           1371    1430    5562    5561
CTETRA      1262       1    4113    4125    4124       1    4548    4547+
+           4545     459     130     460
CTETRA      1263       1    2940    2941    4136    4148    3855    1105+
+           1131    1826    1106    4619
CTETRA      1264       1    2667    4445    4456    4457    1872    5492+
+           1874    2020    5494    5493
CTETRA      1265       1    2940    4136    2941     103    1131    1105+
+           3855    1938    1944    2081
CTETRA      1266       1    2768    2778    4326      21    3399     500+
+            949    2082     501     503
CTETRA      1267       1    2621    2631    4509      72    2983     386+
+            486    1259    1261    1279
CTETRA      1268       1    2788    4302    4313    4314    1650    5087+
+           1646     904    5089    5088
CTETRA      1269       1    2952    4126    4125    4137    1624    4551+
+            217    1627    4589    4588
CTETRA      1270       1    2941    4136    4137     103    1105    4587+
+           1104    2081    1944    2083
CTETRA      1271       1    2920    2930    4159    4160    3825    1060+
+            711    2084     140    4652
CTETRA      1272       1    2694    4429    2704    4440    1117     977+
+           3193    1008    5448    2085
CTETRA      1273       1    2920    2921    2930    4160    3799    3826+
+           3825    2084     138     140
CTETRA      1274       1    2931    2932    2941    4149    3830    3857+
+           3856    1619    2086    1617
CTETRA      1275       1    6047    2946    6048      69    4024    4025+
+           6112    1285    1183    1182
CTETRA      1276       1    2910    2911    2920    4160    3771    3798+
+           3797     135    1948    2084
CTETRA      1277       1    6063    2777    4312    4324    3962    2087+
+           2088    2089    1757    5117
CTETRA      1278       1    2767    2768    2777    4325    3370    3397+
+           3396    1756     950    1758
CTETRA      1279       1    6047    4143    2946      69    1283    1527+
+           4024    1285    1287    1183
CTETRA      1280       1    2890    2891    2900    4196    3715    3742+
+           3741    1834     566     785
CTETRA      1281       1    6061    4300    5991    4312    2090    5730+
+           2091    2092    5083    5731
CTETRA      1282       1    2936    4143    4155      69    1885    4640+
+           1186    1184    1287    2093
CTETRA      1283       1    2899    4182    4183      34     148    4717+
+            784     795    2094     796
CTETRA      1284       1    2889    4183    4195      33     783    4752+
+            800     780     777     779
CTETRA      1285       1    6062    6063    2777    4312    6097    3962+
+           3963    2095    2088    2087
CTETRA      1286       1    2879      52    4207     100     992     994+
+            812    2096    2097    1840
CTETRA      1287       1    4195    4196    4207     100    4754    4787+
+           4786    1837    1836    1840
CTETRA      1288       1    2768    2778    2777    4325    3399    3398+
+           3397     950     940    1758
CTETRA      1289       1    2777    2787    4312    4313    3424    2098+
+           2087    2099    1867    5085
CTETRA      1290       1    2859    4219    4230    4231    1597    4852+
+           1037    1531    4854    4853
CTETRA      1291       1    2859    2860    2869    4219    3628    3655+
+           3654    1597    1631    1598
CTETRA      1292       1    2849    4242    2859      49    1238    1843+
+           3626     959    2100     960
CTETRA      1293       1    6063    6064    2767    4324    6096    3960+
+           3961    2089     837     836
CTETRA      1294       1    2850    2860    4231    4232    3629    1636+
+           1530    2101     516    4856
CTETRA      1295       1    2847    2848    2857    4229    3594    3621+
+           3620    2102    2103    1913
CTETRA      1296       1    2777    4313    4324    4325    2099    5118+
+           1757    1758    5120    5119
CTETRA      1297       1    2847    2848    4229    4241    3594    2103+
+           2102    2104    2105    4882
CTETRA      1298       1    2858    4230    4229     110    1038    4850+
+           1599    2106    2107    2108
CTETRA      1299       1    2859    4242    4230      49    1843    4885+
+           1037     960    2100    1039
CTETRA      1300       1    4241    4242    4253     108    4884    4917+
+           4916    2109    2110    2111
CTETRA      1301       1    2848    4242    4241     108    1239    4884+
+           2105    2112    2110    2109
CTETRA      1302       1    2821    4281    4292    4293    2113    5028+
+           2114    1762    5030    5029
CTETRA      1303       1    2810    4304    4292     111    2115    5061+
+           2116    2117    2118    2119
CTETRA      1304       1    4278    4290      97      98    5021    1782+
+           1771    1776    2120    1777
CTETRA      1305       1    4277    4278    4289      97    4986    5019+
+           5018    1772    1771    1781
CTETRA      1306       1    2807    2808    4277    4289    3482    1846+
+            379     393    1778    5018
CTETRA      1307       1    2817    4265    4276    4277    2066    4982+
+            377     380    4984    4983
CTETRA      1308       1    2817    2818    2827    4265    3510    3537+
+           3536    2066     523     363
CTETRA      1309       1    2780    2790    4327    4328    3433    2121+
+           1574     497    2122    5128
CTETRA      1310       1    2806    4310    4311      24     583    5081+
+           2123     584     582    1412
CTETRA      1311       1    2785    2786    4334    4346    3422     480+
+            482    2124     481    5181
CTETRA      1312       1    6048    4155    5977      69    1185    5853+
+           1687    1182    2093    2125
CTETRA      1313       1    2823    2833    4271    4272    3554    1916+
+           1915    1911    1198    4970
CTETRA      1314       1    4359    4371    4370      60    5252    5251+
+           5250    2054    1067    1080
CTETRA      1315       1    2862    2863    2872    4223    3637    3664+
+           3663     525    1463    2126
CTETRA      1316       1    2765    4346    4345    4357     595    5180+
+            594    1409    5213    5212
CTETRA      1317       1    6064    4335    2776    4347     316     318+
+           4058    1474    5184     597
CTETRA      1318       1    2766    4359    4358      60     606    5217+
+            605    1068    2054    2053
CTETRA      1319       1    2755    4358    4370      60    1751    5249+
+           1027    1095    2053    1080
CTETRA      1320       1    2736    4395    4394    4406     733    5319+
+            732     891    5352    5351
CTETRA      1321       1    6047    6048    5977      69    6112    1687+
+           1712    1285    1182    2125
CTETRA      1322       1    2862    4223    4234    4235     525    4864+
+            527     537    4866    4865
CTETRA      1323       1    2644    4501    4500    4512    2127    5619+
+           1564    1557    5652    5651
CTETRA      1324       1    6069    2736    2726    4407    4067    3283+
+           4068    1074     893     892
CTETRA      1325       1    2896    4203    4214    4215    1331    4808+
+           1333    1336    4810    4809
CTETRA      1326       1    4476    4488    4487      43    5583    5582+
+           5581    2128    1988     871
CTETRA      1327       1    2746    4383    4382      30     942    5285+
+            630    1024    1025    1728
CTETRA      1328       1    2897    2898    2907    4169    3734    3761+
+           3760     654     174     660
CTETRA      1329       1    2724    2734    2733    4392    3277    3276+
+           3275    2129     308     307
CTETRA      1330       1    2714    2724    4404    4405    3249    1747+
+           1078    1077    1378    5347
CTETRA      1331       1    2724    4393    4392    4404    1746    5313+
+           2129    1747    5346    5345
CTETRA      1332       1    2874      22    2884      59    2130     550+
+           3697    2131    1058    1057
CTETRA      1333       1    2724    2725    4393    4405    3251    1856+
+           1746    1378    1377    5348
CTETRA      1334       1    2665    2675    4477    4478    3112    2132+
+           1013    1964     169    5554
CTETRA      1335       1    2912    4162    4173    4174    1018    4691+
+            933     897    4693    4692
CTETRA      1336       1    2943    4140    4139    4151    2133    4596+
+           2134    2135    4629    4628
CTETRA      1337       1    2943    4140    4151    4152    2133    4629+
+           2135    2136    4631    4630
CTETRA      1338       1    2923    4151    4163      85    2137    4662+
+           2138    2139    2140    2141
CTETRA      1339       1    2922    4151    4162    4163    2142    4660+
+           1032    1824    4662    4661
CTETRA      1340       1    2694    4440    2704      44    1008    2085+
+           3193    2143    1450     888
CTETRA      1341       1    2694    4441    4440      51    1118    5449+
+           1008     988    1244    1010
CTETRA      1342       1    2945    2955    4141    4142    3896    2144+
+           2145    2146    1876    4602
CTETRA      1343       1    2694    2695    4441      51    3167    1119+
+           1118     988     996    1244
CTETRA      1344       1    2683    2684    4452       2    3136     748+
+            754     188     159     756
CTETRA      1345       1    2935    4154    4165    4166     577    4669+
+           2147    2148    4671    4670
CTETRA      1346       1    2683    2693    2692    4439    3162    3161+
+           3160     771     770    1726
CTETRA      1347       1    2683    2684    4440    4452    3136    1009+
+            772     754     748    5481
CTETRA      1348       1    2925    2935    4165    4166    3840    2147+
+           1601    1600    2148    4670
CTETRA      1349       1    2874    2884    2883      59    3697    3696+
+           3695    2131    1057    1173
CTETRA      1350       1    2633    2643    2642    4511    3022    3021+
+           3020    1309     876    2149
CTETRA      1351       1    2654    4488    2664      43    1666     417+
+           3081    2150    1988    2151
CTETRA      1352       1    2622    4510    4521    4522    1272    5677+
+           1362    1263    5679    5678
CTETRA      1353       1    6046    5975    6047    4120    2152    1282+
+           6113    1088    5699    1288
CTETRA      1354       1    2652    2653    4475    4487    3049     868+
+            804     532     536    5580
CTETRA      1355       1    6055    2876    2866    4239    4039    3675+
+           4040    2153    1899    1555
CTETRA      1356       1    2653    4488    2654      43    1987    1666+
+           3052     869    1988    2150
CTETRA      1357       1    6055    2866    6056    4251    4040    4041+
+           6104    1535    1533    1532
CTETRA      1358       1    2642    4486    4497    4498    2048    5609+
+           2154    2155    5611    5610
CTETRA      1359       1    2642    2652    2651    4497    3047    3046+
+           3045    2154     368     807
CTETRA      1360       1    6055    4239    2866    4251    2153    1555+
+           4040    1535    4912    1533
CTETRA      1361       1    2858    4218    4229    4230    1594    4849+
+           1599    1038    4851    4850
CTETRA      1362       1    6061    5990    4311    4323    1622    5827+
+            696     336    5826    5116
CTETRA      1363       1    6061    4288    5990    4300    1864    5728+
+           1622    2090    5049    5729
CTETRA      1364       1    6046    4119    2956    4131     404    2156+
+           4022     461    4572     456
CTETRA      1365       1    2956    2966    4118    4119    3927    1375+
+           1363    2156     403    4570
CTETRA      1366       1    5954    2625    2624    4525    4091    2997+
+           4094     883    1870     884
CTETRA      1367       1    6064    5993    6065    4336    1473    2157+
+           6095     838    5735    2158
CTETRA      1368       1    5955    2624    6119    4525    4093    1550+
+           5883     885     884    5784
CTETRA      1369       1    2935    2936    4142    4154    3842    2159+
+            575     577    2077    4637
CTETRA      1370       1    5976    5977    4155      69    6012    5853+
+           5854    1286    2125    2093
CTETRA      1371       1    2898    2908    2907    4169    3763    3762+
+           3761     174     173     660
CTETRA      1372       1    2924    2925    2934    4165    3811    3838+
+           3837     573    1601     574
CTETRA      1373       1    2873    2874    2883      59    3668    3695+
+           3694    1172    2131    1173
CTETRA      1374       1    5955    6119    6118    4525    5883    6137+
+           5884     885    5784    5785
CTETRA      1375       1    2935    2945    2944    4153    3868    3867+
+           3866     576    2160    1519
CTETRA      1376       1    2925    2926    4166    4178    3814    1569+
+           1600    1572    1570    4705
CTETRA      1377       1    2895    2905    2904    4201    3756    3755+
+           3754    1895    1894    1893
CTETRA      1378       1    2896    2906    2905    4202    3759    3758+
+           3757    1332    2017    1892
CTETRA      1379       1    2895    4202    4201      41    1891    4772+
+           1895     872     862     861
CTETRA      1380       1    6070    5998    5999      67    2161    6034+
+           1379    2162    1155    1157
CTETRA      1381       1    5998    2717    4396      67     391    2075+
+           5745    1155    2163    1156
CTETRA      1382       1    6065    2747    2757    4348    3957    3340+
+           3958    2164    1232    2165
CTETRA      1383       1    2885    2886    2895    4214    3702    3729+
+           3728     873    1006    2027
CTETRA      1384       1    2883    4200    4211    4212    1809    4799+
+           1170    1810    4801    4800
CTETRA      1385       1    2884    2894    2893    4200    3725    3724+
+           3723    1808    2166    2167
CTETRA      1386       1    2640    4507    4496      36     858    5637+
+            411     816    1347     817
CTETRA      1387       1    5959    6124    6123    2620    5903    6132+
+           5902    4101     651     650
CTETRA      1388       1    2886    2896    2895    4214    3731    3730+
+           3729    1006    1333    2027
CTETRA      1389       1    2874    4225    2884      22    1789     544+
+           3697    2130     551     550
CTETRA      1390       1    5960    5961    6125      19    5972    5904+
+           5905     489    1033     504
CTETRA      1391       1    5957    6122    6121    4522    5891    6134+
+           5892    1359    5778    5779
CTETRA      1392       1    2834    2835    4261    4273    3559     682+
+           1607    1204     520    4974
CTETRA      1393       1    6065    5994    6066    4348    1852    2168+
+           6094    2164    5737    1233
CTETRA      1394       1    2855    4250    4261    4262    1501    4941+
+            675     678    4943    4942
CTETRA      1395       1    2853    2854    4248      32    3612    1588+
+           2169    2170    1589     775
CTETRA      1396       1    2853    4248    4247      32    2169    4902+
+           2171    2170     775     774
CTETRA      1397       1    2843    4247    4259      32     538    4934+
+            541    2172     774     776
CTETRA      1398       1    2843    2853    4247      32    3610    2171+
+            538    2172    2170     774
CTETRA      1399       1    2833    2843    4259    4260    3582     541+
+           2173    2174    2175    4936
CTETRA      1400       1    2833    4260    4259    4271    2174    4936+
+           2173    1916    4969    4968
CTETRA      1401       1    2776    4335    4346    4347     318    5182+
+            598     597    5184    5183
CTETRA      1402       1    2654    2655    4489    4501    3055    2025+
+           2055    2176    2177    5620
CTETRA      1403       1    2654    4489    4500    4501    2055    5618+
+           1565    2176    5620    5619
CTETRA      1404       1    2655    2665    4477    4478    3084    1013+
+           1012    2024    1964    5554
CTETRA      1405       1    6060    5989    4299    4311    1140    5829+
+            261     694    5828    5082
CTETRA      1406       1    2654    4489    4488    4500    2055    5585+
+           1666    1565    5618    5617
CTETRA      1407       1    2812    4295    4294    4306     969    5035+
+            956     958    5068    5067
CTETRA      1408       1    2873    4224    2874      59    1470    1001+
+           3668    1172    1472    2131
CTETRA      1409       1    2792    2802    2801    4317    3467    3466+
+           3465    2059    1767    1416
CTETRA      1410       1    2668    4446    4457    4458    1672    5495+
+           1866    2009    5497    5496
CTETRA      1411       1    2669    4447    4446    4458    1676    5465+
+           1673    1884    5498    5497
CTETRA      1412       1    2669    2679    4446    4447    3122     879+
+           1673    1676     880    5465
CTETRA      1413       1    2669    4447    4459      17    1676    5500+
+            434     436    1671     437
CTETRA      1414       1    2764    4345    4356    4357     284    5210+
+            286    1410    5212    5211
CTETRA      1415       1    2772    4342    4341    4353    1932    5168+
+           1929    1394    5201    5200
CTETRA      1416       1    2760    2761    4352    4364    3351    2080+
+            218    2178    1942    5231
CTETRA      1417       1    2681    2691    4448    4449    3156     440+
+            792     788     790    5471
CTETRA      1418       1    2682    4450    4449    4461     443    5474+
+            789     803    5507    5506
CTETRA      1419       1    2874    4224      22      59    1001    2179+
+           2130    2131    1472    1058
CTETRA      1420       1    2671    2681    4460    4461    3128    1249+
+           1280     347     802    5505
CTETRA      1421       1    2761    2771    2770    4352    3380    3379+
+           3378    2080    2079    2180
CTETRA      1422       1    2751    2761    4364    4365    3352    1942+
+           1749    1222    1655    5233
CTETRA      1423       1    2698    2708    2707    4409    3203    3202+
+           3201    2181    1159    1158
CTETRA      1424       1    2718    4398    4397    4409    1393    5326+
+           1392    2044    5359    5358
CTETRA      1425       1    2760    2770    4351    4352    3377     827+
+            176     218    2180    5196
CTETRA      1426       1    4396    4397    4408      68    5323    5356+
+           5355    2182    1404    1405
CTETRA      1427       1    2754    2755    2764    4357    3335    3362+
+           3361     604    1408    1410
CTETRA      1428       1    2772    4343    4342    4354     731    5171+
+           1932    1396    5204    5203
CTETRA      1429       1    2722    4391    2732    4402     739     741+
+           3271     758    5340     746
CTETRA      1430       1    2741    2742    2751    4377    3298    3325+
+           3324    1224     930    1223
CTETRA      1431       1    2741    4377    4388    4389    1224    5300+
+           2183    1225    5302    5301
CTETRA      1432       1    2759    4351    4363       5     686    5228+
+           2184     687     179     178
CTETRA      1433       1    2752    4366    4377    4378     727    5269+
+            929     932    5271    5270
CTETRA      1434       1    6047    6048    2927    4144    6112    3992+
+           3993    1169    1072     635
CTETRA      1435       1    6048    2936    4155      69    4026    1186+
+           1185    1182    1184    2093
CTETRA      1436       1    2956    4119    4130    4131    2156    4569+
+           1366     456    4572    4571
CTETRA      1437       1    2947    4109    4120    4121    2185    4529+
+           1090    1091    4532    4531
CTETRA      1438       1    2735    2745    4381    4382    3308    1647+
+            291    1727     629    5282
CTETRA      1439       1    2759    2760    2769      27    3348    3375+
+           3374     684     753    1427
CTETRA      1440       1    2757    2758    2767    4337    3342    3369+
+           3368    2186     952     953
CTETRA      1441       1    2721    2722    2731    4401    3242    3269+
+           3268    1719    1658    2187
CTETRA      1442       1    2650    4495      37      36    1679    1685+
+            819     818    2188     821
CTETRA      1443       1    2754    2764    4356    4357    3361     286+
+            313     604    1410    5211
CTETRA      1444       1    2743    4368    4379    4380     288    5275+
+            320     289    5277    5276
CTETRA      1445       1    2744    2754    2753    4368    3333    3332+
+           3331     287     242     315
CTETRA      1446       1    2753    4356    4367    4368     479    5241+
+            310     315    5243    5242
CTETRA      1447       1    2732    4390    4389    4401     744    5304+
+           1690     745    5337    5336
CTETRA      1448       1    2768    2778    4325    4326    3399     940+
+            950     949     500    5122
CTETRA      1449       1    2768    4326    4337    4338     949    5155+
+            951    1901    5157    5156
CTETRA      1450       1    2767    4325    4336    4337    1756    5152+
+            839     953    5154    5153
CTETRA      1451       1    2742    2752    2751    4377    3327    3326+
+           3325     930     929    1223
CTETRA      1452       1    2650    4496    4495      36     815    5604+
+           1679     818     817    2188
CTETRA      1453       1    2720    2721    2730    4400    3239    3266+
+           3265     471    1461    1458
CTETRA      1454       1    4495    4496    4507      36    5604    5637+
+           5636    2188     817    1347
CTETRA      1455       1    2720    2730      47      18    3265    1743+
+           2189     472    1748    2190
CTETRA      1456       1    2682    2683    2692    4439    3133    3160+
+           3159     441     771    1726
CTETRA      1457       1    2737    4373    2738      87    2191    1730+
+           3286    2192    2193    2194
CTETRA      1458       1    2757    2767    4336    4337    3368     839+
+           2195    2186     953    5153
CTETRA      1459       1    2680    2681    2690    4448    3127    3154+
+           3153    2196     792     439
CTETRA      1460       1    6064    2757    2767    4336    3959    3368+
+           3960     838    2195     839
CTETRA      1461       1    2700    4436    4424      16     430    5435+
+            641     643     433     644
CTETRA      1462       1    6065    6066    2747    4348    6094    3956+
+           3957    2164    1233    1232
CTETRA      1463       1    2791    4317    4316    4328    2049    5097+
+           2056    2050    5130    5129
CTETRA      1464       1    2679    2680    2689    4447    3124    3151+
+           3150     880    1668     881
CTETRA      1465       1    2770    2780    4339    4340    3405     498+
+           1425    2197     499    5162
CTETRA      1466       1    2781    4329    4328    4340    2198    5131+
+           2199    2200    5164    5163
CTETRA      1467       1    2681    4449    4448    4460     788    5471+
+            792    1249    5504    5503
CTETRA      1468       1    2670    2671    2680    4460    3099    3126+
+           3125    1281    1280    1663
CTETRA      1469       1    2814    2824    4284    4285    3529    1440+
+            975     706     620    5007
CTETRA      1470       1    2639    4495    4507      36    1682    5636+
+           1345    1346    2188    1347
CTETRA      1471       1    2639      37    4495      36    1683    1685+
+           1682    1346     821    2188
CTETRA      1472       1    2688    2689    4434      93    3149    1358+
+           2201    2034    1713    1715
CTETRA      1473       1    2813    4284    4295    4296    1637    5037+
+            970     710    5039    5038
CTETRA      1474       1    2669    4459    4458    4470     434    5499+
+           1884    2011    5532    5531
CTETRA      1475       1    2816    4299    4298      24     262    5047+
+           1582    2202    1411     581
CTETRA      1476       1    2689    4435    4446    4447    1357    5464+
+            878     881    5466    5465
CTETRA      1477       1    2684    4464    4452       2     156    5515+
+            748     159     158     756
CTETRA      1478       1    2678    4445    4446      93    2203    5462+
+           1674    2033    2065    1714
CTETRA      1479       1    2639    4506    4494      38    1711    5633+
+           1681    1709    2204     830
CTETRA      1480       1    2628    2638    4493      38    3007    2205+
+           2206    2207    1708     829
CTETRA      1481       1    6064    6065    5993    4359    6095    2157+
+           1473    1475    1468    5820
CTETRA      1482       1    2830    2840    4267    4268    3573     980+
+           1643    1494    2208    4958
CTETRA      1483       1    2638    2639    2648    4482    3009    3036+
+           3035    2209    1688    2210
CTETRA      1484       1    2850    2851    4244    4256    3603    2211+
+           2212    2213    1459    4925
CTETRA      1485       1    2850    4244    4255    4256    2212    4923+
+            826    2213    4925    4924
CTETRA      1486       1    2851    4245    4244    4256    1905    4893+
+           2211    1459    4926    4925
CTETRA      1487       1    2851    4245    4256    4257    1905    4926+
+           1459    1452    4928    4927
CTETRA      1488       1    2638    4482    4493    4494    2209    5597+
+           2205    1707    5599    5598
CTETRA      1489       1    2637    2638    2647    4493    3006    3033+
+           3032    2214    2205    1431
CTETRA      1490       1    5961    6126    6125      19    5900    6130+
+           5904    1033    2215     504
CTETRA      1491       1    2843    2853    2852    4247    3610    3609+
+           3608     538    2171    1583
CTETRA      1492       1    2852    4235    4246    4247    2216    4898+
+            533    1583    4900    4899
CTETRA      1493       1    2700    2701    4424    4436    3183     427+
+            641     430     428    5435
CTETRA      1494       1    2949    2950    4111    4123    3880    1107+
+            124     126    1138    4540
CTETRA      1495       1    2639    2640    2649      37    3012    3039+
+           3038    1683     820    1680
CTETRA      1496       1    5961    4517    6126      19     680    5769+
+           5900    1033    2030    2215
CTETRA      1497       1    6073    6002    6001    4455    2217    6037+
+           2218    1830    5803    5804
CTETRA      1498       1    2853    4235    4247      53    2070    4900+
+           2171    2071    1479     999
CTETRA      1499       1    6125    2619    4518    4519     421    1291+
+           5771    5772     422    5669
CTETRA      1500       1    6072    6073    6001    4455    6087    2218+
+           1697    2219    1830    5804
CTETRA      1501       1    6073    2696    2686    4455    4075    3171+
+           4076    1830    1177    1831
CTETRA      1502       1    2676    2686    4466    4467    3143    2220+
+           1086    2023    1833    5523
CTETRA      1503       1    2869    2879    2878    4206    3682    3681+
+           3680    1592     991    1909
CTETRA      1504       1    2869    4207    4218    4219    1591    4818+
+           1593    1598    4820    4819
CTETRA      1505       1    2870    2880    2879      35    3685    3684+
+           3683     809     813     810
CTETRA      1506       1    2686    4455    4454    4466    1831    5489+
+           1085    2220    5522    5521
CTETRA      1507       1    2617    4505    2627    4516    1338    2221+
+           2967    1339    5662    2222
CTETRA      1508       1    4164    4176    4175     102    4699    4698+
+           4697    2223    1927    1926
CTETRA      1509       1    2912    4163    4174    4175     938    4694+
+            897     896    4696    4695
CTETRA      1510       1    4163    4164    4175     102    4664    4697+
+           4696    2224    2223    1926
CTETRA      1511       1    2913    4163    4175     102     937    4696+
+            939    1925    2224    1926
CTETRA      1512       1    6008    2617    2627    4516    1150    2967+
+           2225    5765    1339    2222
CTETRA      1513       1    6061    6062    2787    4312    6098    3964+
+           3965    2092    2095    2098
CTETRA      1514       1    5957    2622    6122    4522    4097    1361+
+           5891    1359    1263    5778
CTETRA      1515       1    2936    4155    4154    4166    1186    4639+
+           2077    1568    4672    4671
CTETRA      1516       1    2916    2926    4178    4179    3815    1570+
+           1571    1180    1179    4707
CTETRA      1517       1    2925    4166    4177    4178    1600    4703+
+           1602    1572    4705    4704
CTETRA      1518       1    2729    2739      45      31    3290     907+
+           1737    2226    2227    2228
CTETRA      1519       1    6060    5989    6061    4288    1140    1623+
+           6099    1145    5727    1864
CTETRA      1520       1    2635    4513    4514     106    2039    5656+
+           2229    1969    2230    2231
CTETRA      1521       1    2625    4525    4526      92    1870    5690+
+           1675    1704    2232    1705
CTETRA      1522       1    5955    5956    6119    2623    5967    5894+
+           5883    4096    4095    1313
CTETRA      1523       1    2939    2940    2949    4123    3852    3879+
+           3878     132    1166     126
CTETRA      1524       1    2939    2940    4123    4135    3852    1166+
+            132     717     716    4582
CTETRA      1525       1    2940    2950    4123    4124    3881    1138+
+           1166    1130    1934    4543
CTETRA      1526       1    2929    4135    4147      28     832    4616+
+           2233    2234     718    2235
CTETRA      1527       1    6079    4527    2626      40    1154     848+
+           4088     842    1806    1871
CTETRA      1528       1    2624    2625    4513    4525    2997    2040+
+           2236     884    1870    5688
CTETRA      1529       1    6047    5977    5976      69    1712    6012+
+           1284    1285    2125    1286
CTETRA      1530       1    2619    2629    2628    4506    2975    2974+
+           2972     850    2237     851
CTETRA      1531       1    2930    4147    4148      66    2238    4618+
+           2239    1120    2240    2241
CTETRA      1532       1    2952    2962    4114    4115    3915     220+
+            219     505     507    4554
CTETRA      1533       1    2638    4494    4493      38    1707    5598+
+           2205    1708     830     829
CTETRA      1534       1    2649    2650    4483      37    3040    1274+
+           1997    1680     819    2010
CTETRA      1535       1    2952    4126    4137    4138    1624    4589+
+           1627    1626    4591    4590
CTETRA      1536       1    2730    4388    2740      31     467     469+
+           3293    2242    1750    2243
CTETRA      1537       1    2642    4487    4486    4498     530    5579+
+           2048    2155    5612    5611
CTETRA      1538       1    2695    4442    4441    4453    1082    5452+
+           1119    2244    5485    5484
CTETRA      1539       1    2695    4442    4453    4454    1082    5485+
+           2244    1083    5487    5486
CTETRA      1540       1    2818    2828    2827    4265    3539    3538+
+           3537     523     364     363
CTETRA      1541       1    2827    2837    4252    4253    3564    2245+
+           2246     362    2247    4915
CTETRA      1542       1    2827    4253    4264    4265     362    4948+
+           1794     363    4950    4949
CTETRA      1543       1    2817    4265    4264    4276    2066    4949+
+            423     377    4982    4981
CTETRA      1544       1    2817    2827    4264    4265    3536    1794+
+            423    2066     363    4949
CTETRA      1545       1    2950    4112    4124       1    1108    4544+
+           1934    2248     458     460
CTETRA      1546       1    2654    2664    2663      43    3081    3080+
+           3079    2150    2151    2249
CTETRA      1547       1    6141    6142    5974    5939    2597    6009+
+           1720    2595    5941    5695
CTETRA      1548       1    2936    2946    4142    4143    3871    1526+
+           2159    1885    1527    4605
CTETRA      1549       1    2716    4407    4418    4419    1860    5386+
+            454     448    5388    5387
CTETRA      1550       1    2950    4112    4123    4124    1108    4541+
+           1138    1934    4544    4543
CTETRA      1551       1    2657    2658    2667    4457    3062    3089+
+           3088    2019    2250    2020
CTETRA      1552       1    2677    4433    4444    4445    2251    5458+
+           1903    1873    5460    5459
CTETRA      1553       1    2868    2878    2877    4205    3679    3678+
+           3677     194     208     198
CTETRA      1554       1    2950    4124    2951       1    1934    1137+
+           3883    2248     460     129
CTETRA      1555       1    2941    4137    2951     103    1104    1628+
+           3884    2081    2083    1936
CTETRA      1556       1    5976    4155    4143      69    5854    4640+
+           5855    1286    2093    1287
CTETRA      1557       1    6048    2936    6049    4167    4026    4027+
+           6111    1187     400     399
CTETRA      1558       1    2740    4376    4375      31     916    5264+
+            915    2243     766     765
CTETRA      1559       1    6069    6070    5998    4407    6090    2161+
+            390    1074    2252    5811
CTETRA      1560       1    2667    2668    4445    4457    3090    1865+
+           1872    2020    1866    5494
CTETRA      1561       1    6067    5996    4383    4395    1148    5815+
+            941     943    5814    5320
CTETRA      1562       1    6045    6046    5974    4119    6114     406+
+            405     402     404    5859
CTETRA      1563       1    6045    6046    2947    4108    6114    3996+
+           3997     407     408    2253
CTETRA      1564       1    2739    4375      45      31     905     908+
+            907    2227     765    2228
CTETRA      1565       1    2911    2921    4160    4161    3800     138+
+           1948    1629    1828    4655
CTETRA      1566       1    6045    5939    5974    4108    1949    5695+
+            405     407    5697    5696
CTETRA      1567       1    2703    4416    4415    4427     323    5378+
+            329     332    5411    5410
CTETRA      1568       1    2899    2900    2909       7    3740    3767+
+           3766     797     191    1946
CTETRA      1569       1    2721    4401    4412    4413    1719    5368+
+           1462     762    5370    5369
CTETRA      1570       1    2940    4124    4123    4135    1130    4543+
+           1166     716    4583    4582
CTETRA      1571       1    2930    4148    4159    4160    2239    4651+
+           1060     140    4653    4652
CTETRA      1572       1    6070    4407    2716    4419    2252    1860+
+           4070     447    5388     448
CTETRA      1573       1    2785    4322    4321    4333    2254    5112+
+            270     483    5145    5144
CTETRA      1574       1    2692    2693    4427    4439    3161    1722+
+           1724    1726     770    5444
CTETRA      1575       1    2718    4409    4397      68    2044    5358+
+           1392    2255    1161    1404
CTETRA      1576       1    2718    2719    4386    4398    3233    2256+
+           1391    1393    2037    5327
CTETRA      1577       1    2721    2731    4400    4401    3268    1456+
+           1461    1719    2187    5335
CTETRA      1578       1    2910    2920    4159    4160    3797     711+
+            703     135    2084    4652
CTETRA      1579       1    2675    2685    2684    4453    3140    3139+
+           3138    2257     989     747
CTETRA      1580       1    2900    2910    2909       7    3769    3768+
+           3767     191     193    1946
CTETRA      1581       1    2728    4385    4386      80    1389    5292+
+           1381    1382    1785    1383
CTETRA      1582       1    2749    2750    4363    4375    3320    2258+
+           2259    2260     463    5262
CTETRA      1583       1    2911    4161    4160    4172    1629    4655+
+           1948    1630    4688    4687
CTETRA      1584       1    2728    2738    2737    4385    3287    3286+
+           3285    1389    1787    2073
CTETRA      1585       1    2909    4159    4170    4171     704    4682+
+            161     715    4684    4683
CTETRA      1586       1    2656    2666    2665      64    3087    3086+
+           3085    2261    1101    1965
CTETRA      1587       1    6070    5999    2697    2707    1379    2262+
+           3947    3948    2263    3200
CTETRA      1588       1    6065    6066    5994    4371    6094    2168+
+           1852     301     298    5818
CTETRA      1589       1    2899    2909    4170      34    3766     161+
+            145     795    1945    2264
CTETRA      1590       1    2909    2910    4171       7    3768     136+
+            715    1946     193    1289
CTETRA      1591       1    2899    2900    4183      33    3740    1503+
+            784     782     786     777
CTETRA      1592       1    2729    2739    2738      80    3290    3289+
+           3288    1384    1791    1788
CTETRA      1593       1    6063    5992    6064    4324    2265    2266+
+           6096    2089    5733     837
CTETRA      1594       1    2706    4431    2716      99    1217     450+
+           3227    2267    1813    1812
CTETRA      1595       1    6064    5992    4335    4347    2266    5823+
+            316    1474    5822    5184
CTETRA      1596       1    2879    2889    2888    4194    3710    3709+
+           3708    2268     672     671
CTETRA      1597       1    2878    2879    2888    4194    3681    3708+
+           3707    1499    2268     671
CTETRA      1598       1    2720    2730    2729      47    3265    3264+
+           3263    2189    1743     923
CTETRA      1599       1    2761    4353    4352    4364    1654    5199+
+           2080    1942    5232    5231
CTETRA      1600       1    2782    2783    2792    4319    3413    3440+
+           3439    1483    1213    1485
CTETRA      1601       1    6062    4323    2796    4335     333     335+
+           4054    1515    5150    1960
CTETRA      1602       1    4292    4304    4303     111    5061    5060+
+           5059    2119    2118    2269
CTETRA      1603       1    2879    4207    2880     100     812     811+
+           3684    2096    1840    1839
CTETRA      1604       1    2790    4316    4315    4327    2270    5094+
+           2271    2121    5127    5126
CTETRA      1605       1    2789    2799    2798    4302    3458    3457+
+           3456    1649    1951    2272
CTETRA      1606       1    2868    2869    2878    4206    3653    3680+
+           3679     984    1592    1909
CTETRA      1607       1    2800    4316    4304      82    2273    5095+
+           1420    1422    2274    1423
CTETRA      1608       1    2791    2792    4317    4329    3438    2059+
+           2049    2051    1759    5132
CTETRA      1609       1    2755    4382    4370     107     631    5283+
+           1027    2275    1976    1975
CTETRA      1610       1    2834    2844    2843    4260    3585    3584+
+           3583    1606    1605    2175
CTETRA      1611       1    2713    2723    2722    4403    3246    3245+
+           3244     750     749     764
CTETRA      1612       1    2771    2781    4340    4341    3408    2200+
+           2276    2277    1931    5165
CTETRA      1613       1    2952    4114    2961    4125     219     221+
+           3913     217    4549     128
CTETRA      1614       1    2881    2882    4197    4209    3690    1798+
+           1797    2278    1507    4792
CTETRA      1615       1    2909    4171      34       7     715    2279+
+           1945    1946    1289     798
CTETRA      1616       1    2748    4350    4349    4361    2280    5190+
+           2281    1545    5223    5222
CTETRA      1617       1    2802    2812    4305    4306    3495     957+
+           2057    1766     958    5066
CTETRA      1618       1    6071    5999    6000    2697    2282    6035+
+           2283    3946    2262    1401
CTETRA      1619       1    5998    2717    4384    4396     391     388+
+           5744    5745    2075    5321
CTETRA      1620       1    2868    2869    4206    4218    3653    1592+
+            984    1596    1593    4817
CTETRA      1621       1    2819    2820    4279    4291    3516    1491+
+           1496    1498    2284    5024
CTETRA      1622       1    2876    4227    4226    4238    1898    4843+
+           1316    1191    4876    4875
CTETRA      1623       1    4278    4279    4290      98    4989    5022+
+           5021    1776    2285    2120
CTETRA      1624       1    2849    4254    4242      71    1845    4919+
+           1238    1241    1983    1242
CTETRA      1625       1    2829    4279    4267      89    1493    4990+
+           1337    1640    1774    1641
CTETRA      1626       1    2859    2869    2868    4218    3654    3653+
+           3652    1595    1593    1596
CTETRA      1627       1    2849     110    4242      49    2286    2287+
+           1238     959    2288    2100
CTETRA      1628       1    2837    2838    2847    4241    3566    3593+
+           3592    2289    2290    2104
CTETRA      1629       1    2853    2863    2862    4235    3638    3637+
+           3636    2070    1464     537
CTETRA      1630       1    2887    2897    4192    4193    3732     210+
+            223     206     211    4745
CTETRA      1631       1    6053    4192    5982    4204     224    5712+
+            395     225    4777    5713
CTETRA      1632       1    2842    4247    4258    4259     539    4932+
+           1584     540    4934    4933
CTETRA      1633       1    2852    4235    2862    4246    2216     537+
+           3635     533    4898     529
CTETRA      1634       1    2895    2896    4202    4214    3730    1332+
+           1891    2027    1333    4807
CTETRA      1635       1    2874    2875    2884    4225    3671    3698+
+           3697    1789     542     544
CTETRA      1636       1    2641    2651    2650    4496    3044    3043+
+           3042     410     805     815
CTETRA      1637       1    2651    4485    4496    4497     353    5606+
+            805     807    5608    5607
CTETRA      1638       1    2884    2885    4213    4225    3699     855+
+            549     544     543    4838
CTETRA      1639       1    2909    4159    4158    4170     704    4649+
+            160     161    4682    4681
CTETRA      1640       1    2889    2899    4183      33    3738     784+
+            783     780     782     777
CTETRA      1641       1    6057    2827    2837    4252    3973    3564+
+           3974    2291    2246    2245
CTETRA      1642       1    2861    2862    2871    4221    3634    3661+
+           3660    2292    1442    2293
CTETRA      1643       1    6055    5984    4239    4251     231    5839+
+           2153    1535    5838    4912
CTETRA      1644       1    2910    2911    4172    4184    3771    1630+
+            137     190    1947    4721
CTETRA      1645       1    2882    4199    4198    4210    2294    4763+
+           1506    1508    4796    4795
CTETRA      1646       1    2829    2839    2838      46    3570    3569+
+           3568     918     913     912
CTETRA      1647       1    2804    4297    4296    4308     701    5041+
+            708     712    5074    5073
CTETRA      1648       1    2862    2872    4222    4223    3663    1443+
+            526     525    2126    4831
CTETRA      1649       1    2942    4139    4150    4151    2295    4626+
+           2296    2297    4628    4627
CTETRA      1650       1    2901    2902    2911      48    3746    3773+
+           3772    1537    1504    1505
CTETRA      1651       1    2935    4154    4153    4165     577    4636+
+            576    2147    4669    4668
CTETRA      1652       1    2943    4127    4139     112    2298    4594+
+           2134    2299    2300    2301
CTETRA      1653       1    6046    6047    5975    4131    6113    1282+
+           2152     461     455    5857
CTETRA      1654       1    2943    2953    2952    4127    3890    3889+
+           3888    2298    2302    1625
CTETRA      1655       1    2911    2921    2920    4160    3800    3799+
+           3798    1948     138    2084
CTETRA      1656       1    2955    4130    4141    4142    1365    4601+
+           2144    1876    4603    4602
CTETRA      1657       1    2828    4253    4265      46     361    4950+
+            364     917     983     926
CTETRA      1658       1    6052    5980    5981       8     396    6016+
+            673     397     203     674
CTETRA      1659       1    2838    4241    4253     108    2290    4916+
+           1638    2303    2109    2111
CTETRA      1660       1    6055    2847    2857    4228    3977    3620+
+           3978     232    1552    2304
CTETRA      1661       1    2961    4113    4112       1     555    4546+
+            446     131     459     458
CTETRA      1662       1    2937    4133    2938      63     634     645+
+           3846    2305    1098    1097
CTETRA      1663       1    2649     109    2659      78    1998    2000+
+           3066    2306    2004    2003
CTETRA      1664       1    2848    2858    2857    4229    3623    3622+
+           3621    2103    1599    1913
CTETRA      1665       1    2938    2939    4122    4134    3849     133+
+            632     638     134    4579
CTETRA      1666       1    6002    2677    4432    4444    1694    1696+
+           5752    5753    1903    5457
CTETRA      1667       1    6073    6002    6003    2677    2217    6038+
+           1848    3942    1694    2307
CTETRA      1668       1    6073    6002    4455    4467    2217    5803+
+           1830    1832    5802    5524
CTETRA      1669       1    6072    4443    2696    4455     295     297+
+           4074    2219    5490    1177
CTETRA      1670       1    2919    4158    4159      25    2308    4649+
+            705     623    2309    2310
CTETRA      1671       1    2893    2903    4199    4200    3750    2311+
+           2312    2167    2313    4766
CTETRA      1672       1    2939    4123    4134    4135     132    4580+
+            134     717    4582    4581
CTETRA      1673       1    2809    2810    2819    4291    3488    3515+
+           3514    2314    2315    1498
CTETRA      1674       1    2871    2872    2881    4209    3662    3689+
+           3688    2316    2317    2278
CTETRA      1675       1    2847    4229    4228    4240    2102    4847+
+           1552    1554    4880    4879
CTETRA      1676       1    6073    6003    6074    2667    1848    1109+
+           6086    3941    2318    3940
CTETRA      1677       1    2869    2879    4206    4207    3682     991+
+           1592    1591     812    4785
CTETRA      1678       1    2890    4196    2900      33    1834     785+
+           3741     781     787     786
CTETRA      1679       1    2910    4172    4171       7     137    4686+
+            136     193    1290    1289
CTETRA      1680       1    2850    4244    4243    4255    2212    4890+
+           1035     826    4923    4922
CTETRA      1681       1    5915    5938    5916    2958    2599    2600+
+           5919    4002    2319    4001
CTETRA      1682       1    2950    2960    2959    4111    3909    3908+
+           3907    1107     661     383
CTETRA      1683       1    2862    4222    4221    4233     526    4828+
+           1442    2320    4861    4860
CTETRA      1684       1    5937    4109    2958    4110    5881    1164+
+           1854    5878    4534    1129
CTETRA      1685       1    5915    5937    5938    2958    2598    5942+
+           2599    4002    1854    2319
CTETRA      1686       1    2947    2948    2957    4109    3874    3901+
+           3900    2185    1163    1165
CTETRA      1687       1    2837    4241    4240    4252    2289    4881+
+            613    2245    4914    4913
CTETRA      1688       1    2797    4301    4312    4313    1143    5084+
+           1869    1417    5086    5085
CTETRA      1689       1    2840    2841    2850    4256    3575    3602+
+           3601    1195    1460    2213
CTETRA      1690       1    6062    2777    2787    4312    3963    3424+
+           3964    2095    2087    2098
CTETRA      1691       1    6061    5991    6062    4312    2091    1514+
+           6098    2092    5731    2095
CTETRA      1692       1    6061    2797    4300    4312    3966    1868+
+           2090    2092    1869    5083
CTETRA      1693       1    6063    5992    5991    4335    2265    6027+
+           1513     319    5823    5824
CTETRA      1694       1    2955    2956    2965    4118    3898    3925+
+           3924    1364    1363    1374
CTETRA      1695       1    2803    4296    4295    4307     971    5038+
+           1354    1763    5071    5070
CTETRA      1696       1    6045    5907    2966      75    4019    4018+
+           4020    1721    1322    1330
CTETRA      1697       1    2822    2832    4281    4282    3551    2321+
+           2322     973    2323    4998
CTETRA      1698       1    2948    2949    4110    4122    3877    1128+
+           1127     369     125    4536
CTETRA      1699       1    2945    2955    2954    4141    3896    3895+
+           3894    2145    2144    2324
CTETRA      1700       1    2945    2946    2955    4142    3870    3897+
+           3896    2146    1526    1876
CTETRA      1701       1    2820    2821    4280    4292    3519    2325+
+           2326    2327    2114    5027
CTETRA      1702       1    2945    4142    4141    4153    2146    4602+
+           2145    2160    4635    4634
CTETRA      1703       1    2794    4321    2795      29     269     271+
+           3447     698     700    2328
CTETRA      1704       1    2915    2916    2925    4178    3786    3813+
+           3812    2329    1571    1572
CTETRA      1705       1    4383    4395    4394      30    5320    5319+
+           5318    1025     736     735
CTETRA      1706       1    2915    4178    4189    4190    2329    4737+
+           1609    2330    4739    4738
CTETRA      1707       1    6057    2837    4240    4252    3974     613+
+            611    2291    2245    4913
CTETRA      1708       1    2935    2936    4154    4166    3842    2077+
+            577    2148    1568    4671
CTETRA      1709       1    6064    6065    2757    4336    6095    3958+
+           3959     838    2158    2195
CTETRA      1710       1    2744    4381    2745     107    1648    1647+
+           3307    1972    1977    1973
CTETRA      1711       1    6056    2837    2847    4240    3975    3592+
+           3976     612     613    1554
CTETRA      1712       1    2905    2906    2915    4190    3758    3785+
+           3784    2331    2332    2330
CTETRA      1713       1    2731    2732    2741    4389    3270    3297+
+           3296    1455    1690    1225
CTETRA      1714       1    2905    2915    2914      57    3784    3783+
+           3782    1616    1044    1043
CTETRA      1715       1    2906    2916    2915    4190    3787    3786+
+           3785    2332    1886    2330
CTETRA      1716       1    2734    2735    2744    4381    3279    3306+
+           3305     292     291    1648
CTETRA      1717       1    4417    4418    4429      50    5384    5417+
+           5416     966    2013    1889
CTETRA      1718       1    2904    4189    4200    4201    1613    4768+
+           2333    1893    4770    4769
CTETRA      1719       1    2905    4190    4189    4201    2331    4738+
+           1614    1894    4771    4770
CTETRA      1720       1    2674    4476    4464       6     184    5549+
+            155     186     185     763
CTETRA      1721       1    6067    5997    5996    4395     895    6032+
+           1148     943    5813    5814
CTETRA      1722       1    2904    4189    4188    4200    1613    4735+
+           2334    2333    4768    4767
CTETRA      1723       1    6078    6008    2617    2627    1149    1150+
+           3931    3932    2225    2967
CTETRA      1724       1    2903    2904    4188    4200    3752    2334+
+            864    2313    2333    4767
CTETRA      1725       1    2651    2652    4485    4497    3046     354+
+            353     807     368    5608
CTETRA      1726       1    2649    2659    2658      78    3066    3065+
+           3064    2306    2003    2335
CTETRA      1727       1    2712    2713    2722    4403    3217    3244+
+           3243     752     750     764
CTETRA      1728       1    4212    4224    4223      59    4835    4834+
+           4833    1059    1472    1471
CTETRA      1729       1    2740    2750    2749    4375    3321    3320+
+           3319     915     463    2260
CTETRA      1730       1    2873    2874    4224      54    3668    1001+
+           1470    1477    1002    1004
CTETRA      1731       1    6057    6058    2827    4252    6102    3972+
+           3973    2291    2336    2246
CTETRA      1732       1    2632    2633    2642    4511    2990    3020+
+           3019    1269    1309    2149
CTETRA      1733       1    2873    2883    2882    4211    3694    3693+
+           3692    1171    1170    2337
CTETRA      1734       1    2669    4459    4470    4471     434    5532+
+           2011    1256    5534    5533
CTETRA      1735       1    2854    2855    2864    4249    3615    3642+
+           3641    1579    1500     547
CTETRA      1736       1    2648    2649    2658      78    3037    3064+
+           3063    2338    2306    2335
CTETRA      1737       1    6008    6144    2617    4516    6044    2028+
+           1150    5765    5766    1339
CTETRA      1738       1    6075    6004    6005    2657     648    6040+
+            647    3938    2339    1125
CTETRA      1739       1    2863    4236    4235      53    2068    4868+
+           1464    2069     997    1479
CTETRA      1740       1    2929    4135    4146    4147     832    4614+
+            621    2233    4616    4615
CTETRA      1741       1    2648    4482    2649      78    2210    2340+
+           3037    2338    1352    2306
CTETRA      1742       1    2632    2642    4509    4510    3019    2341+
+           1276    1275    2342    5644
CTETRA      1743       1    2816    4287    4286    4298     260    5013+
+            264    1582    5046    5045
CTETRA      1744       1    6059    5988    5987    4287     256    6023+
+            615     257    5831    5832
CTETRA      1745       1    2833    4260    4271    4272    2174    4969+
+           1916    1198    4971    4970
CTETRA      1746       1    2806    4322    4310      61    2343    5113+
+            583    1070    2344    2345
CTETRA      1747       1    2823    4272    4271    4283    1911    4970+
+           1915    1912    5003    5002
CTETRA      1748       1    2649    4482     109      78    2340    2346+
+           1998    2306    1352    2004
CTETRA      1749       1    2812    2813    2822    4283    3497    3524+
+           3523     968     967     972
CTETRA      1750       1    5914    5936    5937    2959    2593    5940+
+           2594    4004     382    1855
CTETRA      1751       1    2812    2822    4293    4294    3523    2347+
+           1761     956     974    5032
CTETRA      1752       1    2628    4506    2629      38     851    2237+
+           2974    2207    2204    2348
CTETRA      1753       1    2801    2802    4305    4317    3466    2057+
+           1414    1416    1767    5098
CTETRA      1754       1    6045    2957    5939    4108    3998    2349+
+           1949     407    2350    5697
CTETRA      1755       1    2793    2803    2802    4307    3470    3469+
+           3468    1639    1763    1764
CTETRA      1756       1    6062    2796    6063    4335    4054    4055+
+           6097    1515    1960     319
CTETRA      1757       1    2781    2782    4329    4341    3410    2351+
+           2198    1931    1930    5166
CTETRA      1758       1    2630    4519      39      14    1304    1294+
+            833     376    2352     835
CTETRA      1759       1    2771    2781    2780    4340    3408    3407+
+           3406    2276    2200     499
CTETRA      1760       1    2771    2772    2781    4341    3382    3409+
+           3408    2277    1929    1931
CTETRA      1761       1    6078    6008    6007    4527    1149    6043+
+            122    1152    5791    5792
CTETRA      1762       1    2618    4506    4505    4517     849    5632+
+           2353    1344    5665    5664
CTETRA      1763       1    2781    4329    4340    4341    2198    5164+
+           2200    1931    5166    5165
CTETRA      1764       1    2781    2791    4328    4329    3436    2050+
+           2199    2198    2051    5131
CTETRA      1765       1    2630    4508    4519      14     373    5671+
+           1304     376     375    2352
CTETRA      1766       1    2731    2741    4388    4389    3296    2183+
+            468    1455    1225    5301
CTETRA      1767       1    2752    2762    2761    4365    3355    3354+
+           3353    1221    1656    1655
CTETRA      1768       1    2762    4354    4353    4365    1219    5202+
+           1395    1656    5235    5234
CTETRA      1769       1    2786    4334    4335      55     480    5149+
+            317    1755    1754    1961
CTETRA      1770       1    2734    2744    4380    4381    3305     290+
+            305     292    1648    5279
CTETRA      1771       1    6061    4311    2806    4323     696    2123+
+           4052     336    5116     334
CTETRA      1772       1    2749    4375    4363     113    2260    5262+
+           2259    2354    2355    2356
CTETRA      1773       1    2685    2686    4454    4466    3142    1085+
+           1175    2357    2220    5521
CTETRA      1774       1    2760    4352    4363    4364     218    5229+
+            175    2178    5231    5230
CTETRA      1775       1    2741    4377    4376    4388    1224    5267+
+            465    2183    5300    5299
CTETRA      1776       1    2624    2625    2634    4513    2997    2996+
+           2995    2236    2040    2358
CTETRA      1777       1    2740    2741    2750    4376    3295    3322+
+           3321     916     465     464
CTETRA      1778       1    6007    2627    2637    4504     418    3004+
+            419    5763    2359    2360
CTETRA      1779       1    5961    2618    2617    4517    4105    2969+
+           4107     680    1344    1340
CTETRA      1780       1    2692    2702    2701    4437    3187    3186+
+           3185    1250     344     886
CTETRA      1781       1    2624    4524    2634      74    1551    2361+
+           2995    2362    1302    2363
CTETRA      1782       1    2710    2711    2720    4412    3211    3238+
+           3237    2364    1950    1454
CTETRA      1783       1    2642    4486    2652    4497    2048     367+
+           3047    2154    5609     368
CTETRA      1784       1    2700    2701    2710    4424    3183    3210+
+           3209     641     427    1231
CTETRA      1785       1    2703    2713    2712    4415    3218    3217+
+           3216     329     327     343
CTETRA      1786       1    2699    2709    2708    4410    3206    3205+
+           3204    2365    2366    2367
CTETRA      1787       1    2643    2644    4500    4512    3024    1564+
+            875     877    1557    5651
CTETRA      1788       1    2634    4501    2644    4512    2368    2127+
+           3025    1556    5652    1557
CTETRA      1789       1    2709    4411    4410     114    2369    5363+
+           2366    2370    2371    2372
CTETRA      1790       1    2646    2656    2655    4502    3059    3058+
+           3057    2373    2374    2375
CTETRA      1791       1    2635    2645    2644    4501    3028    3027+
+           3026    2376    2377    2127
CTETRA      1792       1    2663    4463    4475       6     723    5546+
+            737     180     724     738
CTETRA      1793       1    2699    4423    2709     114    1966    1963+
+           3206    2378    2379    2370
CTETRA      1794       1    2775    2776    2785    4346    3394    3421+
+           3420     596     598    2124
CTETRA      1795       1    2689    2699    2698    4422    3178    3177+
+           3176    2061    2380    2381
CTETRA      1796       1    2710    4412    4423    4424    2364    5399+
+           1962    1231    5401    5400
CTETRA      1797       1    2644    2645    2654    4501    3027    3054+
+           3053    2127    2377    2176
CTETRA      1798       1    5961    2617    5962    4517    4107    3930+
+           5973     680    1340     681
CTETRA      1799       1    2645    2646    2655    4502    3030    3057+
+           3056    1978    2373    2375
CTETRA      1800       1    2647    2648    2657    4469    3034    3061+
+           3060    1437    1436    2382
CTETRA      1801       1    2660    2670    2669    4471    3097    3096+
+           3095    1567    1257    1256
CTETRA      1802       1    2785    4346    4334      12    2124    5181+
+            482     484    1413     485
CTETRA      1803       1    2785    4322    4333    4334    2254    5145+
+            483     482    5147    5146
CTETRA      1804       1    2702    4415    4414    4426     330    5375+
+            340     341    5408    5407
CTETRA      1805       1    2751    2761    2760    4364    3352    3351+
+           3350    1749    1942    2178
CTETRA      1806       1    2673    2683    2682    4451    3134    3133+
+           3132    2383     755     791
CTETRA      1807       1    2673    4451    4463       2    2383    5512+
+            722     187     757     768
CTETRA      1808       1    2642    2643    4487    4499    3021     531+
+            530    2384    1560    5614
CTETRA      1809       1    2671    4461    4472    4473     347    5538+
+            350     348    5540    5539
CTETRA      1810       1    2694    4429    4440    4441    1117    5448+
+           1008    1118    5450    5449
CTETRA      1811       1    2648    4481    4482      78    1429    5564+
+           2210    2338    1353    1352
CTETRA      1812       1    2658    4457    4469      94    2250    5528+
+           2385    2386    2060    1718
CTETRA      1813       1    2658    2659    4470      78    3065    2002+
+           2387    2335    2003    1351
CTETRA      1814       1    2648    4469    4481      78    1436    5562+
+           1429    2338    2078    1353
CTETRA      1815       1    2674    2675    2684    4453    3111    3138+
+           3137    2388    2257     747
CTETRA      1816       1    4508    4520    4519      14    5673    5672+
+           5671     375    1252    2352
CTETRA      1817       1    2674    2675    4465    4477    3111    2389+
+            725    1667    2132    5552
CTETRA      1818       1    2658    4469    4470      94    2385    5530+
+           2387    2386    1718    1717
CTETRA      1819       1    6005    2647    2657    4480    1124    3060+
+           1125    5759    1371    2058
CTETRA      1820       1    2656    4490    4491      64    2390    5591+
+            569    2261    2391    2392
CTETRA      1821       1    2665    2675    2674    4477    3112    3111+
+           3110    1013    2132    1667
CTETRA      1822       1    2686    2696    4454    4455    3171    1084+
+           1085    1831    1177    5489
CTETRA      1823       1    2675    4453    4465     115    2257    5518+
+           2389    2393    2394    2395
CTETRA      1824       1    2675    4466    2685     115    1087    2357+
+           3140    2393    2396    2397
CTETRA      1825       1    2628    2638    2637    4493    3007    3006+
+           3005    2206    2205    2214
CTETRA      1826       1    2618    2628    2627    4505    2971    2970+
+           2968    2353    2398    2221
CTETRA      1827       1    2706    4431    4430      56    1217    5421+
+           2399    1042    1218    1994
CTETRA      1828       1    2674    2675    4453    4465    3111    2257+
+           2388     725    2389    5518
CTETRA      1829       1    6007    2637    4492    4504     419    1480+
+           5762    5763    2360    5627
CTETRA      1830       1    6124    4519    4520      14    5773    5672+
+           5774    1310    2352    1252
CTETRA      1831       1    2627    4493    4504    4505    2400    5628+
+           2359    2221    5630    5629
CTETRA      1832       1    2665    2666    2675    4478    3086    3113+
+           3112    1964     667     169
CTETRA      1833       1    2637    4493    4492    4504    2214    5595+
+           1480    2360    5628    5627
CTETRA      1834       1    2632    2642    4510    4511    3019    2342+
+           1275    1269    2149    5647
CTETRA      1835       1    6006    4492    2637      23    5761    1480+
+           1502    1356    1482     558
CTETRA      1836       1    6008    2627    4504    4516    2225    2359+
+           5764    5765    2222    5661
CTETRA      1837       1    2627    2628    2637    4493    2970    3005+
+           3004    2400    2206    2214
CTETRA      1838       1    2660    4472    4471    4483    1245    5536+
+           1567    1273    5569    5568
CTETRA      1839       1    4419    4431    4430      99    5422    5421+
+           5420    1814    1813    2401
CTETRA      1840       1    4323    4335    4334      55    5150    5149+
+           5148    1022    1961    1754
CTETRA      1841       1    6067    6068    5997    4395    6092    1096+
+            895     943    1019    5813
CTETRA      1842       1    6071    6000    5999    4431    2283    6035+
+           2282    2402    5807    5808
CTETRA      1843       1    6051    2906    6052    4203    4032    4033+
+           6108    1815    1792    1334
CTETRA      1844       1    2764    2765    2774    4345    3363    3390+
+           3389     284     594     282
CTETRA      1845       1    4369    4370    4381     107    5248    5281+
+           5280    2403    1975    1977
CTETRA      1846       1    2847    4229    4240    4241    2102    4880+
+           1554    2104    4882    4881
CTETRA      1847       1    2716    4419    4418      99     448    5387+
+            454    1812    1814    2404
CTETRA      1848       1    6070    2716    6071    4431    4070    4071+
+           6089     449     450    2402
CTETRA      1849       1    6124    2619    4519      14     420     422+
+           5773    1310    1311    2352
CTETRA      1850       1    6071    2716    2706    4431    4071    3227+
+           4072    2402     450    1217
CTETRA      1851       1    2735    2736    4394    4406    3282     732+
+           1652    1029     891    5351
CTETRA      1852       1    2715    4418    4417      50     453    5384+
+            962     965    2013     966
CTETRA      1853       1    6056    5985    5984    4251    2405    6020+
+           1534    1532    5837    5838
CTETRA      1854       1    2619      39    4519      14    1292    1294+
+            422    1311     835    2352
CTETRA      1855       1    6063    4312    5992    4324    2088    5732+
+           2265    2089    5117    5733
CTETRA      1856       1    5981    4180    4192       8    5710    4743+
+           5711     674     214     213
CTETRA      1857       1    2731    2732    4389    4401    3270    1690+
+           1455    2187     745    5336
CTETRA      1858       1    6053    5982    4215    4227     395    5843+
+           1822    2018    5842    4844
CTETRA      1859       1    2779      88    4326      21    1578    1897+
+            493     502    2406     503
CTETRA      1860       1    6066    5994    5995    4348    2168    6030+
+           1236    1233    5737    5738
CTETRA      1861       1    6001    2677    2687    4432    1695    3144+
+           1397    5751    1696    1399
CTETRA      1862       1    6078    6007    4515    4527     122    5793+
+            123    1152    5792    5694
CTETRA      1863       1    6074    2676    6075    4479    4078    4079+
+           6085    1111    1908    1123
CTETRA      1864       1    6078    6007    6008    2627     122    6043+
+           1149    3932     418    2225
CTETRA      1865       1    2706    4430    4431      99    2399    5421+
+           1217    2267    2401    1813
CTETRA      1866       1    6007    6008    2627    4504    6043    2225+
+            418    5763    5764    2359
CTETRA      1867       1    6072    6000    6001    2687    1698    6036+
+           1697    3944    1400    1397
CTETRA      1868       1    2748    2758    4349    4350    3343    1902+
+           2281    2280     947    5190
CTETRA      1869       1    2765    2775    2774    4345    3392    3391+
+           3390     594     593     282
CTETRA      1870       1    2727    2728    2737    4385    3258    3285+
+           3284    2072    1389    2073
CTETRA      1871       1    6061    2797    4288    4300    3966    1146+
+           1864    2090    1868    5049
CTETRA      1872       1    6061    5989    5990    4288    1623    6025+
+           1622    1864    5727    5728
CTETRA      1873       1    2737    2747    4360      86    3312    1235+
+           1549    2407    1542    1544
CTETRA      1874       1    2619    2620    2629      39    2977    2976+
+           2975    1292     834    1251
CTETRA      1875       1    2712    4403    4414    4415     752    5374+
+            342     343    5376    5375
CTETRA      1876       1    6068    5997    4395    4407    1096    5813+
+           1019    1073    5812    5354
CTETRA      1877       1    2723    2733    4391    4392    3274    1699+
+            740    2408     307    5310
CTETRA      1878       1    2624    4513    4524    4525    2236    5686+
+           1551     884    5688    5687
CTETRA      1879       1    4502    4514    4513     106    5657    5656+
+           5655    1979    2231    2230
CTETRA      1880       1    2747    2757    4348    4349    3340    2165+
+           1232    1710    2409    5187
CTETRA      1881       1    2680    2690    4447    4448    3153     278+
+           1668    2196     439    5468
CTETRA      1882       1    2757    2758    4337    4349    3342     952+
+           2186    2409    1902    5188
CTETRA      1883       1    2748    2758    2757    4349    3343    3342+
+           3341    2281    1902    2409
CTETRA      1884       1    2635    4501    4513     106    2376    5654+
+           2039    1969    2410    2230
CTETRA      1885       1    2625    4513    4525      92    2040    5688+
+           1870    1704    2042    2232
CTETRA      1886       1    6064    2776    6065    4359    4058    4059+
+           6095    1475    1851    1468
CTETRA      1887       1    2642    4499    4498    4510    2384    5613+
+           2155    2342    5646    5645
CTETRA      1888       1    2747    2748    4349    4361    3314    2281+
+           1710    1541    1545    5222
CTETRA      1889       1    2690    4436    2700      16     276     430+
+           3181     431     433     643
CTETRA      1890       1    2698    4410    4421    4422    2411    5393+
+           2412    2381    5395    5394
CTETRA      1891       1    2755    4370    4369     107    1027    5248+
+           1752    2275    1975    2403
CTETRA      1892       1    2627    2628    4493    4505    2970    2206+
+           2400    2221    2398    5630
CTETRA      1893       1    6126    4517    4518      19    5769    5666+
+           5770    2215    2030    2413
CTETRA      1894       1    4315    4327    4326      20    5126    5125+
+           5124    2414    1439     496
CTETRA      1895       1    2672    2682    2681    4461    3131    3130+
+           3129     346     803     802
CTETRA      1896       1    2682    4450    4461    4462     443    5507+
+            803    2415    5509    5508
CTETRA      1897       1    2618    2628    4505    4506    2971    2398+
+           2353     849     851    5632
CTETRA      1898       1    2774    4333    4344    4345     274    5176+
+           1211     282    5178    5177
CTETRA      1899       1    2682    4451    4450    4462     791    5477+
+            443    2415    5510    5509
CTETRA      1900       1    2758    4338    4337    4349     946    5156+
+            952    1902    5189    5188
CTETRA      1901       1    2689    2690    4435    4447    3152     277+
+           1357     881     278    5466
CTETRA      1902       1    6061    2787    2797    4312    3965    3452+
+           3966    2092    2098    1869
CTETRA      1903       1    2689    4435    2690      16    1357     277+
+           3152    2416     432     431
CTETRA      1904       1    2642    2643    4499    4511    3021    1560+
+           2384    2149     876    5648
CTETRA      1905       1    2782    2792    2791    4329    3439    3438+
+           3437    2351    1759    2051
CTETRA      1906       1    2654    4477    4488    4489    1011    5584+
+           1666    2055    5586    5585
CTETRA      1907       1    2682    2692    4438    4439    3159    1725+
+            442     441    1726    5443
CTETRA      1908       1    2778    2788    4313    4314    3427    1646+
+           1645     903     904    5088
CTETRA      1909       1    4433    4434    4445      93    5428    5461+
+           5460    2035    1715    2065
CTETRA      1910       1    2811    2812    4293    4305    3494    1761+
+           1433    1435     957    5064
CTETRA      1911       1    2667    4468    4456      65    2022    5525+
+           1874    2417    2418    2419
CTETRA      1912       1    2669    2679    2678    4446    3122    3121+
+           3120    1673     879    1674
CTETRA      1913       1    2689    2690    2699      79    3152    3179+
+           3178    2062    2067    1967
CTETRA      1914       1    2768    4326    4338      21     949    5157+
+           1901    2082     503    2420
CTETRA      1915       1    2792    4318    4317    4329    1488    5100+
+           2059    1759    5133    5132
CTETRA      1916       1    6073    6003    6002    4467    1848    6038+
+           2217    1832    5801    5802
CTETRA      1917       1    6061    5990    5991    4300    1622    6026+
+           2091    2090    5729    5730
CTETRA      1918       1    2672    2673    2682    4451    3105    3132+
+           3131    2421    2383     791
CTETRA      1919       1    2688    2689    4422    4434    3149    2061+
+           2422    2201    1358    5429
CTETRA      1920       1    2672    2673    4451    4463    3105    2383+
+           2421    1989     722    5512
CTETRA      1921       1    2744     107    2754      11    1972    1974+
+           3333     398    2423     243
CTETRA      1922       1    2850    4232    4231    4243    2101    4856+
+           1530    1035    4889    4888
CTETRA      1923       1    2778    2788    2787    4313    3427    3426+
+           3425    1645    1646    1867
CTETRA      1924       1    2688    4422    4421    4433    2422    5394+
+           2424    2031    5427    5426
CTETRA      1925       1    2683    4440    4439    4451     772    5446+
+            771     755    5479    5478
CTETRA      1926       1    2802    4295    2812    4306    1403     969+
+           3495    1766    5068     958
CTETRA      1927       1    2830    4268    4267    4279    1494    4958+
+           1643    1492    4991    4990
CTETRA      1928       1    2687    4421    4420    4432    2425    5391+
+           1398    1399    5424    5423
CTETRA      1929       1    2840    2850    4255    4256    3601     826+
+            824    1195    2213    4924
CTETRA      1930       1    2770    4340    4351    4352    2197    5195+
+            827    2180    5197    5196
CTETRA      1931       1    2803    2804    4296    4308    3472     708+
+            971    1205     712    5073
CTETRA      1932       1    2789    4315    2790     105    2426    2271+
+           3432    2427    2428    2429
CTETRA      1933       1    4290    4291    4302     104    5023    5056+
+           5055    2430    1939    1941
CTETRA      1934       1    2782    4330    4329    4341    1486    5134+
+           2351    1930    5167    5166
CTETRA      1935       1    6003    2677    4444    4456    2307    1903+
+           5754    5755    1875    5491
CTETRA      1936       1    6070    5999    2707      67    1379    2263+
+           3948    2162    1157    2431
CTETRA      1937       1    2687    4421    4432    4433    2425    5424+
+           1399    2432    5426    5425
CTETRA      1938       1    2800    4303    4304     111    1421    5060+
+           1420    2433    2269    2118
CTETRA      1939       1    2799    2809    2808    4290    3486    3485+
+           3484    1849    2434    1779
CTETRA      1940       1    2678    2688    2687    4433    3147    3146+
+           3145    2032    2031    2432
CTETRA      1941       1    2790    4316    2800      82    2270    2273+
+           3461    2435    2274    1422
CTETRA      1942       1    2668    2678    2677    4445    3119    3118+
+           3117    1865    2203    1873
CTETRA      1943       1    2923    2924    2933      85    3808    3835+
+           3834    2139    1523    1525
CTETRA      1944       1    2820    4280    4279    4291    2326    4992+
+           1491    2284    5025    5024
CTETRA      1945       1    2879    2889      52     100    3710    2436+
+            992    2096    2437    2097
CTETRA      1946       1    2809    2819    4290    4291    3514    1497+
+           2434    2314    1498    5023
CTETRA      1947       1    2808    4277    4289      97    1846    5018+
+           1778    1780    1772    1781
CTETRA      1948       1    6002    6003    2677    4444    6038    2307+
+           1694    5753    5754    1903
CTETRA      1949       1    2689      79    4435      16    2062    1367+
+           1357    2416    1369     432
CTETRA      1950       1    2760    2770    2769      27    3377    3376+
+           3375     753     828    1427
CTETRA      1951       1    2713    4404    4403    4415     326    5344+
+            750     327    5377    5376
CTETRA      1952       1    2879    2880    2889     100    3684    3711+
+           3710    2096    1839    2437
CTETRA      1953       1    2734    4381    4380    4392     292    5279+
+            305     308    5312    5311
CTETRA      1954       1    2740    4388    4376      31     469    5299+
+            916    2243    1750     766
CTETRA      1955       1    2880    2890    2889     100    3713    3712+
+           3711    1839    1835    2437
CTETRA      1956       1    2740    2741    4376    4388    3295     465+
+            916     469    2183    5299
CTETRA      1957       1    2889    2890    4195     100    3712     801+
+            800    2437    1835    1837
CTETRA      1958       1    2761    2762    2771    4353    3354    3381+
+           3380    1654    1395    1657
CTETRA      1959       1    2889    4195      52     100     800    2438+
+           2436    2437    1837    2097
CTETRA      1960       1    2821    4281    4280    4292    2113    4995+
+           2325    2114    5028    5027
CTETRA      1961       1    2869    4207    4219      35    1591    4820+
+           1598     808     814    1633
CTETRA      1962       1    2800    2801    4304    4316    3463    1783+
+           1420    2273    1415    5095
CTETRA      1963       1    2802    4295    4306    4307    1403    5068+
+           1766    1764    5070    5069
CTETRA      1964       1    2830    2831    4268    4280    3547    2439+
+           1494    1495    2440    4993
CTETRA      1965       1    6056    5985    4251    4263    2405    5837+
+           1532    1540    5836    4946
CTETRA      1966       1    2828    2829    4266      89    3541     928+
+            927    1955    1640    1642
CTETRA      1967       1    2832    2833    2842    4259    3553    3580+
+           3579    1134    2173     540
CTETRA      1968       1    2744    4369    4380    4381    2441    5278+
+            290    1648    5280    5279
CTETRA      1969       1    2830    2831    2840    4268    3547    3574+
+           3573    1494    2439    2208
CTETRA      1970       1    2810    2820    4291    4292    3517    2284+
+           2315    2116    2327    5026
CTETRA      1971       1    2833    2843    2842    4259    3582    3581+
+           3580    2173     541     540
CTETRA      1972       1    2830    2840    2839    4267    3573    3572+
+           3571    1643     980     979
CTETRA      1973       1    2714    2724    2723    4404    3249    3248+
+           3247    1078    1747     751
CTETRA      1974       1    2744    4369    4381     107    2441    5280+
+           1648    1972    2403    1977
CTETRA      1975       1    2831    2832    2841    4269    3550    3577+
+           3576    2442    1586    1065
CTETRA      1976       1    2871    4209    4220    4221    2316    4824+
+            518    2293    4826    4825
CTETRA      1977       1    6056    4228    5985    4240    1553    5718+
+           2405     612    4879    5719
CTETRA      1978       1    2880    4196    4207    4208    1838    4787+
+            811    2443    4789    4788
CTETRA      1979       1    2881    2891    2890    4196    3716    3715+
+           3714    1841     566    1834
CTETRA      1980       1    2850    2860    4232      83    3629     516+
+           2101    1802    1796    1447
CTETRA      1981       1    2897    4169    4180    4181     654    4710+
+            212     209    4712    4711
CTETRA      1982       1    2832    4271    4270    4282    1917    4967+
+           1135    2323    5000    4999
CTETRA      1983       1    2932    2942    4149    4150    3859    1621+
+           2086    2444    2296    4624
CTETRA      1984       1    2869    2879    4207      35    3682     812+
+           1591     808     810     814
CTETRA      1985       1    2723    2724    4392    4404    3248    2129+
+           2408     751    1747    5345
CTETRA      1986       1    2723    4392    4391    4403    2408    5310+
+            740     749    5343    5342
CTETRA      1987       1    2704    4417    4428    4429     976    5414+
+            325     977    5416    5415
CTETRA      1988       1    2723    2733    2732    4391    3274    3273+
+           3272     740    1699     741
CTETRA      1989       1    2860    2861    4232      83    3631     517+
+            516    1796    1445    1447
CTETRA      1990       1    2714    2715    4405    4417    3223    1376+
+           1077     985     962    5382
CTETRA      1991       1    2825    4274    4273    4285     249    4976+
+            521     619    5009    5008
CTETRA      1992       1    2850    4232    4243    4244    2101    4889+
+           1035    2212    4891    4890
CTETRA      1993       1    2880    2881    4196    4208    3687    1841+
+           1838    2443    1842    4789
CTETRA      1994       1    5936    5937    2959    4110    5940    1855+
+            382    5879    5878     381
CTETRA      1995       1    2902    4187    4186      84    2445    4729+
+            902    1510    2446    1511
CTETRA      1996       1    2855    4250    4249    4261    1501    4908+
+           1500     675    4941    4940
CTETRA      1997       1    2883    4212    4211      59    1810    4800+
+           1170    1173    1059    1174
CTETRA      1998       1    2871    2881    2880    4220    3688    3687+
+           3686     518    2447    1635
CTETRA      1999       1    2714    4405    4416    4417    1077    5380+
+           1079     985    5382    5381
CTETRA      2000       1    6054    6055    5983    4239    6105    1489+
+           1315    2016    2153    5840
CTETRA      2001       1    2842    4258    4257    4269    1584    4930+
+           1451    1585    4963    4962
CTETRA      2002       1    2872    4211    4222    4223    2448    4830+
+           1443    2126    4832    4831
CTETRA      2003       1    2863    4235    4236      54    1464    4868+
+           2068    1476    2052    1003
CTETRA      2004       1    2861    4221    4232    4233    2292    4858+
+            517    1444    4860    4859
CTETRA      2005       1    2861    2862    4221    4233    3634    1442+
+           2292    1444    2320    4860
CTETRA      2006       1    2881    4209    4208    4220    2278    4791+
+           1842    2447    4824    4823
CTETRA      2007       1    2905    4190    4201    4202    2331    4771+
+           1894    1892    4773    4772
CTETRA      2008       1    2860    2870    4219    4220    3657    1632+
+           1631     515     519    4822
CTETRA      2009       1    2871    2872    4209    4221    3662    2317+
+           2316    2293    1441    4826
CTETRA      2010       1    2894    2904    4200    4201    3753    2333+
+           2166     882    1893    4769
CTETRA      2011       1    2881    4197    4208    4209    1797    4790+
+           1842    2278    4792    4791
CTETRA      2012       1    2915    4178    4177    4189    2329    4704+
+           1610    1609    4737    4736
CTETRA      2013       1    2713    2714    4404    4416    3220    1078+
+            326     328    1079    5379
CTETRA      2014       1    2723    2724    2733    4392    3248    3275+
+           3274    2408    2129     307
CTETRA      2015       1    2916    4179    4190    4191    1180    4740+
+           1886    1686    4742    4741
CTETRA      2016       1    2906    4191    4190    4202    1890    4741+
+           2332    2017    4774    4773
CTETRA      2017       1    2882    4198    4197    4209    1506    4760+
+           1798    1507    4793    4792
CTETRA      2018       1    2891    2892    4185    4197    3718     900+
+            565    1799    1800    4758
CTETRA      2019       1    2899    4170    4182      34     145    4715+
+            148     795    2264    2094
CTETRA      2020       1    2913    2914    4176      42    3780    1922+
+           1924    2449    2450     890
CTETRA      2021       1    2868    4218    4217    4229    1596    4816+
+            197     982    4849    4848
CTETRA      2022       1    2724    2725    2734    4393    3251    3278+
+           3277    1746    1856     293
CTETRA      2023       1    2832    2833    4259    4271    3553    2173+
+           1134    1917    1916    4968
CTETRA      2024       1    2822    4271    4282    4283    1919    5000+
+            973     972    5002    5001
CTETRA      2025       1    2882    2883    4199    4211    3693    2451+
+           2294    2337    1170    4798
CTETRA      2026       1    2922    2923    4151    4163    3805    2137+
+           2142    1824    2138    4662
CTETRA      2027       1    2932    4150    4149    4161    2444    4624+
+           2086    2452    4657    4656
CTETRA      2028       1    2903    2913    4187      42    3778     955+
+            863     865    2449     866
CTETRA      2029       1    2713    2714    2723    4404    3220    3247+
+           3246     326    1078     751
CTETRA      2030       1    2912    2922    2921    4161    3803    3802+
+           3801    1031    1030    1828
CTETRA      2031       1    2754    2755    4369      11    3335    1752+
+            241     243    2453     244
CTETRA      2032       1    2913    2923    2922    4163    3806    3805+
+           3804     937    2138    1824
CTETRA      2033       1    2932    4150    4161    4162    2444    4657+
+           2452    2454    4659    4658
CTETRA      2034       1    2936    2946    2945    4142    3871    3870+
+           3869    2159    1526    2146
CTETRA      2035       1    2915    2916    4178    4190    3786    1571+
+           2329    2330    1886    4739
CTETRA      2036       1    2899    2909    2908    4170    3766    3765+
+           3764     145     161     146
CTETRA      2037       1    2923    4164    2924      85    2455     572+
+           3808    2139    2456    1523
CTETRA      2038       1    2922    2932    2931    4161    3831    3830+
+           3829    1030    2452    1827
CTETRA      2039       1    2953    4115    4127      70     506    4556+
+           2302    1201    1203    2008
CTETRA      2040       1    2704    2714    2713    4416    3221    3220+
+           3219     322    1079     328
CTETRA      2041       1    2704    4429    4428    4440     977    5415+
+            325    2085    5448    5447
CTETRA      2042       1    2936    4143    4142    4154    1885    4605+
+           2159    2077    4638    4637
CTETRA      2043       1    6068    2736    6069    4407    4066    4067+
+           6091    1073     893    1074
CTETRA      2044       1    2955    4130    4129    4141    1365    4567+
+           2457    2144    4601    4600
CTETRA      2045       1    2915    2925    4177    4178    3812    1602+
+           1610    2329    1572    4704
CTETRA      2046       1    2734    2744    2743    4380    3305    3304+
+           3303     305     290     289
CTETRA      2047       1    2933    4152    4151      85    2458    4630+
+           2459    1525    2460    2140
CTETRA      2048       1    6054    2876    6055    4239    4038    4039+
+           6105    2016    1899    2153
CTETRA      2049       1    6047    4132    5977    4144    1168    5702+
+           1712    1169    4607    5703
CTETRA      2050       1    6054    5983    6055       9    1315    1489+
+           6105     228    1490     233
CTETRA      2051       1    2932    2942    4150    4151    3859    2296+
+           2444    2461    2297    4627
CTETRA      2052       1    2930    2931    4148    4160    3827    1618+
+           2239     140     139    4653
CTETRA      2053       1    2908    2909    2918    4158    3765    3792+
+           3791     153     160     154
CTETRA      2054       1    2932    2933    2942    4151    3833    3860+
+           3859    2461    2459    2297
CTETRA      2055       1    2946    2956    2955    4142    3899    3898+
+           3897    1526    1877    1876
CTETRA      2056       1    2942    4139    4138    4150    2295    4593+
+           1943    2296    4626    4625
CTETRA      2057       1    2933    2943    2942    4151    3862    3861+
+           3860    2459    2135    2297
CTETRA      2058       1    6054    2886    2876    4227    4037    3703+
+           4038    2015    1573    1898
CTETRA      2059       1    2754    2755    4357    4369    3335    1408+
+            604     241    1752    5246
CTETRA      2060       1    2953    2963    2962    4115    3918    3917+
+           3916     506    1200     507
CTETRA      2061       1    2867    4228    4216       9    1914    4845+
+            226     229     235     230
CTETRA      2062       1    2906    2916    4190    4191    3787    1886+
+           2332    1890    1686    4741
CTETRA      2063       1    2864    4237    4236    4248     546    4871+
+           1466    1465    4904    4903
CTETRA      2064       1    2733    2734    2743    4380    3276    3303+
+           3302     306     305     289
CTETRA      2065       1    2922    2923    2932    4151    3805    3832+
+           3831    2142    2137    2461
CTETRA      2066       1    6053    5982    6054    4204     395    1314+
+           6106     225    5713    1016
CTETRA      2067       1    6053    6054    5982    4227    6106    1314+
+            395    2018    2015    5842
CTETRA      2068       1    2942    2943    4127    4139    3861    2298+
+           2462    2295    2134    4594
CTETRA      2069       1    2764    2774    2773    4344    3389    3388+
+           3387     285    1211    1210
CTETRA      2070       1    5908    5909    2965    4117    5926    4015+
+           4016    1520    1521    1528
CTETRA      2071       1    2930    4148    2940      66    2239    1826+
+           3853    1120    2241    1121
CTETRA      2072       1    2795    4322    2796      61    2463    1020+
+           3450    2012    2344    1069
CTETRA      2073       1    5912    5933    4113    4114    2601    5873+
+            554    1692    5870    4550
CTETRA      2074       1    6062    5991    4323    4335    1514    5825+
+            333    1515    5824    5150
CTETRA      2075       1    2955    4118    2965    4129    1364    1374+
+           3924    2457    4565    2006
CTETRA      2076       1    5911    5932    5933    4114    2612    5950+
+           2603    1691    5871    5870
CTETRA      2077       1    2745    2755    2754     107    3336    3335+
+           3334    1973    2275    1974
CTETRA      2078       1    2942    2943    2952    4127    3861    3888+
+           3887    2462    2298    1625
CTETRA      2079       1    2955    4118    4129    4130    1364    4565+
+           2457    1365    4568    4567
CTETRA      2080       1    6047    2927    2937    4144    3993    3844+
+           3994    1169     635    1062
CTETRA      2081       1    5915    5937    2958    2959    2598    1854+
+           4002    4003    1855    3905
CTETRA      2082       1    2703    2704    2713    4416    3192    3219+
+           3218     323     322     328
CTETRA      2083       1    5908    2965    5929    4117    4016    1373+
+           2610    1520    1528    5865
CTETRA      2084       1    2956    4131    4130    4142     456    4571+
+           1366    1877    4604    4603
CTETRA      2085       1    6049    2917    4144    4156    3990    1054+
+           1188     588    1055    4641
CTETRA      2086       1    2703    4416    4427    4428     323    5411+
+            332     324    5413    5412
CTETRA      2087       1    2944    2945    4141    4153    3867    2145+
+           1516    1519    2160    4634
CTETRA      2088       1    2703    2713    4415    4416    3218     327+
+            329     323     328    5378
CTETRA      2089       1    2769      88    2779      21    1576    1578+
+           3402    2464    2406     502
CTETRA      2090       1    2912    2913    2922    4163    3777    3804+
+           3803     938     937    1824
CTETRA      2091       1    2925    2935    2934    4165    3840    3839+
+           3838    1601    2147     574
CTETRA      2092       1    2944    2954    4140    4141    3893    2465+
+           1517    1516    2324    4599
CTETRA      2093       1    2788    4302    2798    4313    1650    2272+
+           3455    1646    5087    1418
CTETRA      2094       1    2954    2955    4129    4141    3895    2457+
+           1819    2324    2144    4600
CTETRA      2095       1    2738    4374    4373    4385    1786    5258+
+           1730    1787    5291    5290
CTETRA      2096       1    2933    2943    4151    4152    3862    2135+
+           2459    2458    2136    4630
CTETRA      2097       1    5999    4396    2707      67    5746    2466+
+           2263    1157    1156    2431
CTETRA      2098       1    2925    2926    2935    4166    3814    3841+
+           3840    1600    1569    2148
CTETRA      2099       1    2956    4119    4118    4130    2156    4570+
+           1363    1366    4569    4568
CTETRA      2100       1    2934    4153    4152    4164     585    4633+
+           1522     571    4666    4665
CTETRA      2101       1    2734    4381    4392    4393     292    5312+
+            308     293    5314    5313
CTETRA      2102       1    2763    2764    2773    4344    3360    3387+
+           3386     719     285    1210
CTETRA      2103       1    4427    4428    4439      44    5412    5445+
+           5444    1723     889    1449
CTETRA      2104       1    6064    5992    5993    4324    2266    6028+
+           1473     837    5733    5734
CTETRA      2105       1    5938    5939    2957    4108    5943    2349+
+           2467    5882    5697    2350
CTETRA      2106       1    2915    2925    2924      77    3812    3811+
+           3810    1906    1928    1882
CTETRA      2107       1    2935    4142    2945    4153     575    2146+
+           3868     576    4635    2160
CTETRA      2108       1    2884    4201    4200    4212     860    4769+
+           1808    1014    4802    4801
CTETRA      2109       1    4211    4212    4223      59    4800    4833+
+           4832    1174    1059    1471
CTETRA      2110       1    2946    4131    2956    4142     457     456+
+           3899    1526    4604    1877
CTETRA      2111       1    2883    4200    4199    4211    1809    4766+
+           2451    1170    4799    4798
CTETRA      2112       1    2883    2893    2892    4199    3722    3721+
+           3720    2451    2312    2468
CTETRA      2113       1    5916    5938    5939    2957    2600    5943+
+           2596    4000    2467    2349
CTETRA      2114       1    2863    4223    4235      54    1463    4866+
+           1464    1476    1478    2052
CTETRA      2115       1    2937    2947    4120      62    3872    1090+
+           1089    2469    1092    1094
CTETRA      2116       1    6045    6141    5939    2957    6115    2595+
+           1949    3998    3999    2349
CTETRA      2117       1    2883    2893    4199    4200    3722    2312+
+           2451    1809    2167    4766
CTETRA      2118       1    2883    2884    2893    4200    3696    3723+
+           3722    1809    1808    2167
CTETRA      2119       1    2833    2834    4260    4272    3556    1606+
+           2174    1198    1197    4971
CTETRA      2120       1    5914    5937    5915    2959    2594    2598+
+           5918    4004    1855    4003
CTETRA      2121       1    2852    2853    4235    4247    3609    2070+
+           2216    1583    2171    4900
CTETRA      2122       1    2866    2876    4238    4239    3675    1191+
+           1190    1555    1899    4877
CTETRA      2123       1    2844    2854    4260    4261    3613    1587+
+           1605    1608    1580    4939
CTETRA      2124       1    2842    2852    2851    4257    3607    3606+
+           3605    1451     534    1452
CTETRA      2125       1    2919    4159    2929      25     705    1061+
+           3822     623    2310     624
CTETRA      2126       1    2842    4258    4269    4270    1584    4963+
+           1585    1136    4965    4964
CTETRA      2127       1    6055    5984    5983    4239     231    6019+
+           1489    2153    5839    5840
CTETRA      2128       1    5983    4216    5984       9    5715    5716+
+           6019    1490     230     234
CTETRA      2129       1    2898    4170    4169    4181     144    4680+
+            174     655    4713    4712
CTETRA      2130       1    2842    2843    2852    4247    3581    3608+
+           3607     539     538    1583
CTETRA      2131       1    2769    2779    2778      21    3402    3401+
+           3400    2464     502     501
CTETRA      2132       1    2915    4177    2925      77    1610    1602+
+           3812    1906    1326    1928
CTETRA      2133       1    6058    4252    5987    4264    2336    5722+
+            616    1793    4947    5723
CTETRA      2134       1    2947    4109    4108    4120    2185    4530+
+           2253    1090    4529    4528
CTETRA      2135       1    2673    4464    4463       6     729    5514+
+            722     182     763     724
CTETRA      2136       1    2821    2822    4281    4293    3522    2322+
+           2113    1762    2347    5030
CTETRA      2137       1    2822    4282    4293    4294     973    5031+
+           2347     974    5033    5032
CTETRA      2138       1    2801    2802    2811    4305    3466    3493+
+           3492    1414    2057    1435
CTETRA      2139       1    2801    2811    2810    4304    3492    3491+
+           3490    1783    1434    2115
CTETRA      2140       1    2791    2801    2800    4316    3464    3463+
+           3462    2056    1415    2273
CTETRA      2141       1    2768    2769    2778      21    3373    3400+
+           3399    2082    2464     501
CTETRA      2142       1    2771    4341    4340    4352    2277    5165+
+           2276    2079    5198    5197
CTETRA      2143       1    2782    4331    4330    4342    1484    5137+
+           1486    1933    5170    5169
CTETRA      2144       1    2750    2760    2759    4363    3349    3348+
+           3347    2258     175    2184
CTETRA      2145       1    2768    4338    2769      21    1901    1900+
+           3373    2082    2420    2464
CTETRA      2146       1    2948    4133    4121      63     371    4576+
+            370    1099    1098    1559
CTETRA      2147       1    2750    2760    4363    4364    3349     175+
+           2258     462    2178    5230
CTETRA      2148       1    2769    4338      88      21    1900    2470+
+           1576    2464    2420    2406
CTETRA      2149       1    2731    2741    2740    4388    3296    3295+
+           3294     468    2183     469
CTETRA      2150       1    2755     107    4369      11    2275    2403+
+           1752    2453    2423     244
CTETRA      2151       1    2730    4387    4388      31    1742    5298+
+            467    2242     767    1750
CTETRA      2152       1    2730    2731    4388    4400    3267     468+
+            467    1458    1456    5333
CTETRA      2153       1    2721    4401    4400    4412    1719    5335+
+           1461    1462    5368    5367
CTETRA      2154       1    2774    2775    2784      12    3391    3418+
+           3417     279    2471     280
CTETRA      2155       1    2775    2785    2784      12    3420    3419+
+           3418    2471     484     280
CTETRA      2156       1    6070    2726    2716    4407    4069    3255+
+           4070    2252     892    1860
CTETRA      2157       1    2739    2740    2749    4375    3292    3319+
+           3318     905     915    2260
CTETRA      2158       1    2722    2732    2731    4401    3271    3270+
+           3269    1658     745    2187
CTETRA      2159       1    2737    4373    4384    4385    2191    5288+
+            360    2073    5290    5289
CTETRA      2160       1    4463    4464    4475       6    5514    5547+
+           5546     724     763     738
CTETRA      2161       1    2719    4399    2720      18    1739     470+
+           3236    2472     473     472
CTETRA      2162       1    2718    4386    4385    4397    1391    5292+
+           1390    1392    5325    5324
CTETRA      2163       1    6068    5998    2717    4384     389     391+
+           3951     365    5744     388
CTETRA      2164       1    4451    4452    4463       2    5480    5513+
+           5512     757     756     768
CTETRA      2165       1    2662    2663    4463    4475    3077     723+
+           1253    1255     737    5546
CTETRA      2166       1    6070    6071    5999    4431    6089    2282+
+           1379     449    2402    5808
CTETRA      2167       1    2709    2719    4410    4411    3234    1740+
+           2366    2369    1741    5363
CTETRA      2168       1    4363    4375    4374     113    5262    5261+
+           5260    2356    2355    2473
CTETRA      2169       1    2753    2754    4356    4368    3332     313+
+            479     315     242    5243
CTETRA      2170       1    6076    2666    2656    4491    4081    3087+
+           4082     568    1126     569
CTETRA      2171       1    2638    4482    2648    4493    2209    2210+
+           3035    2205    5597    1432
CTETRA      2172       1    2690    2700    2699      79    3181    3180+
+           3179    2067    1368    1967
CTETRA      2173       1    4422    4423    4434      79    5397    5430+
+           5429    2063    1968    2064
CTETRA      2174       1    2688    4422    4433    4434    2422    5427+
+           2031    2201    5429    5428
CTETRA      2175       1    6077    2646    6078    4515    4084    4085+
+           6082     121     143     123
CTETRA      2176       1    2627    4505    4504    4516    2221    5629+
+           2359    2222    5662    5661
CTETRA      2177       1    2628    4493    4505      38    2206    5630+
+           2398    2207     829     831
CTETRA      2178       1    2904     116    2914      42    2474    2475+
+           3781    2476    2477    2450
CTETRA      2179       1    2617    2618    4505    4517    2969    2353+
+           1338    1340    1344    5664
CTETRA      2180       1    2657    2658    4457    4469    3062    2250+
+           2019    2382    2385    5528
CTETRA      2181       1    2652    2662    2661    4485    3075    3074+
+           3073     354     409     355
CTETRA      2182       1    2680    4448    4447      17    2196    5468+
+           1668    1670    2478    1671
CTETRA      2183       1    2631    2632    4509      72    2986    1276+
+            386    1261    1277    1279
CTETRA      2184       1    2622    2632    4510    4511    2987    1275+
+           1272    1267    1269    5647
CTETRA      2185       1    6119    2624    4524    4525    1550    1551+
+           5783    5784     884    5687
CTETRA      2186       1    2680    2690    2689    4447    3153    3152+
+           3151    1668     278     881
CTETRA      2187       1    2677    2678    2687    4433    3118    3145+
+           3144    2251    2032    2432
CTETRA      2188       1    4482    4483    4494      37    5567    5600+
+           5599    1689    2010    1684
CTETRA      2189       1    2904    2914    2913      42    3781    3780+
+           3779    2476    2450    2449
CTETRA      2190       1    2647    4481    4492    4493    1430    5594+
+           1481    1431    5596    5595
CTETRA      2191       1    2641    2642    2651    4497    3018    3045+
+           3044     806    2154     807
CTETRA      2192       1    2648    2658    2657    4469    3063    3062+
+           3061    1436    2385    2382
CTETRA      2193       1    6075    6005    6076    2647     647     559+
+           6084    3937    1124    3936
CTETRA      2194       1    2923    2933    2932    4151    3834    3833+
+           3832    2137    2459    2461
CTETRA      2195       1    2902    2903    2912    4187    3749    3776+
+           3775    2445     863     954
CTETRA      2196       1    2657    4468    2667      65    2021    2022+
+           3088    2479    2418    2417
CTETRA      2197       1    2942    4127    4138    4139    2462    4592+
+           1943    2295    4594    4593
CTETRA      2198       1    2942    4138    4149    4150    1943    4623+
+           1621    2296    4625    4624
CTETRA      2199       1    2662    2672    2671    4473    3103    3102+
+           3101     366     349     348
CTETRA      2200       1    2903    2904    2913      42    3752    3779+
+           3778     865    2476    2449
CTETRA      2201       1    6004    6005    2657    4468    6040    1125+
+           2339    5757    5758    2021
CTETRA      2202       1    6077    6006    4503    4515     120    5795+
+            141     121    5794    5660
CTETRA      2203       1    2903    4188    2904      42     864    2334+
+           3752     865     867    2476
CTETRA      2204       1    2904    4188     116      42    2334    2480+
+           2474    2476     867    2477
CTETRA      2205       1    2753    2763    4355    4356    3358     478+
+            720     479     314    5208
CTETRA      2206       1    2952    2953    4115    4127    3889     506+
+            505    1625    2302    4556
CTETRA      2207       1    2662    2663    2672    4463    3077    3104+
+           3103    1253     723    1989
CTETRA      2208       1    2662    2672    4462    4463    3103    2481+
+           2005    1253    1989    5511
CTETRA      2209       1    2646    4503    4502      91     142    5625+
+           2373    2029    2036    1981
CTETRA      2210       1    2676    4467    4478       4    2023    5556+
+            168     171     742     172
CTETRA      2211       1    2929    2930    4147    4159    3824    2238+
+           2233    1061    1060    4650
CTETRA      2212       1    2860    4220    4219    4231     515    4822+
+           1631    1636    4855    4854
CTETRA      2213       1    2652    2662    4474    4475    3075    1254+
+           2047     804    1255    5545
CTETRA      2214       1    4478    4479    4490      64    5557    5590+
+           5589    1103    1102    2391
CTETRA      2215       1    5912    5934    5935    4112    2602    5946+
+           2606     553    5875    5874
CTETRA      2216       1    2744    4369    4368    4380    2441    5245+
+            287     290    5278    5277
CTETRA      2217       1    2911    4173    4172    4184    1512    4689+
+           1630    1947    4722    4721
CTETRA      2218       1    5912    5935    5913    4112    2606    2605+
+           5922     553    5874     444
CTETRA      2219       1    2652    4474    4485    4486    2047    5575+
+            354     367    5577    5576
CTETRA      2220       1    5912    5934    4112    4113    2602    5875+
+            553     554    5872    4546
CTETRA      2221       1    6004    4468    2657      65    5757    2021+
+           2339    1115    2418    2479
CTETRA      2222       1    6071    6000    2687    2697    2283    1400+
+           3945    3946    1401    3172
CTETRA      2223       1    2668    2678    4445    4446    3119    2203+
+           1865    1672    1674    5462
CTETRA      2224       1    2951    2952    4125    4137    3886     217+
+            127    1628    1627    4588
CTETRA      2225       1    6073    6001    6002    2677    2218    6037+
+           2217    3942    1695    1694
CTETRA      2226       1    6072    6001    4443    4455    1697    5805+
+            295    2219    5804    5490
CTETRA      2227       1    2729      45    4387      31    1737    1388+
+            921    2226    2228     767
CTETRA      2228       1    2730    4399      47      18    1457    1744+
+           1743    1748     473    2190
CTETRA      2229       1    2676    4479    4467       4    1908    5558+
+           2023     171     743     742
CTETRA      2230       1    2666    4479    2676       4    1100    1908+
+           3115     668     743     171
CTETRA      2231       1    2764    2765    4345    4357    3363     594+
+            284    1410    1409    5212
CTETRA      2232       1    2813    2823    4283    4284    3526    1912+
+            967    1637    1910    5004
CTETRA      2233       1    6058    2836    6059    4275    4046    4047+
+           6101     610     237     617
CTETRA      2234       1    2912    4175    4186    4187     896    4728+
+            898     954    4730    4729
CTETRA      2235       1    2942    2943    4139    4151    3861    2134+
+           2295    2297    2135    4628
CTETRA      2236       1    6060    6061    5989    4311    6099    1623+
+           1140     694     696    5828
CTETRA      2237       1    2623    4511    4523      74    1268    5682+
+           1298    1300    2482    1301
CTETRA      2238       1    2642    4498    4509    4510    2155    5643+
+           2341    2342    5645    5644
CTETRA      2239       1    6061    5991    5990    4323    2091    6026+
+           1622     336    5825    5826
CTETRA      2240       1    6054    5983    5982    4227    1315    6018+
+           1314    2015    5841    5842
CTETRA      2241       1    2730    4400    4399      18    1458    5332+
+           1457    1748     474     473
CTETRA      2242       1    2720    4400    4399    4411     471    5332+
+            470    1453    5365    5364
CTETRA      2243       1    2889    2899    2898    4182    3738    3737+
+           3736     669     148     147
CTETRA      2244       1    2866    4239    4238    4250    1555    4877+
+           1190    1194    4910    4909
CTETRA      2245       1    2926    4167    4178    4179     401    4706+
+           1570    1179    4708    4707
CTETRA      2246       1    2624    2634    2633      74    2995    2994+
+           2992    2362    2363    2483
CTETRA      2247       1    2719    2720    4399    4411    3236     470+
+           1739    1741    1453    5364
CTETRA      2248       1    2647    4481    4480    4492    1430    5561+
+           1371    1481    5594    5593
CTETRA      2249       1    2648    4482    4481    4493    2210    5564+
+           1429    1432    5597    5596
CTETRA      2250       1    2719      47    4399      18    2038    1744+
+           1739    2472    2190     473
CTETRA      2251       1    2642    4487    4498    4499     530    5612+
+           2155    2384    5614    5613
CTETRA      2252       1    2648    2658    4469      78    3063    2385+
+           1436    2338    2335    2078
CTETRA      2253       1    2617    2618    2627    4505    2969    2968+
+           2967    1338    2353    2221
CTETRA      2254       1    2909    2919    4158    4159    3794    2308+
+            160     704     705    4649
CTETRA      2255       1    2642    4498    4497    4509    2155    5610+
+           2154    2341    5643    5642
CTETRA      2256       1    2954    4129    4128    4140    1819    4563+
+           1818    2465    4598    4597
CTETRA      2257       1    2905    2906    4190    4202    3758    2332+
+           2331    1892    2017    4773
CTETRA      2258       1    2913    4176    4175    4187    1924    4698+
+            939     955    4731    4730
CTETRA      2259       1    2784    2785    4321    4333    3419     270+
+            268     275     483    5144
CTETRA      2260       1    2622    2632    2631      72    2987    2986+
+           2984    1260    1277    1261
CTETRA      2261       1    2719    2720    2729      47    3236    3263+
+           3262    2038    2189     923
CTETRA      2262       1    2892    2893    2902      84    3721    3748+
+           3747    1509    2484    1510
CTETRA      2263       1    2806    2816    2815      24    3507    3506+
+           3505     584    2202     590
CTETRA      2264       1    2862    4234    4233    4245     527    4862+
+           2320     528    4895    4894
CTETRA      2265       1    2639    4495    4494    4506    1682    5601+
+           1681    1711    5634    5633
CTETRA      2266       1    2641    4497    4496    4508     806    5607+
+            410     384    5640    5639
CTETRA      2267       1    2796    2806    4322    4323    3479    2343+
+           1020     335     334    5115
CTETRA      2268       1    2675    2685    4453     115    3140     989+
+           2257    2393    2397    2394
CTETRA      2269       1    6046    2966    2956    4119    4021    3927+
+           4022     404     403    2156
CTETRA      2270       1    2806    4311    4310    4322    2123    5081+
+            583    2343    5114    5113
CTETRA      2271       1    2797    4289    4288    4300    1142    5017+
+           1146    1868    5050    5049
CTETRA      2272       1    6045    4119    5974      75     402    5859+
+            405    1721    1318    1317
CTETRA      2273       1    6071    6000    4431    4443    2283    5807+
+           2402    2485    5806    5456
CTETRA      2274       1    2794    2795    2804      29    3447    3474+
+           3473     698    2328    2486
CTETRA      2275       1    2706      50    4430      99    2487    2014+
+           2399    2267    2488    2401
CTETRA      2276       1    2878    4194    4205    4206    1499    4781+
+            208    1909    4783    4782
CTETRA      2277       1    2815    2816    4298      24    3506    1582+
+            591     590    2202     581
CTETRA      2278       1    2709    2710    4411    4423    3208    2489+
+           2369    1963    1962    5398
CTETRA      2279       1    2840    4256    4267    4268    1195    4957+
+            980    2208    4959    4958
CTETRA      2280       1    2850    2860    2859    4231    3629    3628+
+           3627    1530    1636    1531
CTETRA      2281       1    2710    2720    2719    4411    3237    3236+
+           3235    2489    1453    1741
CTETRA      2282       1    2701    2702    2711    4425    3186    3213+
+           3212     426     337     339
CTETRA      2283       1    2692    2693    2702    4427    3161    3188+
+           3187    1724    1722     331
CTETRA      2284       1    6061    2816    2806    4311    4051    3507+
+           4052     696     695    2123
CTETRA      2285       1    4333    4334    4345      12    5146    5179+
+           5178     281     485     283
CTETRA      2286       1    2816    4311    4299      24     695    5082+
+            262    2202    1412    1411
CTETRA      2287       1    2766    4371    4359      60     299    5252+
+            606    1068    1067    2054
CTETRA      2288       1    6063    5991    5992    4312    1513    6027+
+           2265    2088    5731    5732
CTETRA      2289       1    2815    2816    4286    4298    3506     264+
+            263     591    1582    5045
CTETRA      2290       1    2880    2881    4208    4220    3687    1842+
+           2443    1635    2447    4823
CTETRA      2291       1    2869    4219    2870      35    1598    1632+
+           3656     808    1633     809
CTETRA      2292       1    2782    2792    4329    4330    3439    1759+
+           2351    1486    1760    5134
CTETRA      2293       1    2915      57    4177      58    1044    1612+
+           1610    1047    1046    1323
CTETRA      2294       1    2802    2803    4295    4307    3469    1354+
+           1403    1764    1763    5070
CTETRA      2295       1    2846    4275    4263      10     246    4980+
+            510     247     240     512
CTETRA      2296       1    6063    2796    2786    4335    4055    3451+
+           4056     319    1960     317
CTETRA      2297       1    2837    2847    4240    4241    3592    1554+
+            613    2289    2104    4881
CTETRA      2298       1    2774    2784    2783    4332    3417    3416+
+           3415     273     272    1214
CTETRA      2299       1    2776    2786    2785    4346    3423    3422+
+           3421     598     481    2124
CTETRA      2300       1    6061    6062    5991    4323    6098    1514+
+           2091     336     333    5825
CTETRA      2301       1    2826    4275    4286    4287     265    5012+
+            251     345    5014    5013
CTETRA      2302       1    2799    4290    4302     104    1849    5055+
+           1951    1953    2430    1941
CTETRA      2303       1    2779    2780    2789     117    3404    3431+
+           3430    2490    2491    2492
CTETRA      2304       1    2831    2841    2840    4268    3576    3575+
+           3574    2439    1064    2208
CTETRA      2305       1    6059    4275    2826    4287     617     265+
+           4048     257    5014     345
CTETRA      2306       1    6058    2846    2836    4275    4045    3591+
+           4046     610     246     237
CTETRA      2307       1    2845    2855    2854    4261    3616    3615+
+           3614     676     675    1580
CTETRA      2308       1    2827    2828    2837    4253    3538    3565+
+           3564     362     361    2247
CTETRA      2309       1    4177      57     116      58    1612    2493+
+           2494    1323    1046    2495
CTETRA      2310       1    6055    6056    2847    4228    6104    3976+
+           3977     232    1553    1552
CTETRA      2311       1    2810    4292    4291     111    2116    5026+
+           2315    2117    2119    2496
CTETRA      2312       1    2810    2811    4292    4304    3491    1768+
+           2116    2115    1434    5061
CTETRA      2313       1    6057    4240    5986    4252     611    5720+
+            602    2291    4913    5721
CTETRA      2314       1    2847    2857    4228    4229    3620    2304+
+           1552    2102    1913    4847
CTETRA      2315       1    6047    5975    5976    4120    1282    6011+
+           1284    1288    5699    5700
CTETRA      2316       1    4176    4177     116      58    4701    2494+
+           2497    1923    1323    2495
CTETRA      2317       1    4176      76    4177      58    1604    1325+
+           4701    1923    1324    1323
CTETRA      2318       1    2905    4189    2915      57    1614    1609+
+           3784    1616    1611    1044
CTETRA      2319       1    6057    5986    4263    4275     602    5835+
+            600     609    5834    4980
CTETRA      2320       1    2914      76      58      77    1921    1324+
+           1045    1907    1328    1327
CTETRA      2321       1    2839    4255    4254    4266     823    4921+
+            910     919    4954    4953
CTETRA      2322       1    2818    2828    4266      89    3539     927+
+            522    1954    1955    1642
CTETRA      2323       1    4173    4174    4185      48    4692    4725+
+           4724     936     935    1538
CTETRA      2324       1    6052    5981    5980    4203     673    6016+
+            396    1334    5845    5846
CTETRA      2325       1    2854    4249    4248    4260    1579    4905+
+           1588    1587    4938    4937
CTETRA      2326       1    2902    2912    4186    4187    3775     898+
+            902    2445     954    4729
CTETRA      2327       1    2911    2912    2921    4161    3774    3801+
+           3800    1629    1031    1828
CTETRA      2328       1    2813    2823    2822    4283    3526    3525+
+           3524     967    1912     972
CTETRA      2329       1    2882    2883    2892    4199    3693    3720+
+           3719    2294    2451    2468
CTETRA      2330       1    2882    4199    4210    4211    2294    4796+
+           1508    2337    4798    4797
CTETRA      2331       1    2838    2848    2847    4241    3595    3594+
+           3593    2290    2105    2104
CTETRA      2332       1    2902    2903    4187      84    3749     863+
+           2445    1510    2498    2446
CTETRA      2333       1    2872    4210    4209    4221    2499    4794+
+           2317    1441    4827    4826
CTETRA      2334       1    2882    2892    4198    4199    3719    1801+
+           1506    2294    2468    4763
CTETRA      2335       1    2914    2924      76      77    3809    1881+
+           1921    1907    1882    1328
CTETRA      2336       1    2834    4261    4260    4272    1607    4939+
+           1606    1197    4972    4971
CTETRA      2337       1    2867    2877    4204    4205    3676     216+
+           1017     195     198    4779
CTETRA      2338       1    2857    2867    4228    4229    3648    1914+
+           2304    1913     981    4847
CTETRA      2339       1    2899    4183    2900       7     784    1503+
+           3740     797     799     191
CTETRA      2340       1    2921    2931    4160    4161    3828     139+
+            138    1828    1827    4655
CTETRA      2341       1    2794    2804    4309      29    3473     714+
+            697     698    2486     699
CTETRA      2342       1    2881    2891    4196    4197    3716     566+
+           1841    1797    1799    4757
CTETRA      2343       1    2867    4217    4216    4228     196    4813+
+            226    1914    4846    4845
CTETRA      2344       1    2848    2858    4229     110    3623    1599+
+           2103    2500    2106    2108
CTETRA      2345       1    2822    2832    2831    4281    3551    3550+
+           3549    2322    2321    2501
CTETRA      2346       1    2934    2935    4153    4165    3839     576+
+            585     574    2147    4668
CTETRA      2347       1    2934    2935    2944    4153    3839    3866+
+           3865     585     576    1519
CTETRA      2348       1    2810    2811    2820    4292    3491    3518+
+           3517    2116    1768    2327
CTETRA      2349       1    2944    2945    2954    4141    3867    3894+
+           3893    1516    2145    2324
CTETRA      2350       1    2820    4280    4291    4292    2326    5025+
+           2284    2327    5027    5026
CTETRA      2351       1    2809    4291    4290     104    2314    5023+
+           2434    2502    1939    2430
CTETRA      2352       1    2954    2955    2964    4129    3895    3922+
+           3921    1819    2457    1820
CTETRA      2353       1    2858    2868    2867    4229    3651    3650+
+           3649    1599     982     981
CTETRA      2354       1    2837    2838    4241    4253    3566    2290+
+           2289    2247    1638    4916
CTETRA      2355       1    2806    4311    4322    4323    2123    5114+
+           2343     334    5116    5115
CTETRA      2356       1    2914    2924    4176      76    3809    1920+
+           1922    1921    1881    1604
CTETRA      2357       1    2787    2797    4312    4313    3452    1869+
+           2098    1867    1417    5085
CTETRA      2358       1    6073    2686    6074    4467    4076    4077+
+           6086    1832    1833    1110
CTETRA      2359       1    2757    4337    4336    4348    2186    5153+
+           2195    2165    5186    5185
CTETRA      2360       1    2789    4303    4302    4314    2503    5057+
+           1649    1419    5090    5089
CTETRA      2361       1    2913    2923    4163     102    3806    2138+
+            937    1925    2504    2224
CTETRA      2362       1    2913    2914    2923     102    3780    3807+
+           3806    1925    2505    2504
CTETRA      2363       1    2956    2966    2965    4118    3927    3926+
+           3925    1363    1375    1374
CTETRA      2364       1    2914    2924    2923     102    3809    3808+
+           3807    2505    2506    2504
CTETRA      2365       1    2923    2924    4164     102    3808     572+
+           2455    2504    2506    2223
CTETRA      2366       1    2954    4129    4140    4141    1819    4598+
+           2465    2324    4600    4599
CTETRA      2367       1    6058    5987    5986    4275     616    6022+
+           2507     610    5833    5834
CTETRA      2368       1    2923    4164    4163     102    2455    4664+
+           2138    2504    2223    2224
CTETRA      2369       1    2909    2919    2918    4158    3794    3793+
+           3792     160    2308     154
CTETRA      2370       1    4152    4164    4163      85    4665    4664+
+           4663    2460    2456    2141
CTETRA      2371       1    2798    2808    2807    4289    3483    3482+
+           3481    1141    1778     393
CTETRA      2372       1    2797    2798    2807    4289    3454    3481+
+           3480    1142    1141     393
CTETRA      2373       1    2818      97    2819      98    1770    2508+
+           3513    1775    1777    2509
CTETRA      2374       1    2914    4176     116      58    1922    2497+
+           2475    1045    1923    2495
CTETRA      2375       1    2835    2845    2844    4261    3588    3587+
+           3586     682     676    1608
CTETRA      2376       1    6064    4324    5993    4336     837    5734+
+           1473     838    5151    5735
CTETRA      2377       1    6065    5994    5993    4359    1852    6029+
+           2157    1468    5819    5820
CTETRA      2378       1    2822    4271    2832    4282    1919    1917+
+           3551     973    5000    2323
CTETRA      2379       1    6065    5993    5994    4336    2157    6029+
+           1852    2158    5735    5736
CTETRA      2380       1    2903    2913    2912    4187    3778    3777+
+           3776     863     955     954
CTETRA      2381       1    2773    4332    4343    4344    1209    5173+
+            730    1210    5175    5174
CTETRA      2382       1    2819      97    4290      98    2508    1782+
+           1497    2509    1777    2120
CTETRA      2383       1    2893    4199    2903      84    2312    2311+
+           3750    2484    2510    2498
CTETRA      2384       1    2748    2749    2758    4350    3317    3344+
+           3343    2280    2511     947
CTETRA      2385       1    4304    4316    4315      82    5095    5094+
+           5093    1423    2274    2512
CTETRA      2386       1    6054    4204    5983    4216    1016    5714+
+           1315     227    4811    5715
CTETRA      2387       1    2873    4211    4223      59    1171    4832+
+           1469    1172    1174    1471
CTETRA      2388       1    2914     116    4176      42    2475    2497+
+           1922    2450    2477     890
CTETRA      2389       1    2794    4309    4308    4320     697    5075+
+            713     266    5108    5107
CTETRA      2390       1    2883    2884    4212      59    3696    1014+
+           1810    1173    1057    1059
CTETRA      2391       1    2872    2873    2882    4211    3665    3692+
+           3691    2448    1171    2337
CTETRA      2392       1    2862    2872    2871    4221    3663    3662+
+           3661    1442    1441    2293
CTETRA      2393       1    6046    5975    5974    4131    2152    6010+
+            406     461    5857    5858
CTETRA      2394       1    2699    2700    2709    4423    3180    3207+
+           3206    1966     653    1963
CTETRA      2395       1    2770    4340    4339    4351    2197    5162+
+           1425     827    5195    5194
CTETRA      2396       1    2789    4303    4315     105    2503    5092+
+           2426    2427    1956    2428
CTETRA      2397       1    2872    2882    4210    4211    3691    1508+
+           2499    2448    2337    4797
CTETRA      2398       1    2863    2873    2872    4223    3666    3665+
+           3664    1463    1469    2126
CTETRA      2399       1    2821    2831    4280    4281    3548    2440+
+           2325    2113    2501    4995
CTETRA      2400       1    2819    4290    4279      98    1497    5022+
+           1496    2509    2120    2285
CTETRA      2401       1    2821    2831    2830    4280    3548    3547+
+           3546    2325    2440    1495
CTETRA      2402       1    2811    2821    4292    4293    3520    2114+
+           1768    1433    1762    5029
CTETRA      2403       1    2801    2811    4304    4305    3492    1434+
+           1783    1414    1435    5063
CTETRA      2404       1    2772    4331    4342    4343    1651    5170+
+           1932     731    5172    5171
CTETRA      2405       1    2791    2792    2801    4317    3438    3465+
+           3464    2049    2059    1416
CTETRA      2406       1    2822    4282    4281    4293     973    4998+
+           2322    2347    5031    5030
CTETRA      2407       1    2781    2782    2791    4329    3410    3437+
+           3436    2198    2351    2051
CTETRA      2408       1    2811    2821    2820    4292    3520    3519+
+           3518    1768    2114    2327
CTETRA      2409       1    2772    4342    4353    4354    1932    5201+
+           1394    1396    5203    5202
CTETRA      2410       1    2819    4279      89      98    1496    1774+
+           1773    2509    2285    2513
CTETRA      2411       1    2784    2785    2794    4321    3419    3446+
+           3445     268     270     269
CTETRA      2412       1    2780    2790    2789     117    3433    3432+
+           3431    2491    2514    2492
CTETRA      2413       1    2789    2790    4315     117    3432    2271+
+           2426    2492    2514    2515
CTETRA      2414       1    2780    2781    4328    4340    3407    2199+
+            497     499    2200    5163
CTETRA      2415       1    2730    2740    2739      31    3293    3292+
+           3291    2242    2243    2227
CTETRA      2416       1    2767    2768    4325    4337    3370     950+
+           1756     953     951    5154
CTETRA      2417       1    2729    4387    2730      31     921    1742+
+           3264    2226     767    2242
CTETRA      2418       1    2818    2819      89      98    3513    1773+
+           1954    1775    2509    2513
CTETRA      2419       1    2759    4363    2760       5    2184     175+
+           3348     687     178     177
CTETRA      2420       1    2818    4266    4278      89     522    4987+
+           1769    1954    1642    2516
CTETRA      2421       1    2747    2748    2757    4349    3314    3341+
+           3340    1710    2281    2409
CTETRA      2422       1    2760    2761    2770    4352    3351    3378+
+           3377     218    2080    2180
CTETRA      2423       1    4362    4374      95     113    5259    1918+
+           2517    2518    2473    2519
CTETRA      2424       1    2748    4362    4361    4373    2520    5224+
+           1545    1729    5257    5256
CTETRA      2425       1    2731    4389    4400    4401    1455    5334+
+           1456    2187    5336    5335
CTETRA      2426       1    2759    4363    4351     118    2184    5228+
+            686    2521    2522    2523
CTETRA      2427       1    2749    2750    2759    4363    3320    3347+
+           3346    2259    2258    2184
CTETRA      2428       1    2709    2710    2719    4411    3208    3235+
+           3234    2369    2489    1741
CTETRA      2429       1    6075    4479    2666    4491    1123    1100+
+           4080     649    5592    1126
CTETRA      2430       1    2718    2719    4398      96    3233    2037+
+           1393    2046    2043    1734
CTETRA      2431       1    2709    4423    4411     114    1963    5398+
+           2369    2370    2379    2371
CTETRA      2432       1    2697    2698    2707    4409    3174    3201+
+           3200    1406    2181    1158
CTETRA      2433       1    2784    4321    4320    4332     268    5109+
+            267     272    5142    5141
CTETRA      2434       1    2688    2698    4421    4422    3175    2412+
+           2424    2422    2381    5394
CTETRA      2435       1    2698    2708    4409    4410    3203    1159+
+           2181    2411    2367    5360
CTETRA      2436       1    2725    2735    4393     101    3280     294+
+           1856    1857    1888    1858
CTETRA      2437       1    2698    2699    2708    4410    3177    3204+
+           3203    2411    2365    2367
CTETRA      2438       1    2688    4434    4433      93    2201    5428+
+           2031    2034    1715    2035
CTETRA      2439       1    2672    2682    4461    4462    3131     803+
+            346    2481    2415    5508
CTETRA      2440       1    2658    4470    4469      78    2387    5530+
+           2385    2335    1351    2078
CTETRA      2441       1    2677    4433    4432    4444    2251    5425+
+           1696    1903    5458    5457
CTETRA      2442       1    2658    2668    2667    4457    3091    3090+
+           3089    2250    1866    2020
CTETRA      2443       1    2632    2642    2641    4509    3019    3018+
+           3017    1276    2341     387
CTETRA      2444       1    2667    2668    2677    4445    3090    3117+
+           3116    1872    1865    1873
CTETRA      2445       1    2678    4433    4445      93    2032    5460+
+           2203    2033    2035    2065
CTETRA      2446       1    2625    2626    2635      92    3001    3000+
+           2999    1704    1706    2041
CTETRA      2447       1    2808    2818    4277      97    3511     524+
+           1846    1780    1770    1772
CTETRA      2448       1    6003    2667    4456      65    2318    1874+
+           5755    1114    2417    2419
CTETRA      2449       1    2669    4470    4458      94    2011    5531+
+           1884    1879    1717    1716
CTETRA      2450       1    6072    6001    2677    2687    1697    1695+
+           3943    3944    1397    3144
CTETRA      2451       1    2739    4375    2749     113     905    2260+
+           3318    2524    2355    2354
CTETRA      2452       1    6071    6072    6000    4443    6088    1698+
+           2283    2485     295    5806
CTETRA      2453       1    2903    4199    4187      84    2311    4764+
+            863    2498    2510    2446
CTETRA      2454       1    2687    2688    4421    4433    3146    2424+
+           2425    2432    2031    5426
CTETRA      2455       1    2878    2888    4193    4194    3707     205+
+            204    1499     671    4748
CTETRA      2456       1    2733    4380    4391    4392     306    5309+
+           1699     307    5311    5310
CTETRA      2457       1    6003    2667    2677    4456    2318    3116+
+           2307    5755    1874    1875
CTETRA      2458       1    2748    2749    4350    4362    3317    2511+
+           2280    2520    2525    5225
CTETRA      2459       1    6066    5995    5994    4371    1236    6030+
+           2168     298    5817    5818
CTETRA      2460       1    2771    4341    4352    4353    2277    5198+
+           2079    1657    5200    5199
CTETRA      2461       1    2646    4491    4502    4503    1147    5624+
+           2373     142    5626    5625
CTETRA      2462       1    6075    6076    6005    4491    6084     559+
+            647     649     568    5797
CTETRA      2463       1    2655    2665    4478      64    3084    1964+
+           2024    2526    1965    1103
CTETRA      2464       1    4423    4435    4434      79    5432    5431+
+           5430    1968    1367    2064
CTETRA      2465       1    2704    4417    4416    4428     976    5381+
+            322     325    5414    5413
CTETRA      2466       1    4479    4491    4490      64    5592    5591+
+           5590    1102    2392    2391
CTETRA      2467       1    2666    4491    4479      64    1126    5592+
+           1100    1101    2392    1102
CTETRA      2468       1    5999    2697    2707    4408    2262    3200+
+           2263    5747    1407    2527
CTETRA      2469       1    2647    4469    2657    4480    1437    2382+
+           3060    1371    5560    2058
CTETRA      2470       1    6078    4515    2636    4527     123    1341+
+           4086    1152    5694    1153
CTETRA      2471       1    6119    2623    6120    4524    1313    1305+
+           6136    5783    1299    5782
CTETRA      2472       1    2764    2774    4344    4345    3389    1211+
+            285     284     282    5177
CTETRA      2473       1    2771    2772    4341    4353    3382    1929+
+           2277    1657    1394    5200
CTETRA      2474       1    6008    6144    6116      40    6044    6140+
+           5790     844     843    1805
CTETRA      2475       1    2722    4391    4402    4403     739    5340+
+            758     764    5342    5341
CTETRA      2476       1    2752    2753    4355    4367    3329     720+
+            726     311     310    5240
CTETRA      2477       1    2641    4497    4508    4509     806    5640+
+            384     387    5642    5641
CTETRA      2478       1    2888    4182    4193    4194     670    4747+
+            205     671    4749    4748
CTETRA      2479       1    2623    2624    2633      74    2993    2992+
+           2991    1300    2362    2483
CTETRA      2480       1    5916    5938    2957    2958    2600    2467+
+           4000    4001    2319    3902
CTETRA      2481       1    2715    4406    4405    4417     452    5350+
+           1376     962    5383    5382
CTETRA      2482       1    2888    2889    2898    4182    3709    3736+
+           3735     670     669     147
CTETRA      2483       1    2887    2888    2897    4193    3706    3733+
+           3732     206     205     211
CTETRA      2484       1    6075    6004    2657      65     648    2339+
+           3938    1113    1115    2479
CTETRA      2485       1    2718    2728    2727    4385    3259    3258+
+           3257    1390    1389    2072
CTETRA      2486       1    2737    2738    4373    4385    3286    1730+
+           2191    2073    1787    5290
CTETRA      2487       1    2675    4466    4465    4477    1087    5520+
+           2389    2132    5553    5552
CTETRA      2488       1    2737    4373    4372    4384    2191    5255+
+           1380     360    5288    5287
CTETRA      2489       1    2878    2879    4194    4206    3681    2268+
+           1499    1909     991    4783
CTETRA      2490       1    6056    5984    5985    4228    1534    6020+
+           2405    1553    5717    5718
CTETRA      2491       1    2828    2838    2837    4253    3567    3566+
+           3565     361    1638    2247
CTETRA      2492       1    6056    6057    5985    4263    6103     603+
+           2405    1540     600    5836
CTETRA      2493       1    2677    2678    4433    4445    3118    2032+
+           2251    1873    2203    5460
CTETRA      2494       1    2895    4214    4202      41    2027    4807+
+           1891     872     874     862
CTETRA      2495       1    2856    4251    4250    4262     679    4911+
+           1193     614    4944    4943
CTETRA      2496       1    2855    2856    2865    4250    3618    3645+
+           3644    1501    1193    1192
CTETRA      2497       1    2693    2703    2702    4427    3190    3189+
+           3188    1722     332     331
CTETRA      2498       1    2879    2889    4194      52    3710     672+
+           2268     992    2436    2528
CTETRA      2499       1    2626    2636    2635      92    3003    3002+
+           3000    1706    2529    2041
CTETRA      2500       1    6079    6008    6144    2617     841    6044+
+            840    3929    1150    2028
CTETRA      2501       1    5958    2620    6123    2621    4102     650+
+           5901    4099    2981    1258
CTETRA      2502       1    2710    4412    4411    4423    2364    5366+
+           2489    1962    5399    5398
CTETRA      2503       1    2901    2911    2910    4184    3772    3771+
+           3770     563    1947     190
CTETRA      2504       1    6059    2807    2817    4276    3969    3508+
+           3970     425     378     377
CTETRA      2505       1    6060    4276    5989    4288    1139    5726+
+           1140    1145    5015    5727
CTETRA      2506       1    6059    4264    5988    4276     424    5724+
+            256     425    4981    5725
CTETRA      2507       1    2698    2699    4410    4422    3177    2365+
+           2411    2381    2380    5395
CTETRA      2508       1    2838    4253    4254     108    1638    4918+
+            911    2303    2111    1985
CTETRA      2509       1    2695    4429    4441      90    1116    5450+
+           1119    1664    1660    1662
CTETRA      2510       1    2655    2656    2665      64    3058    3085+
+           3084    2526    2261    1965
CTETRA      2511       1    2625    2635    2634    4513    2999    2998+
+           2996    2040    2039    2358
CTETRA      2512       1    2891    2901    2900    4196    3744    3743+
+           3742     566     567     785
CTETRA      2513       1    2762    2763    2772    4343    3357    3384+
+           3383     476     475     731
CTETRA      2514       1    2685    4453    2695      51     989    2244+
+           3168     987     990     996
CTETRA      2515       1    2685    2695    4453    4454    3168    2244+
+            989    1175    1083    5486
CTETRA      2516       1    4430    4442    4441      90    5453    5452+
+           5451    1661    1665    1662
CTETRA      2517       1    2695    2705    2704    4429    3196    3195+
+           3194    1116     978     977
CTETRA      2518       1    2633    2634    2643    4512    2994    3023+
+           3022    1863    1556     877
CTETRA      2519       1    4440    4441    4452      51    5449    5482+
+           5481    1010    1244     995
CTETRA      2520       1    2642    4499    4510    4511    2384    5646+
+           2342    2149    5648    5647
CTETRA      2521       1    2684    4440    4452      51    1009    5481+
+            748     986    1010     995
CTETRA      2522       1    2633    2634    4512      74    2994    1556+
+           1863    2483    2363    1303
CTETRA      2523       1    2664    4488    4476      43     417    5583+
+            183    2151    1988    2128
CTETRA      2524       1    2716    4407    4406    4418    1860    5353+
+            451     454    5386    5385
CTETRA      2525       1    2661    4473    4472    4484     352    5539+
+            351     356    5572    5571
CTETRA      2526       1    2638    2648    2647    4493    3035    3034+
+           3033    2205    1432    1431
CTETRA      2527       1    2657    4457    4468    4469    2019    5526+
+           2021    2382    5528    5527
CTETRA      2528       1    2672    4451    4462    4463    2421    5510+
+           2481    1989    5512    5511
CTETRA      2529       1    2651    2661    2660    4484    3072    3071+
+           3070     357     356    1271
CTETRA      2530       1    2652    4475    4474    4486     804    5545+
+           2047     367    5578    5577
CTETRA      2531       1    6124    4520    2620      14    5774     652+
+            651    1310    1252     374
CTETRA      2532       1    2919    2929    2928    4146    3822    3821+
+           3820     622     621    1049
CTETRA      2533       1    6070    5998    4407    4419    2161    5811+
+           2252     447    5810    5388
CTETRA      2534       1    2631    2632    2641    4509    2986    3017+
+           3016     386    1276     387
CTETRA      2535       1    2662    4463    4462    4474    1253    5511+
+           2005    1254    5544    5543
CTETRA      2536       1    2692    4438    4437    4449    1725    5440+
+           1250     793    5473    5472
CTETRA      2537       1    2930    4148    4147    4159    2239    4618+
+           2238    1060    4651    4650
CTETRA      2538       1    6073    6003    2667    2677    1848    2318+
+           3941    3942    2307    3116
CTETRA      2539       1    2724    2734    4392    4393    3277     308+
+           2129    1746     293    5313
CTETRA      2540       1    6072    2696    6073    4455    4074    4075+
+           6087    2219    1177    1830
CTETRA      2541       1    2851    4245    2861      83    1905    1807+
+           3632    1795    1803    1445
CTETRA      2542       1    2710    2711    4412    4424    3211    1950+
+           2364    1231    1230    5401
CTETRA      2543       1    2672    4451    2682    4462    2421     791+
+           3131    2481    5510    2415
CTETRA      2544       1    2928    2929    4134    4146    3821     637+
+            626    1049     621    4613
CTETRA      2545       1    2692    2702    4437    4438    3187     344+
+           1250    1725     769    5440
CTETRA      2546       1    2620    2621    4508    4520    2981     487+
+            372     652     488    5673
CTETRA      2547       1    2929    2939    2938    4134    3850    3849+
+           3848     637     134     638
CTETRA      2548       1    2659    4471    4470     109    1677    5533+
+           2002    2000    2530    2001
CTETRA      2549       1    2659    4483    4471     109    1678    5568+
+           1677    2000    1999    2530
CTETRA      2550       1    2719    4386    4398      47    2256    5327+
+           2037    2038     925    1745
CTETRA      2551       1    4338    4339    4350      27    5159    5192+
+           5191    1075    1428    1076
CTETRA      2552       1    2828    2838    4253      46    3567    1638+
+            361     917     912     983
CTETRA      2553       1    2789    2799    4302    4303    3458    1951+
+           1649    2503    1952    5057
CTETRA      2554       1    2749    4363    4362     113    2259    5227+
+           2525    2354    2356    2518
CTETRA      2555       1    2629    2639    4506    4507    3010    1711+
+           2237    1348    1345    5635
CTETRA      2556       1    2657    4469    4468    4480    2382    5527+
+           2021    2058    5560    5559
CTETRA      2557       1    2693    2694    2703      44    3164    3191+
+           3190    1448    2143     887
CTETRA      2558       1    2750    2751    2760    4364    3323    3350+
+           3349     462    1749    2178
CTETRA      2559       1    2672    4462    4461    4473    2481    5508+
+            346     349    5541    5540
CTETRA      2560       1    2638    2639    4482    4494    3009    1688+
+           2209    1707    1681    5599
CTETRA      2561       1    2658    4470    2659      94    2387    2002+
+           3065    2386    1717    1878
CTETRA      2562       1    2691    4437    4436    4448     794    5437+
+            429     440    5470    5469
CTETRA      2563       1    2750    4364    4363    4375     462    5230+
+           2258     463    5263    5262
CTETRA      2564       1    2739    2740    4375      31    3292     915+
+            905    2227    2243     765
CTETRA      2565       1    2782    4330    4341    4342    1486    5167+
+           1930    1933    5169    5168
CTETRA      2566       1    2824    2825    2834    4273    3531    3558+
+           3557    1199     521    1204
CTETRA      2567       1    2795    4321    4322      61     271    5112+
+           2463    2012    2531    2344
CTETRA      2568       1    2798    4290    4301    4302    1847    5053+
+           1144    2272    5055    5054
CTETRA      2569       1    2788    2789    2798    4302    3429    3456+
+           3455    1650    1649    2272
CTETRA      2570       1    2778    2779    4314    4326    3401     492+
+            903     500     493    5123
CTETRA      2571       1    4314    4315    4326      20    5091    5124+
+           5123     495    2414     496
CTETRA      2572       1    2680    2681    4448    4460    3127     792+
+           2196    1663    1249    5503
CTETRA      2573       1    2644    2654    4500    4501    3053    1565+
+           1564    2127    2176    5619
CTETRA      2574       1    2842    2852    4257    4258    3607     534+
+           1451    1584     535    4930
CTETRA      2575       1    2674    4453    4464    4465    2388    5516+
+            155     725    5518    5517
CTETRA      2576       1    4501    4502    4513     106    5622    5655+
+           5654    2410    1979    2230
CTETRA      2577       1    2852    2862    4245    4246    3635     528+
+           1904     533     529    4896
CTETRA      2578       1    2674    4453    2684    4464    2388     747+
+           3137     155    5516     156
CTETRA      2579       1    2832    4270    4269    4281    1135    4964+
+           1586    2321    4997    4996
CTETRA      2580       1    2746    4371    4383      13    1850    5286+
+            942    1659     304     303
CTETRA      2581       1    2655    4490    4501    4502    2026    5621+
+           2177    2375    5623    5622
CTETRA      2582       1    2929    4147    2930      28    2233    2238+
+           3824    2234    2235     689
CTETRA      2583       1    2675    4466    4477    4478    1087    5553+
+           2132     169    5555    5554
CTETRA      2584       1    2823    2824    2833    4272    3528    3555+
+           3554    1911    1196    1198
CTETRA      2585       1    2634    2635    4501    4513    2998    2376+
+           2368    2358    2039    5654
CTETRA      2586       1    2694    2704    2703      44    3193    3192+
+           3191    2143     888     887
CTETRA      2587       1    2859    2860    4219    4231    3628    1631+
+           1597    1531    1636    4854
CTETRA      2588       1    2849    4231    2859    4242    1529    1531+
+           3626    1238    4886    1843
CTETRA      2589       1    2708    4409    4410      96    1159    5360+
+           2367    2045    1736    1735
CTETRA      2590       1    2838    2848    4241     108    3595    2105+
+           2290    2303    2112    2109
CTETRA      2591       1    2675    4465    4466     115    2389    5520+
+           1087    2393    2395    2396
CTETRA      2592       1    2675    2676    2685    4466    3114    3141+
+           3140    1087    1086    2357
CTETRA      2593       1    2645    2655    2654    4501    3056    3055+
+           3054    2377    2177    2176
CTETRA      2594       1    2930    2931    2940    4148    3827    3854+
+           3853    2239    1618    1826
CTETRA      2595       1    2862    4222    4233    4234     526    4861+
+           2320     527    4863    4862
CTETRA      2596       1    2924    4176    4164     102    1920    4699+
+            572    2506    1927    2223
CTETRA      2597       1    2650    4484    4495    4496    1270    5603+
+           1679     815    5605    5604
CTETRA      2598       1    6059    5987    5988    4264     615    6023+
+            256     424    5723    5724
CTETRA      2599       1    2662    4474    4473    4485    1254    5542+
+            366     409    5575    5574
CTETRA      2600       1    2893    2894    2903    4200    3724    3751+
+           3750    2167    2166    2313
CTETRA      2601       1    2897    2898    4181    4193    3734     655+
+            209     211     646    4746
CTETRA      2602       1    6058    5987    6059    4264     616     615+
+           6101    1793    5723     424
CTETRA      2603       1    2896    2906    4202    4203    3759    2017+
+           1332    1331    1792    4775
CTETRA      2604       1    6059    5987    4275    4287     615    5833+
+            617     257    5832    5014
CTETRA      2605       1    5980    2897    4168    4180     199     253+
+           5708    5709     212    4709
CTETRA      2606       1    2905    2915    4189    4190    3784    1609+
+           1614    2331    2330    4738
CTETRA      2607       1    6123    2621    4520    4521    1258     488+
+           5775    5776    1350    5675
CTETRA      2608       1    2908    4158    4169    4170     153    4679+
+            173     146    4681    4680
CTETRA      2609       1    2641    2642    4497    4509    3018    2154+
+            806     387    2341    5642
CTETRA      2610       1    2898    4170    4181    4182     144    4713+
+            655     147    4715    4714
CTETRA      2611       1    2859    4219    4218    4230    1597    4819+
+           1595    1037    4852    4851
CTETRA      2612       1    2882    2892    4197    4198    3719    1800+
+           1798    1506    1801    4760
CTETRA      2613       1    2931    2932    4149    4161    3830    2086+
+           1619    1827    2452    4656
CTETRA      2614       1    2912    4162    4161    4173    1018    4658+
+           1031     933    4691    4690
CTETRA      2615       1    2932    2942    2941    4149    3859    3858+
+           3857    2086    1621    1617
CTETRA      2616       1    2942    4138    4137    4149    1943    4590+
+           1620    1621    4623    4622
CTETRA      2617       1    6004    4456    4468      65    5756    5525+
+           5757    1115    2419    2418
CTETRA      2618       1    2837    4241    4252    4253    2289    4914+
+           2245    2247    4916    4915
CTETRA      2619       1    2814    2824    2823    4284    3529    3528+
+           3527     975    1440    1910
CTETRA      2620       1    4242    4254    4253     108    4919    4918+
+           4917    2110    1985    2111
CTETRA      2621       1    2861    2862    4233    4245    3634    2320+
+           1444    1807     528    4894
CTETRA      2622       1    2834    2835    2844    4261    3559    3586+
+           3585    1607     682    1608
CTETRA      2623       1    2952    4114    4125    4126     219    4549+
+            217    1624    4552    4551
CTETRA      2624       1    2933    2934    2943    4152    3836    3863+
+           3862    2458    1522    2136
CTETRA      2625       1    2922    4151    2932    4162    2142    2461+
+           3831    1032    4660    2454
CTETRA      2626       1    2839    4254    2849      71     910    1845+
+           3598    1844    1983    1241
CTETRA      2627       1    2948    2958    4109    4110    3903    1164+
+           1163    1127    1129    4534
CTETRA      2628       1    4242      71    4254     108    1242    1983+
+           4919    2110    1986    1985
CTETRA      2629       1    2848      71    4242     108    1240    1242+
+           1239    2112    1986    2110
CTETRA      2630       1    2829    2830    2839    4267    3544    3571+
+           3570    1337    1643     979
CTETRA      2631       1    5938    4108    2957    4109    5882    2350+
+           2467    5880    4530    1165
CTETRA      2632       1    4418    4419    4430      99    5387    5420+
+           5419    2404    1814    2401
CTETRA      2633       1    6046    2947    4108    4120    3996    2253+
+            408    1088    1090    4528
CTETRA      2634       1    2827    4253    4252    4264     362    4915+
+           2246    1794    4948    4947
CTETRA      2635       1    2839    2849    4254    4255    3598    1845+
+            910     823     825    4921
CTETRA      2636       1    6048    5977    4155    4167    1687    5853+
+           1185    1187    5852    4674
CTETRA      2637       1    6046    4108    5975    4120     408    5698+
+           2152    1088    4528    5699
CTETRA      2638       1    6056    5985    6057    4240    2405     603+
+           6103     612    5719     611
CTETRA      2639       1    6058    5986    5987    4252    2507    6022+
+            616    2336    5721    5722
CTETRA      2640       1    6047    5976    5975    4143    1284    6011+
+           1282    1283    5855    5856
CTETRA      2641       1    2655    2656    4490    4502    3058    2390+
+           2026    2375    2374    5623
CTETRA      2642       1    2707    2708    2717      68    3202    3229+
+           3228    1160    1162    2532
CTETRA      2643       1    6045    2947    2957    4108    3997    3900+
+           3998     407    2253    2350
CTETRA      2644       1    6046    5974    5975    4108     406    6010+
+           2152     408    5696    5698
CTETRA      2645       1    6057    5986    6058    4252     602    2507+
+           6102    2291    5721    2336
CTETRA      2646       1    2889    4183    4182    4194     783    4717+
+            669     672    4750    4749
CTETRA      2647       1    2646    4491    2656    4502    1147     569+
+           3059    2373    5624    2374
CTETRA      2648       1    2858    2859    4218    4230    3625    1595+
+           1594    1038    1037    4851
CTETRA      2649       1    2647    4492    4480      23    1481    5593+
+           1371    1372    1482    1355
CTETRA      2650       1    6054    4216    5983       9     227    5715+
+           1315     228     230    1490
CTETRA      2651       1    2687    2697    4420    4421    3172    1402+
+           1398    2425    2533    5391
CTETRA      2652       1    6053    2886    6054    4227    4036    4037+
+           6106    2018    1573    2015
CTETRA      2653       1    6058    2827    4252    4264    3972    2246+
+           2336    1793    1794    4947
CTETRA      2654       1    2864    2865    2874    4237    3643    3670+
+           3669     546     545    1581
CTETRA      2655       1    2903    4188    4199    4200     864    4765+
+           2311    2313    4767    4766
CTETRA      2656       1    6006    4480    4492      23    5760    5593+
+           5761    1356    1355    1482
CTETRA      2657       1    5938    2957    2958    4109    2467    3902+
+           2319    5880    1165    1164
CTETRA      2658       1    5937    5938    2958    4109    5942    2319+
+           1854    5881    5880    1164
CTETRA      2659       1    6074    2686    2676    4467    4077    3143+
+           4078    1110    1833    2023
CTETRA      2660       1    2706    2716    2715      99    3227    3226+
+           3225    2267    1812    2534
CTETRA      2661       1    2785    2795    4321    4322    3448     271+
+            270    2254    2463    5112
CTETRA      2662       1    6063    2767    2777    4324    3961    3396+
+           3962    2089     836    1757
CTETRA      2663       1    2635    2636    4514      92    3002    1342+
+           2229    2041    2529    2535
CTETRA      2664       1    5999    6000    2697    4408    6035    1401+
+           2262    5747    5748    1407
CTETRA      2665       1    6000    2697    4408    4420    1401    1407+
+           5748    5749    1402    5389
CTETRA      2666       1    6062    5991    6063    4312    1514    1513+
+           6097    2095    5731    2088
CTETRA      2667       1    6076    2647    6005      23    3936    1124+
+            559     556    1372     561
CTETRA      2668       1    4418    4430      50      99    5419    2014+
+           2013    2404    2401    2488
CTETRA      2669       1    2634    4501    4512    4513    2368    5652+
+           1556    2358    5654    5653
CTETRA      2670       1    6057    6058    5986    4275    6102    2507+
+            602     609     610    5834
CTETRA      2671       1    2965    4118    4117    4129    1374    4566+
+           1528    2006    4565    4564
CTETRA      2672       1    2717    2727    4384    4385    3256     359+
+            388    2074    2072    5289
CTETRA      2673       1    2843    4259    4260      32     541    4936+
+           2175    2172     776    1590
CTETRA      2674       1    5910    4115    2963      81    1825    1200+
+           4012    1816    1387    2536
CTETRA      2675       1    2705    4430    2706      50    1992    2399+
+           3198     964    2014    2487
CTETRA      2676       1    2835    4262    4261    4273     683    4942+
+            682     520    4975    4974
CTETRA      2677       1    2964    4117    4116    4128    1821    4562+
+           1996    1817    4561    4560
CTETRA      2678       1    2955    2965    2964    4129    3924    3923+
+           3922    2457    2006    1820
CTETRA      2679       1    5908    5929    2965    2966    2610    1373+
+           4016    4017    1370    3926
CTETRA      2680       1    2821    2822    2831    4281    3522    3549+
+           3548    2113    2322    2501
CTETRA      2681       1    2964    4117    4128    4129    1821    4561+
+           1817    1820    4564    4563
CTETRA      2682       1    4127    4128    4139     112    4559    4595+
+           4594    2300    2537    2301
CTETRA      2683       1    6070    5999    5998    4419    1379    6034+
+           2161     447    5809    5810
CTETRA      2684       1    4151    4152    4163      85    4630    4663+
+           4662    2140    2460    2141
CTETRA      2685       1    2823    2824    4272    4284    3528    1196+
+           1911    1910    1440    5005
CTETRA      2686       1    2934    2944    2943    4152    3865    3864+
+           3863    1522    1518    2136
CTETRA      2687       1    4322    4323    4334      55    5115    5148+
+           5147    1023    1022    1754
CTETRA      2688       1    2785    4322    4334      55    2254    5147+
+            482    1753    1023    1754
CTETRA      2689       1    2737      86    4372      87    2407    2538+
+           1380    2192    2539    2540
CTETRA      2690       1    2924    4164    2934      85     572     571+
+           3837    1523    2456    1524
CTETRA      2691       1    2737    2738    2747      87    3286    3313+
+           3312    2192    2194    1546
CTETRA      2692       1    2913    4176    2914     102    1924    1922+
+           3780    1925    1927    2505
CTETRA      2693       1    2894    2904    2903    4200    3753    3752+
+           3751    2166    2333    2313
CTETRA      2694       1    2893    2903    2902      84    3750    3749+
+           3748    2484    2498    1510
CTETRA      2695       1    5911    5912    2962    4114    5920    4009+
+           4010    1691    1692     220
CTETRA      2696       1    2952    4115    4126    4127     505    4553+
+           1624    1625    4556    4555
CTETRA      2697       1    2942    4127    2952    4138    2462    1625+
+           3887    1943    4592    1626
CTETRA      2698       1    2697    2698    4409    4421    3174    2181+
+           1406    2533    2412    5392
CTETRA      2699       1    2892    4199    2893      84    2468    2312+
+           3721    1509    2510    2484
CTETRA      2700       1    5910    5911    2963    4115    5925    4011+
+           4012    1825    1693    1200
CTETRA      2701       1    2707    4408    4409      68    2527    5357+
+           1158    1160    1405    1161
CTETRA      2702       1    2738    2748    2747      87    3315    3314+
+           3313    2194    1547    1546
CTETRA      2703       1    2884    2894    4200    4201    3725    2166+
+           1808     860     882    4769
CTETRA      2704       1    4361    4372      86      87    5254    2538+
+           1543    1548    2540    2539
CTETRA      2705       1    2710    2720    4411    4412    3237    1453+
+           2489    2364    1454    5366
CTETRA      2706       1    2882    2892    2891    4197    3719    3718+
+           3717    1798    1800    1799
CTETRA      2707       1    2963    4116    4115      70    2541    4558+
+           1200    1202    2007    1203
CTETRA      2708       1    2872    2882    4209    4210    3691    1507+
+           2317    2499    1508    4794
CTETRA      2709       1    2872    4211    4210    4222    2448    4797+
+           2499    1443    4830    4829
CTETRA      2710       1    2872    2873    4211    4223    3665    1171+
+           2448    2126    1469    4832
CTETRA      2711       1    2963    4115    4116      81    1200    4558+
+           2541    2536    1387    1386
CTETRA      2712       1    2832    2842    2841    4269    3579    3578+
+           3577    1586    1585    1065
CTETRA      2713       1    2947    2948    4109    4121    3874    1163+
+           2185    1091     370    4532
CTETRA      2714       1    2737    2747      86      87    3312    1542+
+           2407    2192    1546    2539
CTETRA      2715       1    2841    2851    2850    4256    3604    3603+
+           3602    1460    1459    2213
CTETRA      2716       1    6045    6141    5907      75    6115    5923+
+           4019    1721    1320    1322
CTETRA      2717       1    2831    2841    4268    4269    3576    1064+
+           2439    2442    1065    4961
CTETRA      2718       1    6047    2937    4120    4132    3994    1089+
+           1288    1168    1167    4573
CTETRA      2719       1    2841    2842    4257    4269    3578    1451+
+           1063    1065    1585    4962
CTETRA      2720       1    2802    2812    2811    4305    3495    3494+
+           3493    2057     957    1435
CTETRA      2721       1    2947    2957    4108    4109    3900    2350+
+           2253    2185    1165    4530
CTETRA      2722       1    2744    4368    4369      11     287    5245+
+           2441     398     245     244
CTETRA      2723       1    2804    2805    4309      29    3475     693+
+            714    2486    2542     699
CTETRA      2724       1    2799    2809    4290     104    3486    2434+
+           1849    1953    2502    2430
CTETRA      2725       1    4502    4503    4514      91    5625    5658+
+           5657    1981    2036    1702
CTETRA      2726       1    6141    5916    5939    2957    5917    2596+
+           2595    3999    4000    2349
CTETRA      2727       1    2812    4294    4293    4305     956    5032+
+           1761     957    5065    5064
CTETRA      2728       1    2789    4303    4314    4315    2503    5090+
+           1419    2426    5092    5091
CTETRA      2729       1    2774    4333    4332    4344     274    5143+
+            273    1211    5176    5175
CTETRA      2730       1    6079    6144    5962    2617     840    5897+
+           3928    3929    2028    3930
CTETRA      2731       1    6079    2636    2626    4527    4087    3003+
+           4088    1154    1153     848
CTETRA      2732       1    6076    2637    2647      23    3935    3032+
+           3936     556     558    1372
CTETRA      2733       1    2655    4490    4489    4501    2026    5588+
+           2025    2177    5621    5620
CTETRA      2734       1    2656    4491    4490    4502     569    5591+
+           2390    2374    5624    5623
CTETRA      2735       1    2763    2764    4344    4356    3360     285+
+            719     314     286    5209
CTETRA      2736       1    2645    2655    4501    4502    3056    2177+
+           2377    1978    2375    5622
CTETRA      2737       1    6077    4491    2646    4503     570    1147+
+           4084     141    5626     142
CTETRA      2738       1    2635    2645    4501     106    3028    2377+
+           2376    1969    1971    2410
CTETRA      2739       1    2770    2780    2779    4339    3405    3404+
+           3403    1425     498    1575
CTETRA      2740       1    2758    2759    2768    4338    3345    3372+
+           3371     946     945    1901
CTETRA      2741       1    2749    4363    2759     118    2259    2184+
+           3346    2543    2522    2521
CTETRA      2742       1    4502    4514     106      91    5657    2231+
+           1979    1981    1702    1982
CTETRA      2743       1    2759    4351    4350     118     686    5193+
+            948    2521    2523    2544
CTETRA      2744       1    6063    6064    5992    4335    6096    2266+
+           2265     319     316    5823
CTETRA      2745       1    2696    4442    4443      56    1081    5455+
+            297    1040    1229    1041
CTETRA      2746       1    2755    4358    4369    4370    1751    5247+
+           1752    1027    5249    5248
CTETRA      2747       1    6071    4431    2706    4443    2402    1217+
+           4072    2485    5456     296
CTETRA      2748       1    2688    2698    2697    4421    3175    3174+
+           3173    2424    2412    2533
CTETRA      2749       1    2725    4405    4406     101    1377    5350+
+            640    1857    1859    1887
CTETRA      2750       1    2719    4399    4398    4410    1739    5329+
+           2037    1740    5362    5361
CTETRA      2751       1    6071    2706    6072    4443    4072    4073+
+           6088    2485     296     295
CTETRA      2752       1    6074    4467    2676    4479    1110    2023+
+           4078    1111    5558    1908
CTETRA      2753       1    2682    4438    4449    4450     442    5473+
+            789     443    5475    5474
CTETRA      2754       1    2707    4396    2717      67    2466    2075+
+           3228    2431    1156    2163
CTETRA      2755       1    2677    2687    4432    4433    3144    1399+
+           1696    2251    2432    5425
CTETRA      2756       1    4362    4374    4373      95    5259    5258+
+           5257    2517    1918    1733
CTETRA      2757       1    6072    6001    6073    2677    1697    2218+
+           6087    3943    1695    3942
CTETRA      2758       1    2697    2707    4408    4409    3200    2527+
+           1407    1406    1158    5357
CTETRA      2759       1    2747    4349    4360    4361    1710    5220+
+           1235    1541    5222    5221
CTETRA      2760       1    2757    4337    4348    4349    2186    5186+
+           2165    2409    5188    5187
CTETRA      2761       1    2718    2719    2728    4386    3233    3260+
+           3259    1391    2256    1381
CTETRA      2762       1    2748    4373    4361      87    1729    5256+
+           1545    1547    2193    1548
CTETRA      2763       1    2748    4362      95     113    2520    2517+
+           1732    2545    2518    2519
CTETRA      2764       1    2717    2718    2727    4385    3230    3257+
+           3256    2074    1390    2072
CTETRA      2765       1    2708    2718    2717      68    3231    3230+
+           3229    1162    2255    2532
CTETRA      2766       1    2636     106    4514      91    1970    2231+
+           1342    1701    1982    1702
CTETRA      2767       1    2698    4410    4409    4421    2411    5360+
+           2181    2412    5393    5392
CTETRA      2768       1    2699    2709    4410     114    3206    2366+
+           2365    2378    2370    2372
CTETRA      2769       1    2747    4361      86      87    1541    1543+
+           1542    1546    1548    2539
CTETRA      2770       1    2748    4350    4361    4362    2280    5223+
+           1545    2520    5225    5224
CTETRA      2771       1    2719    2729    2728    4386    3262    3261+
+           3260    2256     922    1381
CTETRA      2772       1    2919    4146    4158      25     622    4647+
+           2308     623     625    2309
CTETRA      2773       1    2748    4362    4373      95    2520    5257+
+           1729    1732    2517    1733
CTETRA      2774       1    2711    2712    2721    4413    3214    3241+
+           3240    1243     761     762
CTETRA      2775       1    2728    2738    4385      80    3287    1787+
+           1389    1382    1788    1785
CTETRA      2776       1    2662    4462    2672    4473    2005    2481+
+           3103     366    5541     349
CTETRA      2777       1    2718    4398    4409      96    1393    5359+
+           2044    2046    1734    1736
CTETRA      2778       1    2688    2689    2698    4422    3149    3176+
+           3175    2422    2061    2381
CTETRA      2779       1    2738    4373    2748      87    1730    1729+
+           3315    2194    2193    1547
CTETRA      2780       1    2728    2729    2738      80    3261    3288+
+           3287    1382    1384    1788
CTETRA      2781       1    2749    2759    2758    4350    3346    3345+
+           3344    2511     948     947
CTETRA      2782       1    2635    4514    2636     106    2229    1342+
+           3002    1969    2231    1970
CTETRA      2783       1    2687    2688    2697    4421    3146    3173+
+           3172    2425    2424    2533
CTETRA      2784       1    5999    2707    4396    4408    2263    2466+
+           5746    5747    2527    5355
CTETRA      2785       1    2790    4315    4316      82    2271    5094+
+           2270    2435    2512    2274
CTETRA      2786       1    2769    2770    2779    4339    3376    3403+
+           3402    1426    1425    1575
CTETRA      2787       1    4291    4292    4303     111    5026    5059+
+           5058    2496    2119    2269
CTETRA      2788       1    2777    2778    4313    4325    3398    1645+
+           2099    1758     940    5120
CTETRA      2789       1    2800     104    4303     111    2546    1940+
+           1421    2433    2547    2269
CTETRA      2790       1    2918    2928    4145    4146    3819     628+
+           1056     599    1049    4612
CTETRA      2791       1    2800    2810    2809     111    3489    3488+
+           3487    2433    2117    2548
CTETRA      2792       1    6070    5999    6071    2697    1379    2282+
+           6089    3947    2262    3946
CTETRA      2793       1    2800    2801    2810    4304    3463    3490+
+           3489    1420    1783    2115
CTETRA      2794       1    2790    2791    4316    4328    3435    2056+
+           2270    2122    2050    5129
CTETRA      2795       1    4291    4303     104     111    5058    1940+
+           1939    2496    2269    2547
CTETRA      2796       1    2780    2781    2790    4328    3407    3434+
+           3433     497    2199    2122
CTETRA      2797       1    2810    2820    2819    4291    3517    3516+
+           3515    2315    2284    1498
CTETRA      2798       1    2822    2823    2832    4271    3525    3552+
+           3551    1919    1915    1917
CTETRA      2799       1    6058    6059    2817    4264    6101    3970+
+           3971    1793     424     423
CTETRA      2800       1    2918    2919    4146    4158    3793     622+
+            599     154    2308    4647
CTETRA      2801       1    2832    4259    4270    4271    1134    4966+
+           1135    1917    4968    4967
CTETRA      2802       1    2820    2830    4279    4280    3545    1492+
+           1491    2326    1495    4992
CTETRA      2803       1    2799    4303    2800     104    1952    1421+
+           3460    1953    1940    2546
CTETRA      2804       1    2831    2832    4269    4281    3550    1586+
+           2442    2501    2321    4996
CTETRA      2805       1    2820    2821    2830    4280    3519    3546+
+           3545    2326    2325    1495
CTETRA      2806       1    2639    2649    2648    4482    3038    3037+
+           3036    1688    2340    2210
CTETRA      2807       1    2852    2853    2862    4235    3609    3636+
+           3635    2216    2070     537
CTETRA      2808       1    2840    2841    4256    4268    3575    1460+
+           1195    2208    1064    4959
CTETRA      2809       1    6003    4456    6004      65    5755    5756+
+           6039    1114    2419    1115
CTETRA      2810       1    6071    6000    6072    2687    2283    1698+
+           6088    3945    1400    3944
CTETRA      2811       1    2831    4269    4268    4280    2442    4961+
+           2439    2440    4994    4993
CTETRA      2812       1    2832    4270    4281    4282    1135    4997+
+           2321    2323    4999    4998
CTETRA      2813       1    2861    4221    4220    4232    2292    4825+
+            514     517    4858    4857
CTETRA      2814       1    2781    2791    2790    4328    3436    3435+
+           3434    2199    2050    2122
CTETRA      2815       1    2790    4316    4327    4328    2270    5127+
+           2121    2122    5129    5128
CTETRA      2816       1    5984    4216    4228       9    5716    4845+
+           5717     234     230     235
CTETRA      2817       1    2929    2939    4135      28    3850     717+
+            832    2234     691     718
CTETRA      2818       1    2676    2686    2685    4466    3143    3142+
+           3141    1086    2220    2357
CTETRA      2819       1    2637    2647    4492    4493    3032    1481+
+           1480    2214    1431    5595
CTETRA      2820       1    6077    6005    4491    4503     560    5797+
+            570     141    5796    5626
CTETRA      2821       1    4503    4515    4514      91    5660    5659+
+           5658    2036    1703    1702
CTETRA      2822       1    2871    4209    2881    4220    2316    2278+
+           3688     518    4824    2447
CTETRA      2823       1    2872    2882    2881    4209    3691    3690+
+           3689    2317    1507    2278
CTETRA      2824       1    2851    2852    2861    4245    3606    3633+
+           3632    1905    1904    1807
CTETRA      2825       1    6052    2896    6053    4215    4034    4035+
+           6107    1335    1336    1822
CTETRA      2826       1    2901    4185    2902      48     564     899+
+           3746    1537    1538    1504
CTETRA      2827       1    6077    6006    6005    4503     120    6041+
+            560     141    5795    5796
CTETRA      2828       1    2626    4526    2636      92     845    1343+
+           3003    1706    1705    2529
CTETRA      2829       1    2903    4188    4187    4199     864    4732+
+            863    2311    4765    4764
CTETRA      2830       1    2634    2635    2644    4501    2998    3026+
+           3025    2368    2376    2127
CTETRA      2831       1    2792    2793    2802    4307    3441    3468+
+           3467    1487    1639    1764
CTETRA      2832       1    2922    2932    4161    4162    3831    2452+
+           1030    1032    2454    4658
CTETRA      2833       1    2940    2941    2950     103    3855    3882+
+           3881    1938    2081    1935
CTETRA      2834       1    2913    4176    4187      42    1924    4731+
+            955    2449     890     866
CTETRA      2835       1    2929    2930    2939      28    3824    3851+
+           3850    2234     689     691
CTETRA      2836       1    2930    4147      66      28    2238    2240+
+           1120     689    2235    1122
CTETRA      2837       1    2953    4127    4128      70    2302    4559+
+           2549    1201    2008    2550
CTETRA      2838       1    2943    2944    4140    4152    3864    1517+
+           2133    2136    1518    4631
CTETRA      2839       1    2961    4114    4113    4125     221    4550+
+            555     128    4549    4548
CTETRA      2840       1    2953    4128    4127     112    2549    4559+
+           2302    2551    2537    2300
CTETRA      2841       1    6065    2757    4336    4348    3958    2195+
+           2158    2164    2165    5185
CTETRA      2842       1    6065    4336    5994    4348    2158    5736+
+           1852    2164    5185    5737
CTETRA      2843       1    2798    4302    4301    4313    2272    5054+
+           1144    1418    5087    5086
CTETRA      2844       1    2758    2768    4337    4338    3371     951+
+            952     946    1901    5156
CTETRA      2845       1    2926    2936    2935    4166    3843    3842+
+           3841    1569    1568    2148
CTETRA      2846       1    2777    2778    2787    4313    3398    3425+
+           3424    2099    1645    1867
CTETRA      2847       1    5980    4180    5981       8    5709    5710+
+           6016     203     214     674
CTETRA      2848       1    2935    2936    2945    4142    3842    3869+
+           3868     575    2159    2146
CTETRA      2849       1    2697    4409    4420    4421    1406    5390+
+           1402    2533    5392    5391
CTETRA      2850       1    2892    4186    4185    4197     901    4726+
+            900    1800    4759    4758
CTETRA      2851       1    4174    4186    4185      48    4727    4726+
+           4725     935    1034    1538
CTETRA      2852       1    6069    2726    6070    4407    4068    4069+
+           6090    1074     892    2252
CTETRA      2853       1    6077    6006    6007    2637     120    6042+
+            119    3934    1502     419
CTETRA      2854       1    6127    2617    4516    4517    1700    1339+
+           5767    5768    1340    5663
CTETRA      2855       1    6144    6127    2617    4516    6128    1700+
+           2028    5766    5767    1339
CTETRA      2856       1    2874    2875    4225    4237    3671     542+
+           1789    1581    1051    4872
CTETRA      2857       1    2782    4319    2792    4330    1483    1485+
+           3439    1486    5136    1760
CTETRA      2858       1    6006    6007    2637    4492    6042     419+
+           1502    5761    5762    1480
CTETRA      2859       1    2627    4493    2637    4504    2400    2214+
+           3004    2359    5628    2360
CTETRA      2860       1    2796    4322    2806      61    1020    2343+
+           3479    1069    2344    1070
CTETRA      2861       1    2824    4273    4284    4285    1199    5006+
+           1440     620    5008    5007
CTETRA      2862       1    2805    2815    4297    4298    3504     707+
+            692     578     591    5044
CTETRA      2863       1    5956    2623    2622      73    4095    2989+
+           4098    1306    1308    1264
CTETRA      2864       1    4511    4512    4523      74    5650    5683+
+           5682    2482    1303    1301
CTETRA      2865       1    2634    4513    4512    4524    2358    5653+
+           1556    2361    5686    5685
CTETRA      2866       1    2624    4513    2634    4524    2236    2358+
+           2995    1551    5686    2361
CTETRA      2867       1    2943    4139    4140     112    2134    4596+
+           2133    2299    2301    2552
CTETRA      2868       1    4135      66    4147      28    1151    2240+
+           4616     718    1122    2235
CTETRA      2869       1    2622    4511    4522    4523    1267    5680+
+           1263    1262    5682    5681
CTETRA      2870       1    2943    2953    4127     112    3890    2302+
+           2298    2299    2551    2300
CTETRA      2871       1    2660    4472    4483    4484    1245    5569+
+           1273    1271    5571    5570
CTETRA      2872       1    2941    2951    2950     103    3884    3883+
+           3882    2081    1936    1935
CTETRA      2873       1    2949    2950    2959    4111    3880    3907+
+           3906     124    1107     383
CTETRA      2874       1    2659    2669    4470    4471    3094    2011+
+           2002    1677    1256    5533
CTETRA      2875       1    2628    4505    4506      38    2398    5632+
+            851    2207     831    2204
CTETRA      2876       1    2630    2640    2639    4507    3013    3012+
+           3011     859     858    1345
CTETRA      2877       1    2919    2920    2929    4159    3796    3823+
+           3822     705     711    1061
CTETRA      2878       1    2931    4149    4148    4160    1619    4621+
+           1618     139    4654    4653
CTETRA      2879       1    4475    4476    4487      43    5548    5581+
+           5580     870    2128     871
CTETRA      2880       1    2795    2805    2804      29    3476    3475+
+           3474    2328    2542    2486
CTETRA      2881       1    2695    4453    4441      51    2244    5484+
+           1119     996     990    1244
CTETRA      2882       1    2805      61    4310      29    1071    2345+
+            579    2542    2553    2554
CTETRA      2883       1    2853    4247    4248      53    2171    4902+
+           2169    2071     999     998
CTETRA      2884       1    2877    4193    4204    4205     207    4778+
+            216     198    4780    4779
CTETRA      2885       1    6052    6053    2877    4192    6107    3982+
+           3983     222     224     215
CTETRA      2886       1    2879    4194    4206      52    2268    4783+
+            991     992    2528     993
CTETRA      2887       1    6053    5982    5981    4215     395    6017+
+            394    1822    5843    5844
CTETRA      2888       1    6050    5980    2897    4168     259     199+
+           3987     252    5708     253
CTETRA      2889       1    2770    2771    4340    4352    3379    2276+
+           2197    2180    2079    5197
CTETRA      2890       1    2692    4427    2702    4438    1724     331+
+           3187    1725    5442     769
CTETRA      2891       1    5980    2897    4180       8     199     212+
+           5709     203     202     214
CTETRA      2892       1    2795      61    2805      29    2012    1071+
+           3476    2328    2553    2542
CTETRA      2893       1    6064    5993    5992    4347    1473    6028+
+           2266    1474    5821    5822
CTETRA      2894       1    2749    2759    4350     118    3346     948+
+           2511    2543    2521    2544
CTETRA      2895       1    2795    4321      61      29     271    2531+
+           2012    2328     700    2553
CTETRA      2896       1    2772    2782    4341    4342    3411    1930+
+           1929    1932    1933    5168
CTETRA      2897       1    2819    2829    2828      89    3542    3541+
+           3540    1773    1640    1955
CTETRA      2898       1    2770    2771    2780    4340    3379    3406+
+           3405    2197    2276     499
CTETRA      2899       1    4310      61    4321      29    2345    2531+
+           5111    2554    2553     700
CTETRA      2900       1    6053    2896    2886    4215    4035    3731+
+           4036    1822    1336    1005
CTETRA      2901       1    2894    2895    2904    4201    3727    3754+
+           3753     882    1895    1893
CTETRA      2902       1    2723    4392    4403    4404    2408    5343+
+            749     751    5345    5344
CTETRA      2903       1    2783    4320    4331    4332    1207    5139+
+           1215    1214    5141    5140
CTETRA      2904       1    2873    4224    4223      54    1470    4834+
+           1469    1477    1004    1478
CTETRA      2905       1    2800    4304    2810     111    1420    2115+
+           3489    2433    2118    2117
CTETRA      2906       1    2798    2799    4290    4302    3457    1849+
+           1847    2272    1951    5055
CTETRA      2907       1    2861    2871    4220    4221    3660     518+
+            514    2292    2293    4825
CTETRA      2908       1    2852    2862    2861    4245    3635    3634+
+           3633    1904     528    1807
CTETRA      2909       1    2872    4210    4221    4222    2499    4827+
+           1441    1443    4829    4828
CTETRA      2910       1    2937    4132    4133      63    1167    4575+
+            634    2305    2555    1098
CTETRA      2911       1    2839    4255    4266    4267     823    4954+
+            919     979    4956    4955
CTETRA      2912       1    2892    2902    2901    4185    3747    3746+
+           3745     900     899     564
CTETRA      2913       1    2932    4151    4150    4162    2461    4627+
+           2444    2454    4660    4659
CTETRA      2914       1    2849    4231    4242    4243    1529    4886+
+           1238    1036    4888    4887
CTETRA      2915       1    2808    2818    2817    4277    3511    3510+
+           3509    1846     524     380
CTETRA      2916       1    2803    4296    4307    4308     971    5071+
+           1763    1205    5073    5072
CTETRA      2917       1    2812    2822    2821    4293    3523    3522+
+           3521    1761    2347    1762
CTETRA      2918       1    2790    2791    2800    4316    3435    3462+
+           3461    2270    2056    2273
CTETRA      2919       1    2831    4269    4280    4281    2442    4994+
+           2440    2501    4996    4995
CTETRA      2920       1    2833    2834    2843    4260    3556    3583+
+           3582    2174    1606    2175
CTETRA      2921       1    2664    2674    4476    4477    3109     184+
+            183     416    1667    5551
CTETRA      2922       1    2765    4346    4357    4358     595    5213+
+           1409     608    5215    5214
CTETRA      2923       1    2766    4359    2776       3     606    1851+
+           3395     162     607     163
CTETRA      2924       1    4464    4476    4475       6    5549    5548+
+           5547     763     185     738
CTETRA      2925       1    2673    2683    4451       2    3134     755+
+           2383     187     188     757
CTETRA      2926       1    2686    4455    4466    4467    1831    5522+
+           2220    1833    5524    5523
CTETRA      2927       1    6048    6049    5977    4167    6111    1644+
+           1687    1187     399    5852
CTETRA      2928       1    2806    4311    2816      24    2123     695+
+           3507     584    1412    2202
CTETRA      2929       1    2777    4313    4312    4324    2099    5085+
+           2087    1757    5118    5117
CTETRA      2930       1    2887    4192    2897       8     223     210+
+           3732    2556     213     202
CTETRA      2931       1    6052    4192    2887       8     222     223+
+           3984     397     213    2556
CTETRA      2932       1    6051    6052    2887       8    6108    3984+
+           3985     201     397    2556
CTETRA      2933       1    6051    2887    2897       8    3985    3732+
+           3986     201    2556     202
CTETRA      2934       1    6125    4518    2619      19    5771    1291+
+            421     504    2413     490
CTETRA      2935       1    2618    2619    4518      19    2973    1291+
+           1297     491     490    2413
CTETRA      2936       1    2618    4518    4517      19    1297    5666+
+           1344     491    2413    2030
CTETRA      2937       1    6125    6126    4518      19    6130    5770+
+           5771     504    2215    2413
CTETRA      2938       1    2653    2663    4475      43    3078     737+
+            868     869    2249     870
CTETRA      2939       1    2663    4476    4475      43     721    5548+
+            737    2249    2128     870
CTETRA      2940       1    2663    2664    4476      43    3080     183+
+            721    2249    2151    2128
CTETRA      2941       1    2653    2654    2663      43    3052    3079+
+           3078     869    2150    2249
CTETRA      2942       1    2864    4236    2874      54    1466    1000+
+           3669    2557    1003    1002
CTETRA      2943       1    2863    4236    2864      54    2068    1466+
+           3640    1476    1003    2557
CTETRA      2944       1    2863    2864    2873      54    3640    3667+
+           3666    1476    2557    1477
CTETRA      2945       1    2864    2874    2873      54    3669    3668+
+           3667    2557    1002    1477
CTETRA      2946       1    4212      22    4224      59    1015    2179+
+           4835    1059    1058    1472
CTETRA      2947       1    2874    4224    4225      22    1001    4837+
+           1789    2130    2179     551
CTETRA      2948       1    4213    4225    4224      22    4838    4837+
+           4836     552     551    2179
CTETRA      2949       1    4212    4213    4224      22    4803    4836+
+           4835    1015     552    2179
CTETRA      2950       1    2759    2769    4338      27    3374    1900+
+            945     684    1427    1075
CTETRA      2951       1    2769    4339    4338      27    1426    5159+
+           1900    1427    1428    1075
CTETRA      2952       1    2770    4351    4339      27     827    5194+
+           1425     828     685    1428
CTETRA      2953       1    2759    2760      27       5    3348     753+
+            684     687     177     688
CTETRA      2954       1    6074    6003    6075      65    1109    1112+
+           6085    2558    1114    1113
CTETRA      2955       1    6074    2667    6003      65    3940    2318+
+           1109    2558    2417    1114
CTETRA      2956       1    6074    2657    2667      65    3939    3088+
+           3940    2558    2479    2417
CTETRA      2957       1    6074    6075    2657      65    6085    3938+
+           3939    2558    1113    2479
CTETRA      2958       1    2854    4248    2864      53    1588    1465+
+           3641    2559     998    1467
CTETRA      2959       1    2853    4248    2854      53    2169    1588+
+           3612    2071     998    2559
CTETRA      2960       1    2853    2854    2863      53    3612    3639+
+           3638    2071    2559    2069
CTETRA      2961       1    2854    2864    2863      53    3641    3640+
+           3639    2559    1467    2069
CTETRA      2962       1    2892    4186    4198      84     901    4761+
+           1801    1509    1511    2560
CTETRA      2963       1    2892    4198    4199      84    1801    4763+
+           2468    1509    2560    2510
CTETRA      2964       1    4187    4199    4198      84    4764    4763+
+           4762    2446    2510    2560
CTETRA      2965       1    4186    4187    4198      84    4729    4762+
+           4761    1511    2446    2560
CTETRA      2966       1    5909    2964    4116      81    4014    1996+
+           1536    1539    2561    1386
CTETRA      2967       1    2963    4116    2964      81    2541    1996+
+           3920    2536    1386    2561
CTETRA      2968       1    5910    2963    2964      81    4012    3920+
+           4013    1816    2536    2561
CTETRA      2969       1    5909    5910    2964      81    5927    4013+
+           4014    1539    1816    2561
CTETRA      2970       1    2654    4500    4488      15    1565    5617+
+           1666     414    1563    1862
CTETRA      2971       1    2653    2654    4488      15    3052    1666+
+           1987     415     414    1862
CTETRA      2972       1    2653    4488    4487      15    1987    5582+
+            536     415    1862    1861
CTETRA      2973       1    4488    4500    4499      15    5617    5616+
+           5615    1862    1563    1562
CTETRA      2974       1    2844    4260    2854      32    1605    1587+
+           3613    2562    1590    1589
CTETRA      2975       1    2843    4260    2844      32    2175    1605+
+           3584    2172    1590    2562
CTETRA      2976       1    2843    2844    2853      32    3584    3611+
+           3610    2172    2562    2170
CTETRA      2977       1    2844    2854    2853      32    3613    3612+
+           3611    2562    1589    2170
CTETRA      2978       1    2880    4220    4208      35    1635    4823+
+           2443     813    1634    2563
CTETRA      2979       1    2880    4208    4207      35    2443    4788+
+            811     813    2563     814
CTETRA      2980       1    4207    4208    4219      35    4788    4821+
+           4820     814    2563    1633
CTETRA      2981       1    4208    4220    4219      35    4823    4822+
+           4821    2563    1634    1633
CTETRA      2982       1    2639    2649    4482      37    3038    2340+
+           1688    1683    1680    1689
CTETRA      2983       1    2649    4483    4482      37    1997    5567+
+           2340    1680    2010    1689
CTETRA      2984       1    2650    4495    4483      37    1679    5602+
+           1274     819    1685    2010
CTETRA      2985       1    2639    2640      37      36    3012     820+
+           1683    1346     816     821
CTETRA      2986       1    2636    4526    4514      92    1343    5691+
+           1342    2529    1705    2535
CTETRA      2987       1    2635    4514    4513      92    2229    5656+
+           2039    2041    2535    2042
CTETRA      2988       1    4513    4514    4525      92    5656    5689+
+           5688    2042    2535    2232
CTETRA      2989       1    4514    4526    4525      92    5691    5690+
+           5689    2535    1705    2232
CTETRA      2990       1    2679    4446    2689      93     879     878+
+           3150    2564    1714    1713
CTETRA      2991       1    2678    4446    2679      93    1674     879+
+           3121    2033    1714    2564
CTETRA      2992       1    2678    2679    2688      93    3121    3148+
+           3147    2033    2564    2034
CTETRA      2993       1    2679    2689    2688      93    3150    3149+
+           3148    2564    1713    2034
CTETRA      2994       1    2693    2703    4427      44    3190     332+
+           1722    1448     887    1723
CTETRA      2995       1    2703    4428    4427      44     324    5412+
+            332     887     889    1723
CTETRA      2996       1    2704    4440    4428      44    2085    5447+
+            325     888    1450     889
CTETRA      2997       1    2693    4440    2694      44     773    1008+
+           3164    1448    1450    2143
CTETRA      2998       1    2735    2745    4382      30    3308     629+
+           1727    1653    2565    1728
CTETRA      2999       1    2745    2746    4382      30    3310     630+
+            629    2565    1024    1728
CTETRA      3000       1    2736    2746    2745      30    3311    3310+
+           3309     734    1024    2565
CTETRA      3001       1    2735    2736    2745      30    3282    3309+
+           3308    1653     734    2565
CTETRA      3002       1    2729      45    2739      80    1737     907+
+           3290    1384    1738    1791
CTETRA      3003       1    2739    4375    4374    4386     905    5261+
+           1790     906    5294    5293
CTETRA      3004       1    4375    4387      45      31    5296    1388+
+            908     765     767    2228
CTETRA      3005       1    2729    2730    2739      31    3264    3291+
+           3290    2226    2242    2227
CTETRA      3006       1    2680    4460    4448      17    1663    5503+
+           2196    1670    1853    2478
CTETRA      3007       1    2669    2670    2679      17    3096    3123+
+           3122     436     438    1669
CTETRA      3008       1    4447    4448    4459      17    5468    5501+
+           5500    1671    2478     437
CTETRA      3009       1    4448    4460    4459      17    5503    5502+
+           5501    2478    1853     437
CTETRA      3010       1    6066    4371    2756      13     298     300+
+           4062    1246     304    2566
CTETRA      3011       1    6066    2756    6067      13    4062    4063+
+           6093    1246    2566    1133
CTETRA      3012       1    6067    2756    2746      13    4063    3339+
+           4064    1133    2566    1659
CTETRA      3013       1    2746    2756    4371      13    3339     300+
+           1850    1659    2566     304
CTETRA      3014       1    2735    4406    4394     101    1029    5351+
+           1652    1888    1887    2567
CTETRA      3015       1    2735    4394    4393     101    1652    5316+
+            294    1888    2567    1858
CTETRA      3016       1    4393    4394    4405     101    5316    5349+
+           5348    1858    2567    1859
CTETRA      3017       1    4394    4406    4405     101    5351    5350+
+           5349    2567    1887    1859
CTETRA      3018       1    4171    4183      34       7    4718     796+
+           2279    1289     799     798
CTETRA      3019       1    2909    4171    4170      34     715    4683+
+            161    1945    2279    2264
CTETRA      3020       1    4170    4171    4182      34    4683    4716+
+           4715    2264    2279    2094
CTETRA      3021       1    4171    4183    4182      34    4718    4717+
+           4716    2279     796    2094
CTETRA      3022       1    4470     109    4482      78    2001    2346+
+           5565    1351    2004    1352
CTETRA      3023       1    2649    4482    4483     109    2340    5567+
+           1997    1998    2346    1999
CTETRA      3024       1    4471    4483    4482     109    5568    5567+
+           5566    2530    1999    2346
CTETRA      3025       1    4470    4471    4482     109    5533    5566+
+           5565    2001    2530    2346
CTETRA      3026       1    2709    4410    2719      96    2366    1740+
+           3234    2568    1735    2043
CTETRA      3027       1    2708    4410    2709      96    2367    2366+
+           3205    2045    1735    2568
CTETRA      3028       1    2708    2709    2718      96    3205    3232+
+           3231    2045    2568    2046
CTETRA      3029       1    2709    2719    2718      96    3234    3233+
+           3232    2568    2043    2046
CTETRA      3030       1    2619    2629    4506      39    2975    2237+
+            850    1292    1251    1296
CTETRA      3031       1    2629    4507    4506      39    1348    5635+
+           2237    1251    1295    1296
CTETRA      3032       1    2630    4519    4507      39    1304    5670+
+            859     833    1294    1295
CTETRA      3033       1    2619    2620      39      14    2977     834+
+           1292    1311     374     835
CTETRA      3034       1    2689    2699    4422      79    3178    2380+
+           2061    2062    1967    2063
CTETRA      3035       1    2699    4423    4422      79    1966    5397+
+           2380    1967    1968    2063
CTETRA      3036       1    2700    4435    4423      79     642    5432+
+            653    1368    1367    1968
CTETRA      3037       1    2689    2690      79      16    3152    2067+
+           2062    2416     431    1369
CTETRA      3038       1    4195    4207      52     100    4786     994+
+           2438    1837    1840    2097
CTETRA      3039       1    2889    4195    4194      52     800    4751+
+            672    2436    2438    2528
CTETRA      3040       1    4194    4195    4206      52    4751    4784+
+           4783    2528    2438     993
CTETRA      3041       1    4195    4207    4206      52    4786    4785+
+           4784    2438     994     993
CTETRA      3042       1    2809    4290    2819      97    2434    1497+
+           3514    2569    1782    2508
CTETRA      3043       1    2808    4290    2809      97    1779    2434+
+           3485    1780    1782    2569
CTETRA      3044       1    2808    2809    2818      97    3485    3512+
+           3511    1780    2569    1770
CTETRA      3045       1    2809    2819    2818      97    3514    3513+
+           3512    2569    2508    1770
CTETRA      3046       1    2755    2765    4358      60    3364     608+
+           1751    1095    2570    2053
CTETRA      3047       1    2765    2766    4358      60    3366     605+
+            608    2570    1068    2053
CTETRA      3048       1    2756    2766    2765      60    3367    3366+
+           3365    1066    1068    2570
CTETRA      3049       1    2755    2756    2765      60    3338    3365+
+           3364    1095    1066    2570
CTETRA      3050       1    6069    5998    6070      67     390    2161+
+           6090    2571    1155    2162
CTETRA      3051       1    6069    2717    5998      67    3950     391+
+            390    2571    2163    1155
CTETRA      3052       1    6069    2707    2717      67    3949    3228+
+           3950    2571    2431    2163
CTETRA      3053       1    6069    6070    2707      67    6090    3948+
+           3949    2571    2162    2431
CTETRA      3054       1    2708    4409    2718      68    1159    2044+
+           3231    1162    1161    2255
CTETRA      3055       1    2629    4506    2639      38    2237    1711+
+           3010    2348    2204    1709
CTETRA      3056       1    4494    4506    4505      38    5633    5632+
+           5631     830    2204     831
CTETRA      3057       1    2628    2629    2638      38    2974    3008+
+           3007    2207    2348    1708
CTETRA      3058       1    2629    2639    2638      38    3010    3009+
+           3008    2348    1709    1708
CTETRA      3059       1    2950    2960    4112       1    3909     445+
+           1108    2248    2572     458
CTETRA      3060       1    2960    2961    4112       1    3911     446+
+            445    2572     131     458
CTETRA      3061       1    2951    2961    2960       1    3912    3911+
+           3910     129     131    2572
CTETRA      3062       1    2950    2951    2960       1    3883    3910+
+           3909    2248     129    2572
CTETRA      3063       1    2951    4137    4125     103    1628    4588+
+            127    1936    2083    2573
CTETRA      3064       1    2951    4125    4124     103     127    4547+
+           1137    1936    2573    1937
CTETRA      3065       1    4124    4125    4136     103    4547    4586+
+           4585    1937    2573    1944
CTETRA      3066       1    4125    4137    4136     103    4588    4587+
+           4586    2573    2083    1944
CTETRA      3067       1    2745    4382    2755     107     629     631+
+           3336    1973    1976    2275
CTETRA      3068       1    2745    4381    4382     107    1647    5282+
+            629    1973    1977    1976
CTETRA      3069       1    2744    4369     107      11    2441    2403+
+           1972     398     244    2423
CTETRA      3070       1    2754     107    2755      11    1974    2275+
+           3335     243    2423    2453
CTETRA      3071       1    2937    2938    2947      63    3846    3873+
+           3872    2305    1097    1558
CTETRA      3072       1    2838    4254    2839     108     911     910+
+           3569    2303    1985    1984
CTETRA      3073       1    2838    2839    2848     108    3569    3596+
+           3595    2303    1984    2112
CTETRA      3074       1    2839      71    2848     108    1844    1240+
+           3596    1984    1986    2112
CTETRA      3075       1    2715    2716    4418      99    3226     454+
+            453    2534    1812    2404
CTETRA      3076       1    2715    4418      50      99     453    2013+
+            965    2534    2404    2488
CTETRA      3077       1    2706    2715      50      99    3225     965+
+           2487    2267    2534    2488
CTETRA      3078       1    2705    2706    2715      50    3198    3225+
+           3224     964    2487     965
CTETRA      3079       1    2775    4346    2785      12     596    2124+
+           3420    2471    1413     484
CTETRA      3080       1    2775    4345    4346      12     593    5180+
+            596    2471     283    1413
CTETRA      3081       1    2774    4345    2775      12     282     593+
+           3391     279     283    2471
CTETRA      3082       1    2784    2785    4333      12    3419     483+
+            275     280     484     281
CTETRA      3083       1    2658    2668    4457      94    3091    1866+
+           2250    2386    1880    2060
CTETRA      3084       1    2668    4458    4457      94    2009    5496+
+           1866    1880    1716    2060
CTETRA      3085       1    2668    2669    4458      94    3093    1884+
+           2009    1880    1879    1716
CTETRA      3086       1    2658    2659    2668      94    3065    3092+
+           3091    2386    1878    1880
CTETRA      3087       1    2785    2795    4322      55    3448    2463+
+           2254    1753    2574    1023
CTETRA      3088       1    2795    2796    4322      55    3450    1020+
+           2463    2574    1021    1023
CTETRA      3089       1    2786    2796    2795      55    3451    3450+
+           3449    1755    1021    2574
CTETRA      3090       1    2785    2786    2795      55    3422    3449+
+           3448    1753    1755    2574
CTETRA      3091       1    2685    4466    4454     115    2357    5521+
+           1175    2397    2396    2575
CTETRA      3092       1    2685    4454    4453     115    1175    5486+
+            989    2397    2575    2394
CTETRA      3093       1    4453    4454    4465     115    5486    5519+
+           5518    2394    2575    2395
CTETRA      3094       1    4454    4466    4465     115    5521    5520+
+           5519    2575    2396    2395
CTETRA      3095       1    4326      88    4338      21    1897    2470+
+           5157     503    2406    2420
CTETRA      3096       1    2769    4338    4339      88    1900    5159+
+           1426    1576    2470    1577
CTETRA      3097       1    4327    4339    4338      88    5160    5159+
+           5158    1896    1577    2470
CTETRA      3098       1    4326    4327    4338      88    5125    5158+
+           5157    1897    1896    2470
CTETRA      3099       1    2737    4360    4372      86    1549    5253+
+           1380    2407    1544    2538
CTETRA      3100       1    2737    4372    4373      87    1380    5255+
+           2191    2192    2540    2193
CTETRA      3101       1    4361    4373    4372      87    5256    5255+
+           5254    1548    2193    2540
CTETRA      3102       1    4360    4361    4372      86    5221    5254+
+           5253    1544    1543    2538
CTETRA      3103       1    2645    4502    4501     106    1978    5622+
+           2377    1971    1979    2410
CTETRA      3104       1    2645    2646    4502      91    3030    2373+
+           1978    1980    2029    1981
CTETRA      3105       1    2636    2646    2645      91    3031    3030+
+           3029    1701    2029    1980
CTETRA      3106       1    2636    2645     106      91    3029    1971+
+           1970    1701    1980    1982
CTETRA      3107       1    2809    2810    4291     111    3488    2315+
+           2314    2548    2117    2496
CTETRA      3108       1    2809    4291     104     111    2314    1939+
+           2502    2548    2496    2547
CTETRA      3109       1    2800    2809     104     111    3487    2502+
+           2546    2433    2548    2547
CTETRA      3110       1    2799    2800    2809     104    3460    3487+
+           3486    1953    2546    2502
CTETRA      3111       1    2850    4232    4244      83    2101    4891+
+           2212    1802    1447    1804
CTETRA      3112       1    2850    4244    2851      83    2212    2211+
+           3603    1802    1804    1795
CTETRA      3113       1    2851    4244    4245      83    2211    4893+
+           1905    1795    1804    1803
CTETRA      3114       1    4232    4233    4244      83    4859    4892+
+           4891    1447    1446    1804
CTETRA      3115       1    2857    4228    2867       9    2304    1914+
+           3648    2576     235     229
CTETRA      3116       1    6055    4228    2857       9     232    2304+
+           3978     233     235    2576
CTETRA      3117       1    6054    6055    2857       9    6105    3978+
+           3979     228     233    2576
CTETRA      3118       1    6054    2857    2867       9    3979    3648+
+           3980     228    2576     229
CTETRA      3119       1    2940    4148    4136      66    1826    4619+
+           1131    1121    2241    2577
CTETRA      3120       1    2940    4136    4135      66    1131    4584+
+            716    1121    2577    1151
CTETRA      3121       1    4135    4136    4147      66    4584    4617+
+           4616    1151    2577    2240
CTETRA      3122       1    4136    4148    4147      66    4619    4618+
+           4617    2577    2241    2240
CTETRA      3123       1    2805    2806    4310      61    3478     583+
+            579    1071    1070    2345
CTETRA      3124       1    2805    4310    4309      29     579    5078+
+            693    2542    2554     699
CTETRA      3125       1    4309    4310    4321      29    5078    5111+
+           5110     699    2554     700
CTETRA      3126       1    4310    4322    4321      61    5113    5112+
+           5111    2345    2344    2531
CTETRA      3127       1    2937    4120    4132      62    1089    4573+
+           1167    2469    1094    2578
CTETRA      3128       1    2937      62    4132      63    2469    2578+
+           1167    2305    1566    2555
CTETRA      3129       1    4121    4132      62      63    4574    2578+
+           1093    1559    2555    1566
CTETRA      3130       1    4120    4121    4132      62    4531    4574+
+           4573    1094    1093    2578
CTETRA      3131       1    2929    4159    4147      25    1061    4650+
+           2233     624    2310    2579
CTETRA      3132       1    2929    4147    4146      25    2233    4615+
+            621     624    2579     625
CTETRA      3133       1    4146    4147    4158      25    4615    4648+
+           4647     625    2579    2309
CTETRA      3134       1    4147    4159    4158      25    4650    4649+
+           4648    2579    2310    2309
CTETRA      3135       1    2623    2633    4511      74    2991    1309+
+           1268    1300    2483    2482
CTETRA      3136       1    2633    4512    4511      74    1863    5650+
+           1309    2483    1303    2482
CTETRA      3137       1    2634    4524    4512      74    2361    5685+
+           1556    2363    1302    1303
CTETRA      3138       1    2623    4524    2624      74    1299    1551+
+           2993    1300    1302    2362
CTETRA      3139       1    2938    2948    2947      63    3875    3874+
+           3873    1097    1099    1558
CTETRA      3140       1    2845    2846    4262      10    3590     511+
+            677    2580     247     513
CTETRA      3141       1    2836    2846    2845      10    3591    3590+
+           3589     238     247    2580
CTETRA      3142       1    2835    2836    2845      10    3562    3589+
+           3588     509     238    2580
CTETRA      3143       1    2848    4229    4241     110    2103    4882+
+           2105    2500    2108    2581
CTETRA      3144       1    2848    4241    4242     110    2105    4884+
+           1239    2500    2581    2287
CTETRA      3145       1    4230    4242    4241     110    4885    4884+
+           4883    2107    2287    2581
CTETRA      3146       1    4229    4230    4241     110    4850    4883+
+           4882    2108    2107    2581
CTETRA      3147       1    2944    4140    2954     112    1517    2465+
+           3893    2582    2552    2583
CTETRA      3148       1    2943    4140    2944     112    2133    1517+
+           3864    2299    2552    2582
CTETRA      3149       1    2943    2944    2953     112    3864    3891+
+           3890    2299    2582    2551
CTETRA      3150       1    2944    2954    2953     112    3893    3892+
+           3891    2582    2583    2551
CTETRA      3151       1    4176     116    4188      42    2497    2480+
+           4733     890    2477     867
CTETRA      3152       1    2904    4177    4188    4189    2584    4734+
+           2334    1613    4736    4735
CTETRA      3153       1    2904    4188    4177     116    2334    4734+
+           2584    2474    2480    2494
CTETRA      3154       1    4176    4177    4188     116    4701    4734+
+           4733    2497    2494    2480
CTETRA      3155       1    2790    2799     105      82    3459    1957+
+           2429    2435    1958    1959
CTETRA      3156       1    2799    2800    4303      82    3460    1421+
+           1952    1958    1422    1424
CTETRA      3157       1    2790    2800    2799      82    3461    3460+
+           3459    2435    1422    1958
CTETRA      3158       1    2789    2790    2799     105    3432    3459+
+           3458    2427    2429    1957
CTETRA      3159       1    2655    4478    4490      64    2024    5589+
+           2026    2526    1103    2391
CTETRA      3160       1    2655    4490    2656      64    2026    2390+
+           3058    2526    2391    2261
CTETRA      3161       1    2656    4491    2666      64     569    1126+
+           3087    2261    2392    1101
CTETRA      3162       1    4121    4133    4132      63    4576    4575+
+           4574    1559    1098    2555
CTETRA      3163       1    2695    2705    4429      90    3196     978+
+           1116    1664    1991    1660
CTETRA      3164       1    2705    2706    4430      56    3198    2399+
+           1992    1993    1042    1994
CTETRA      3165       1    2696    2706    2705      56    3199    3198+
+           3197    1040    1042    1993
CTETRA      3166       1    2695    4442    2696      90    1082    1081+
+           3170    1664    1665    1990
CTETRA      3167       1    2719    2729    4386      47    3262     922+
+           2256    2038     923     925
CTETRA      3168       1    2729    4386    4387      45     922    5295+
+            921    1737     909    1388
CTETRA      3169       1    2730    4399    4387      47    1457    5330+
+           1742    1743    1744     924
CTETRA      3170       1    2719    2720      47      18    3236    2189+
+           2038    2472     472    2190
CTETRA      3171       1    2914    4176    2924     102    1922    1920+
+           3809    2505    1927    2506
CTETRA      3172       1    2924    4165    4176      76     573    4700+
+           1920    1881    1603    1604
CTETRA      3173       1    2925    4177    4165      77    1602    4702+
+           1601    1928    1326    1883
CTETRA      3174       1    2914      58    2915      77    1045    1047+
+           3783    1907    1327    1906
CTETRA      3175       1    2954    4128    2964      70    1818    1817+
+           3921    2585    2550    2586
CTETRA      3176       1    2953    4128    2954      70    2549    1818+
+           3892    1201    2550    2585
CTETRA      3177       1    2953    2954    2963      70    3892    3919+
+           3918    1201    2585    1202
CTETRA      3178       1    2954    2964    2963      70    3921    3920+
+           3919    2585    2586    1202
CTETRA      3179       1    2934    4164    4152      85     571    4665+
+           1522    1524    2456    2460
CTETRA      3180       1    2933    2934    4152      85    3836    1522+
+           2458    1525    1524    2460
CTETRA      3181       1    2923    2933    4151      85    3834    2459+
+           2137    2139    1525    2140
CTETRA      3182       1    2923    4163    4164      85    2138    4664+
+           2455    2139    2141    2456
CTETRA      3183       1    2707    4396    4408      68    2466    5355+
+           2527    1160    2182    1405
CTETRA      3184       1    2717    2718    4397      68    3230    1392+
+           2076    2532    2255    1404
CTETRA      3185       1    2717    4397    4396      68    2076    5323+
+           2075    2532    1404    2182
CTETRA      3186       1    2707    2717    4396      68    3228    2075+
+           2466    1160    2532    2182
CTETRA      3187       1    2739      95    4374     113    2587    1918+
+           1790    2524    2519    2473
CTETRA      3188       1    2738    4374    2739      95    1786    1790+
+           3289    1731    1918    2587
CTETRA      3189       1    2738    2739    2748      95    3289    3316+
+           3315    1731    2587    1732
CTETRA      3190       1    2739    2748      95     113    3316    1732+
+           2587    2524    2545    2519
CTETRA      3191       1    2699    4410    4422     114    2365    5395+
+           2380    2378    2372    2588
CTETRA      3192       1    2699    4422    4423     114    2380    5397+
+           1966    2378    2588    2379
CTETRA      3193       1    4411    4423    4422     114    5398    5397+
+           5396    2371    2379    2588
CTETRA      3194       1    4410    4411    4422     114    5363    5396+
+           5395    2372    2371    2588
CTETRA      3195       1    2749    4350    4362     118    2511    5225+
+           2525    2543    2544    2589
CTETRA      3196       1    2749    4362    4363     118    2525    5227+
+           2259    2543    2589    2522
CTETRA      3197       1    4351    4363    4362     118    5228    5227+
+           5226    2523    2522    2589
CTETRA      3198       1    4350    4351    4362     118    5193    5226+
+           5225    2544    2523    2589
CTETRA      3199       1    2818      89    4278      98    1954    2516+
+           1769    1775    2513    1776
CTETRA      3200       1    4278      89    4279      98    2516    1774+
+           4989    1776    2513    2285
CTETRA      3201       1    4267    4279    4278      89    4990    4989+
+           4988    1641    1774    2516
CTETRA      3202       1    4266    4267    4278      89    4955    4988+
+           4987    1642    1641    2516
CTETRA      3203       1    2779    2789    4314      20    3430    1419+
+            492     494    2590     495
CTETRA      3204       1    2789    4315    4314      20    2426    5091+
+           1419    2590    2414     495
CTETRA      3205       1    2789    4315      20     117    2426    2414+
+           2590    2492    2515    2591
CTETRA      3206       1    2779    2789      20     117    3430    2590+
+            494    2490    2492    2591
CTETRA      3207       1    4315    4327      20     117    5126    1439+
+           2414    2515    2592    2591
CTETRA      3208       1    2779      20    4327     117     494    1439+
+           1438    2490    2591    2592
CTETRA      3209       1    2779    4327    2780     117    1438    1574+
+           3404    2490    2592    2491
CTETRA      3210       1    2780    4327    2790     117    1574    2121+
+           3433    2491    2592    2514
CTETRA      3211       1    2790    4327    4315     117    2121    5126+
+           2271    2514    2592    2515
CTETRA      3212       1    2739    2749    2748     113    3318    3317+
+           3316    2524    2354    2545
CTETRA      3213       1    2748    2749    4362     113    3317    2525+
+           2520    2545    2354    2518
CTETRA      3214       1    4362    4363    4374     113    5227    5260+
+           5259    2518    2356    2473
CTETRA      3215       1    2739    4374    4375     113    1790    5261+
+            905    2524    2473    2355
CTETRA      3216       1    2963    2964    4116      70    3920    1996+
+           2541    1202    2586    2007
CTETRA      3217       1    2937    2947      62      63    3872    1092+
+           2469    2305    1558    1566
CTETRA      3218       1    2964    4128    4116      70    1817    4560+
+           1996    2586    2550    2007
CTETRA      3219       1    4262    4263    4274      10    4945    4978+
+           4977     513     512     239
CTETRA      3220       1    4116    4128    4127      70    4560    4559+
+           4557    2007    2550    2008
CTETRA      3221       1    2696    2705      90      56    3197    1991+
+           1990    1040    1993    1995
CTETRA      3222       1    2696      90    4442      56    1990    1665+
+           1081    1040    1995    1229
CTETRA      3223       1    4430    4442      90      56    5453    1665+
+           1661    1994    1229    1995
CTETRA      3224       1    2705    4430    4429      90    1992    5418+
+            978    1991    1661    1660
CTETRA      3225       1    4430    4431    4442      56    5421    5454+
+           5453    1994    1218    1229
CTETRA      3226       1    2790     105    4315      82    2429    2428+
+           2271    2435    1959    2512
CTETRA      3227       1    2835    4262    4274      10     683    4977+
+            508     509     513     239
CTETRA      3228       1    4303    4315     105      82    5092    2428+
+           1956    1424    2512    1959
CTETRA      3229       1    2789    2799    4303     105    3458    1952+
+           2503    2427    1957    1956
CTETRA      3230       1    4303    4304    4315      82    5060    5093+
+           5092    1424    1423    2512
CTETRA      3231       1    2904     116    4177      57    2474    2494+
+           2584    1615    2493    1612
CTETRA      3232       1    2914     116      57      58    2475    2493+
+           1043    1045    2495    1046
CTETRA      3233       1    2904    2914     116      57    3781    2475+
+           2474    1615    1043    2493
CTETRA      3234       1    2904    4177    4189      57    2584    4736+
+           1613    1615    1612    1611
CTETRA      3235       1    2904    2905    2914      57    3755    3782+
+           3781    1615    1616    1043
CTETRA      3236       1    2835    2845    4262      10    3588     677+
+            683     509    2580     513
CTETRA      3237       1    2953    2954    4128     112    3892    1818+
+           2549    2551    2583    2537
CTETRA      3238       1    2954    4140    4128     112    2465    4597+
+           1818    2583    2552    2537
CTETRA      3239       1    2849    2858     110      49    3624    2106+
+           2286     959     961    2288
CTETRA      3240       1    4128    4140    4139     112    4597    4596+
+           4595    2537    2552    2301
CTETRA      3241       1    4230    4242     110      49    4885    2287+
+           2107    1039    2100    2288
CTETRA      3242       1    2858    4230     110      49    1038    2107+
+           2106     961    1039    2288
CTETRA      3243       1    2848    2849    2858     110    3597    3624+
+           3623    2500    2286    2106
CTETRA      3244       1    2848    4242    2849     110    1239    1238+
+           3597    2500    2287    2286
$*  Mesh Collector: Aluminum
$*  Mesh: 3d_mesh(2)
CTETRA      3245       1    8639   10436   10435   10449    6184   11316+
+           6185    6186   11355   11354
CTETRA      3246       1   12495   12425   12424   10435    6187   12457+
+           6188    6189   12108   12107
CTETRA      3247       1   12494   12495   12424   10449   12529    6188+
+           6190    6191    6192   12110
CTETRA      3248       1   12496    8627   10421   10435   10157    6193+
+           6194    6195    6196   11314
CTETRA      3249       1   12496   12425   10434   10448    6197   12212+
+           6198    6199   12211   11353
CTETRA      3250       1   12494   12423   10462   10476    6200   12208+
+           6201    6202   12207   11433
CTETRA      3251       1    8639   10422   10435   10436    6203   11315+
+           6185    6184   11317   11316
CTETRA      3252       1    8602    8614   10395   10408    9339    6204+
+           6205    6206    6207   11238
CTETRA      3253       1    8652   10476   10475   10489    6208   11432+
+           6209    6210   11471   11470
CTETRA      3254       1    8811   10654    8824   10668    6211    6212+
+           9932    6213   11981    6214
CTETRA      3255       1    8563   10356   10355   10369    6215   11088+
+           6216    6217   11127   11126
CTETRA      3256       1    8537   10317   10330   10331    6218   11016+
+           6219    6220   11018   11017
CTETRA      3257       1    8439    8452    8451   10234    8870    8869+
+           8867    6221    6222    6223
CTETRA      3258       1    8524   10318   10317   10331    6224   10980+
+           6225    6226   11019   11018
CTETRA      3259       1   12493   10476    8664   10490    6227    6228+
+          10063    6229   11473    6230
CTETRA      3260       1    8682   10483   10496   10497    6231   11490+
+           6232    6233   11492   11491
CTETRA      3261       1    8499   10276    8500   10290    6234    6235+
+           9013    6236   10901    6237
CTETRA      3262       1    8488   10276   10275   10289    6238   10860+
+           6239    6240   10899   10898
CTETRA      3263       1    8488   10262   10275   10276    6241   10859+
+           6239    6238   10861   10860
CTETRA      3264       1    8486    8498   10278   10291    9009    6242+
+           6243    6244    6245   10905
CTETRA      3265       1    8641    8653    8652   10475    9448    9447+
+           9446    6246    6247    6209
CTETRA      3266       1    8437    8449    8448   10223    8860    8859+
+           8857    6248    6249    6250
CTETRA      3267       1    8475   10262    8488   10276    6251    6241+
+           8980    6252   10861    6238
CTETRA      3268       1   12505   10308    8520   10322    6253    6254+
+          10039    6255   10993    6256
CTETRA      3269       1    8497   10293   10306   10307    6257   10948+
+           6258    6259   10950   10949
CTETRA      3270       1    8829    8830    8842   10661    9949    9985+
+           9984    6260    6261    6262
CTETRA      3271       1    8790   10622    8803   10636    6263    6264+
+           9873    6265   11889    6266
CTETRA      3272       1    8830    8842   10661   10674    9985    6262+
+           6261    6267    6268   11998
CTETRA      3273       1    8822   10669    8835   10683    6269    6270+
+           9963    6271   12024    6272
CTETRA      3274       1    8499    8512    8511   10304    9048    9047+
+           9046    6273    6274    6275
CTETRA      3275       1    8778   10609   10622   10623    6276   11850+
+           6277    6278   11852   11851
CTETRA      3276       1    8778   10622    8790   10623    6277    6263+
+           9837    6278   11851    6279
CTETRA      3277       1    8729   10541   10554   10555    6280   11656+
+           6281    6282   11658   11657
CTETRA      3278       1    8770    8782   10591   10604    9815    6283+
+           6284    6285    6286   11798
CTETRA      3279       1    8683   10495    8684    6145    6287    6288+
+           9535    6289    6290    6291
CTETRA      3280       1    8717    8730    8729   10540    9666    9665+
+           9664    6292    6293    6294
CTETRA      3281       1    8780    8781    8793   10606    9810    9846+
+           9845    6295    6296    6297
CTETRA      3282       1    8811   10655   10654    6146    6298   11943+
+           6211    6299    6300    6301
CTETRA      3283       1    8795   10618   10617   10631    6302   11836+
+           6303    6304   11875   11874
CTETRA      3284       1    8770    8783    8782   10604    9817    9816+
+           9815    6285    6305    6286
CTETRA      3285       1    8714   10544    8726    6147    6306    6307+
+           9655    6308    6309    6310
CTETRA      3286       1    8782   10605   10604   10618    6311   11799+
+           6286    6312   11838   11837
CTETRA      3287       1    8737    8750    8749   10586    9722    9721+
+           9720    6313    6314    6315
CTETRA      3288       1    8475   10263   10262    6148    6316   10823+
+           6251    6317    6318    6319
CTETRA      3289       1    8573    8574    8586   10385    9223    9259+
+           9258    6320    6321    6322
CTETRA      3290       1    8645   10455    8646    6149    6323    6324+
+           9427    6325    6326    6327
CTETRA      3291       1    8751   10571   10584   10585    6328   11742+
+           6329    6330   11744   11743
CTETRA      3292       1    8730   10566    8742   10567    6331    6332+
+           9701    6333   11691    6334
CTETRA      3293       1    8742   10567   10566   10580    6334   11691+
+           6332    6335   11730   11729
CTETRA      3294       1    8730   10553   10552   10566    6336   11651+
+           6337    6331   11690   11689
CTETRA      3295       1    8741    8742    8754   10567    9699    9735+
+           9734    6338    6334    6339
CTETRA      3296       1    8709    8721   10522   10535    9642    6340+
+           6341    6342    6343   11601
CTETRA      3297       1    8597    8598    8610   10413    9291    9327+
+           9326    6344    6345    6346
CTETRA      3298       1    8696   10508    8709   10522    6347    6348+
+           9607    6349   11563    6341
CTETRA      3299       1    8708    8709    8721   10522    9606    9642+
+           9641    6350    6341    6340
CTETRA      3300       1    8439   10221   10220   10234    6351   10739+
+           6352    6221   10738   10737
CTETRA      3301       1    8658   10455   10469    6149    6353   11412+
+           6354    6355    6326    6356
CTETRA      3302       1    8709   10508   10521   10522    6348   11561+
+           6357    6341   11563   11562
CTETRA      3303       1    8679   10501   10500   10514    6358   11503+
+           6359    6360   11542   11541
CTETRA      3304       1    8712    8713    8724   10545    9617    9650+
+           9649    6361    6362    6363
CTETRA      3305       1    8622   10427    8634   10428    6364    6365+
+           9395    6366   11294    6367
CTETRA      3306       1    8678    8690   10502   10515    9553    6368+
+           6369    6370    6371   11545
CTETRA      3307       1    8690   10516   10515   10529    6372   11546+
+           6371    6373   11585   11584
CTETRA      3308       1    8657    8670    8669   10483    9496    9495+
+           9494    6374    6375    6376
CTETRA      3309       1    8714   10530   10544    6150    6377   11627+
+           6306    6378    6379    6380
CTETRA      3310       1    8702   10530   10529   10543    6381   11586+
+           6382    6383   11625   11624
CTETRA      3311       1    8657   10469    8658   10483    6384    6354+
+           9461    6374   11452    6385
CTETRA      3312       1    8657   10470   10469   10483    6386   11414+
+           6384    6374   11453   11452
CTETRA      3313       1    8728   10556   10555   10569    6387   11660+
+           6388    6389   11699   11698
CTETRA      3314       1    8560    8573    8572   10373    9221    9220+
+           9219    6390    6391    6392
CTETRA      3315       1    8668   10485    8681   10499    6393    6394+
+           9527    6395   11498    6396
CTETRA      3316       1    8728    8740   10556   10569    9695    6397+
+           6387    6389    6398   11699
CTETRA      3317       1    8656   10471    8669   10485    6399    6400+
+           9493    6401   11458    6402
CTETRA      3318       1    8715   10542    8728   10556    6403    6404+
+           9660    6405   11661    6387
CTETRA      3319       1    8620   10416   10429   10430    6406   11299+
+           6407    6408   11301   11300
CTETRA      3320       1    8559   10360    8572   10374    6409    6410+
+           9218    6411   11141    6412
CTETRA      3321       1   12385   12357   12356   10215   12271   12376+
+          12286    6413   12262   12261
CTETRA      3322       1    8621   10415   10428   10429    6414   11296+
+           6415    6416   11298   11297
CTETRA      3323       1    8648   10452    8661   10466    6417    6418+
+           9471    6419   11403    6420
CTETRA      3324       1    8660    8661    8673   10466    9470    9506+
+           9505    6421    6420    6422
CTETRA      3325       1    8649   10452   10451   10465    6423   11362+
+           6424    6425   11401   11400
CTETRA      3326       1   12494   12495    8640   10462   12529   10059+
+          10058    6201    6426    6427
CTETRA      3327       1    8653   10475   10474   10488    6247   11429+
+           6428    6429   11468   11467
CTETRA      3328       1    8629   10447   10446   10460    6430   11349+
+           6431    6432   11388   11387
CTETRA      3329       1    8792   10620    8793    6151    6433    6434+
+           9844    6435    6436    6437
CTETRA      3330       1    8621   10415   10414   10428    6414   11257+
+           6438    6415   11296   11295
CTETRA      3331       1    8571   10374    8584   10388    6439    6440+
+           9252    6441   11181    6442
CTETRA      3332       1   10414   10428   10427    6152   11295   11294+
+          11293    6443    6444    6445
CTETRA      3333       1    8755    8767   10580   10593    9772    6446+
+           6447    6448    6449   11767
CTETRA      3334       1    8608    8609    8621   10415    9322    9358+
+           9357    6450    6451    6414
CTETRA      3335       1    8565    8566   10353    6153    9201    6452+
+           6453    6454    6455    6456
CTETRA      3336       1    8576    8588   10369   10382    9265    6457+
+           6458    6459    6460   11164
CTETRA      3337       1    8562   10357   10356   10370    6461   11091+
+           6462    6463   11130   11129
CTETRA      3338       1    8575    8576    8588   10369    9229    9265+
+           9264    6464    6458    6457
CTETRA      3339       1    8588   10383   10382   10396    6465   11165+
+           6460    6466   11204   11203
CTETRA      3340       1    8589   10368   10381   10382    6467   11161+
+           6468    6469   11163   11162
CTETRA      3341       1    8608   10415    8621   10429    6450    6414+
+           9357    6470   11298    6416
CTETRA      3342       1    8720    8721    8733    6154    9640    9676+
+           9675    6471    6472    6473
CTETRA      3343       1   12499   10392    8592   10406    6474    6475+
+          10051    6476   11233    6477
CTETRA      3344       1    8641   10474    8653   10475    6478    6428+
+           9448    6246   11429    6247
CTETRA      3345       1    8684    8696   10495   10508    9571    6479+
+           6288    6480    6347   11524
CTETRA      3346       1    8617   10419   10432   10433    6481   11308+
+           6482    6483   11310   11309
CTETRA      3347       1    8719    8732    8731   10551    9672    9671+
+           9670    6484    6485    6486
CTETRA      3348       1   12500    8579   10365   10379   10165    6487+
+           6488    6489    6490   11154
CTETRA      3349       1    8637   10438   10437   10451    6491   11322+
+           6492    6493   11361   11360
CTETRA      3350       1    8568    8580   10378   10391    9241    6494+
+           6495    6496    6497   11191
CTETRA      3351       1    8556    8557    8568   10377    9175    9208+
+           9207    6498    6499    6500
CTETRA      3352       1    8800    8801    8813   10639    9866    9902+
+           9901    6501    6502    6503
CTETRA      3353       1    8454    8455    8467   10230    8881    8922+
+           8921    6504    6505    6506
CTETRA      3354       1    8811   10654   10668    6146    6211   11981+
+           6213    6299    6301    6507
CTETRA      3355       1    8549   10345   10344   10358    6508   11057+
+           6509    6510   11096   11095
CTETRA      3356       1    8537   10331   10330   10344    6220   11017+
+           6219    6511   11056   11055
CTETRA      3357       1    8536    8537    8549   10331    9118    9154+
+           9153    6512    6220    6513
CTETRA      3358       1    8528   10313   10312   10326    6514   10965+
+           6515    6516   11004   11003
CTETRA      3359       1    8528    8529    8541   10312    9096    9132+
+           9131    6515    6517    6518
CTETRA      3360       1    8438    8439    8451   10221    8868    8867+
+           8866    6519    6351    6520
CTETRA      3361       1    8540    8541    8553   10326    9130    9166+
+           9165    6521    6522    6523
CTETRA      3362       1    8540   10327   10326   10340    6524   11005+
+           6521    6525   11044   11043
CTETRA      3363       1    8777    8778    8790   10623    9801    9837+
+           9836    6526    6278    6279
CTETRA      3364       1    8790    8791    8803   10622    9838    9874+
+           9873    6263    6527    6264
CTETRA      3365       1    8511   10304    8524   10318    6275    6528+
+           9082    6529   10981    6224
CTETRA      3366       1    8553   10340   10339   10353    6530   11042+
+           6531    6532   11081   11080
CTETRA      3367       1    8538   10329    8550    6155    6533    6534+
+           9157    6535    6536    6537
CTETRA      3368       1    8475   10262   10276    6148    6251   10861+
+           6252    6317    6319    6538
CTETRA      3369       1    8459    8471   10226   10239    8934    6539+
+           6540    6541    6542   10755
CTETRA      3370       1   12510    8459   10225   10239   10185    6543+
+           6544    6545    6541   10754
CTETRA      3371       1    8459   10212   10225   10226    6546   10702+
+           6543    6540   10705   10704
CTETRA      3372       1    8446    8459    8458   10226    8898    8897+
+           8895    6547    6540    6548
CTETRA      3373       1   12477   12549   12327   12298   12547   12350+
+          10118    6549    8433    8421
CTETRA      3374       1   12477   12549   12406   12311   12547    6550+
+           6551    6552    8435   12173
CTETRA      3375       1   12327   12298   12299   10688    8421   12318+
+           8420    6553   12147   12148
CTETRA      3376       1    8804    8816   10635   10648    9911    6554+
+           6555    6556    6557   11924
CTETRA      3377       1    8713   10544   10545    6150    6558   11629+
+           6362    6559    6380    6560
CTETRA      3378       1    8790   10636    8802   10637    6265    6561+
+           9871    6562   11891    6563
CTETRA      3379       1   12386    8442   12387   10217   10198   10201+
+          12400    6564    6565    6566
CTETRA      3380       1   12386   12358   10216   10217   12272   12260+
+           6567    6564   12257   10723
CTETRA      3381       1   12334    8847    8848   10696   10102    9999+
+          10103    6568    6569    6570
CTETRA      3382       1    8645    8658   10469    6149    9462    6354+
+           6571    6325    6355    6356
CTETRA      3383       1    8504   10271   10284   10285    6572   10884+
+           6573    6574   10886   10885
CTETRA      3384       1    8789    8802    8801   10637    9870    9869+
+           9868    6575    6563    6576
CTETRA      3385       1    8836    8848   10682   10695   10001    6577+
+           6578    6579    6580   12059
CTETRA      3386       1    8451   10221   10234   10235    6520   10738+
+           6223    6581   10741   10740
CTETRA      3387       1    8789   10611   10624   10625    6582   11856+
+           6583    6584   11858   11857
CTETRA      3388       1    8804   10635   10634   10648    6555   11885+
+           6585    6556   11924   11923
CTETRA      3389       1    8536   10331    8549   10345    6512    6513+
+           9153    6586   11058    6508
CTETRA      3390       1    8854   10675   10688   10689    6587   12038+
+           6588    6589   12040   12039
CTETRA      3391       1    8803   10622   10635   10636    6264   11887+
+           6590    6266   11889   11888
CTETRA      3392       1   10655   10669   10668    6146   11984   11983+
+          11982    6300    6591    6507
CTETRA      3393       1    8718   10539   10538   10552    6592   11611+
+           6593    6594   11650   11649
CTETRA      3394       1    8841   10676   10675   10689    6595   12002+
+           6596    6597   12041   12040
CTETRA      3395       1    8660    8672   10467   10480    9503    6598+
+           6599    6600    6601   11444
CTETRA      3396       1    8660   10467   10466   10480    6599   11405+
+           6421    6600   11444   11443
CTETRA      3397       1    8842   10661   10674   10675    6262   11998+
+           6268    6602   12000   11999
CTETRA      3398       1    8646   10455   10454   10468    6324   11371+
+           6603    6604   11410   11409
CTETRA      3399       1    8634   10427   10440   10441    6365   11330+
+           6605    6606   11332   11331
CTETRA      3400       1   12478   12479    8832   10686   12545   10091+
+          10090    6607    6608    6609
CTETRA      3401       1   12499   12428   12429   10392    6610   12453+
+           6611    6474   12218   12219
CTETRA      3402       1   12499   12429   12428   10379    6611   12453+
+           6610    6612   12100   12099
CTETRA      3403       1   12498   12428   12499   10406    6613    6610+
+          12525    6614   12217    6476
CTETRA      3404       1   12498   12427   12428   10406    6615   12454+
+           6613    6614   12216   12217
CTETRA      3405       1   12499   10379   12428   10393    6612   12099+
+           6610    6616   11194   12102
CTETRA      3406       1   12477   12406   12549   12298    6551    6550+
+          12547    6549   12145    8433
CTETRA      3407       1    8793    8805   10620   10633    9880    6617+
+           6434    6618    6619   11881
CTETRA      3408       1   12477   12407   12478   10700    6620    6621+
+          12546    6622   12175    6623
CTETRA      3409       1   12549   12548   12406   12311    8434   12476+
+           6550    8435   12326   12173
CTETRA      3410       1    8633   10455    8645   10456    6624    6323+
+           9426    6625   11374    6626
CTETRA      3411       1   12494   12424   12495   10462    6190    6188+
+          12529    6201   12209    6426
CTETRA      3412       1   12495    8639   10435   10449   10155    6185+
+           6189    6192    6186   11354
CTETRA      3413       1   12496   12426   12425   10421    6627   12456+
+           6197    6194   12106   12105
CTETRA      3414       1    8640   10448   10461   10462    6628   11391+
+           6629    6427   11393   11392
CTETRA      3415       1   12496   10434    8628   10448    6198    6630+
+          10057    6199   11353    6631
CTETRA      3416       1    8829    8842    8841   10675    9984    9983+
+           9982    6632    6602    6596
CTETRA      3417       1    8830   10661   10660   10674    6261   11959+
+           6633    6267   11998   11997
CTETRA      3418       1    8589   10368   10367   10381    6467   11122+
+           6634    6468   11161   11160
CTETRA      3419       1    8817    8829   10648   10661    9948    6635+
+           6636    6637    6260   11961
CTETRA      3420       1    8759   10562   10575   10576    6638   11715+
+           6639    6640   11717   11716
CTETRA      3421       1    8817   10648   10647   10661    6636   11922+
+           6641    6637   11961   11960
CTETRA      3422       1    8607   10416    8620   10430    6642    6406+
+           9354    6643   11301    6408
CTETRA      3423       1    8779   10608   10607   10621    6644   11808+
+           6645    6646   11847   11846
CTETRA      3424       1    8608    8620   10416   10429    9355    6406+
+           6647    6470    6407   11299
CTETRA      3425       1    8521   10307   10320   10321    6648   10988+
+           6649    6650   10990   10989
CTETRA      3426       1    8804   10634   10621    6151    6585   11884+
+           6651    6652    6653    6654
CTETRA      3427       1    8792    8804   10621    6151    9877    6651+
+           6655    6435    6652    6654
CTETRA      3428       1    8519   10296   10295   10309    6656   10916+
+           6657    6658   10955   10954
CTETRA      3429       1    8676    8688   10504   10517    9547    6659+
+           6660    6661    6662   11551
CTETRA      3430       1   12504   10309   12433   10323    6663   12089+
+           6664    6665   10994   12092
CTETRA      3431       1    8753    8754    8766   10595    9733    9769+
+           9768    6666    6667    6668
CTETRA      3432       1    8741   10567    8754   10568    6338    6339+
+           9734    6669   11694    6670
CTETRA      3433       1   12504    8531   10309   10323   10173    6671+
+           6663    6665    6672   10994
CTETRA      3434       1    8720   10536    8721    6154    6673    6674+
+           9640    6471    6675    6472
CTETRA      3435       1    8754   10581   10594   10595    6676   11770+
+           6677    6667   11772   11771
CTETRA      3436       1   12505    8519   10295   10309   10175    6657+
+           6678    6679    6658   10954
CTETRA      3437       1    8519    8531   10296   10309    9104    6680+
+           6656    6658    6671   10955
CTETRA      3438       1    8716    8728   10542   10555    9661    6404+
+           6681    6682    6388   11659
CTETRA      3439       1    8696   10495   10508   10509    6479   11524+
+           6347    6683   11526   11525
CTETRA      3440       1    8704    8716   10528   10541    9627    6684+
+           6685    6686    6687   11619
CTETRA      3441       1   12504   12505   12434   10309   12519    6688+
+           6689    6663    6679   12090
CTETRA      3442       1    8682   10483   10497    6156    6231   11492+
+           6233    6690    6691    6692
CTETRA      3443       1    8505   10284   10283   10297    6693   10882+
+           6694    6695   10921   10920
CTETRA      3444       1    8678   10501    8691   10515    6696    6697+
+           9555    6370   11544    6698
CTETRA      3445       1    8666   10487    8679   10501    6699    6700+
+           9521    6701   11504    6358
CTETRA      3446       1    8700   10518   10531   10532    6702   11591+
+           6703    6704   11593   11592
CTETRA      3447       1    8666   10488   10487   10501    6705   11466+
+           6699    6701   11505   11504
CTETRA      3448       1   12330   12302   12331    8851    8415    8413+
+          12341   10110    6706   10109
CTETRA      3449       1    8640   10461    8641   10475    6629    6707+
+           9413    6708   11430    6246
CTETRA      3450       1    8629    8641    8640   10461    9414    9413+
+           9412    6709    6707    6629
CTETRA      3451       1    8629   10447   10460   10461    6430   11388+
+           6432    6709   11390   11389
CTETRA      3452       1    8840   10690    8852   10691    6710    6711+
+          10013    6712   12045    6713
CTETRA      3453       1    8820   10671    8832   10672    6714    6715+
+           9955    6716   11992    6717
CTETRA      3454       1    8553    8566    8565    6153    9202    9201+
+           9200    6718    6455    6454
CTETRA      3455       1   12477   12298   12327    8855    6549    8421+
+          10118   10119    6719   10117
CTETRA      3456       1   12390   12362    8439   10221   12280    6720+
+          10207    6721   12249    6351
CTETRA      3457       1   12302    8851    8852   10691    6706   10011+
+           6722   12154    6723    6713
CTETRA      3458       1    8841   10675    8854   10689    6596    6587+
+          10018    6597   12040    6589
CTETRA      3459       1    8843   10674   10673   10687    6724   11996+
+           6725    6726   12035   12034
CTETRA      3460       1    8688    8700   10518   10531    9581    6702+
+           6727    6728    6703   11591
CTETRA      3461       1   12390    8438   12363   10221   10206    6729+
+          12281    6721    6519   12250
CTETRA      3462       1    8627    8639   10422   10435    9410    6203+
+           6730    6196    6185   11315
CTETRA      3463       1    8626   10423   10422   10436    6731   11279+
+           6732    6733   11318   11317
CTETRA      3464       1    8809    8822    8821   10670    9926    9925+
+           9924    6734    6735    6736
CTETRA      3465       1    8797    8798    8810   10642    9857    9893+
+           9892    6737    6738    6739
CTETRA      3466       1   12496    8639    8627   10435   10156    9410+
+          10157    6195    6185    6196
CTETRA      3467       1    8626    8627    8639   10422    9374    9410+
+           9409    6732    6730    6203
CTETRA      3468       1    8822   10656   10669   10670    6740   11985+
+           6269    6735   11987   11986
CTETRA      3469       1    8621    8622   10428    6152    9359    6366+
+           6415    6741    6742    6444
CTETRA      3470       1    8790   10623   10622   10636    6279   11851+
+           6263    6265   11890   11889
CTETRA      3471       1    8627   10408   10421   10422    6743   11275+
+           6193    6730   11277   11276
CTETRA      3472       1    8614    8627    8626   10408    9375    9374+
+           9373    6207    6743    6744
CTETRA      3473       1    8627   10422   10421   10435    6730   11276+
+           6193    6196   11315   11314
CTETRA      3474       1    8790   10623   10636   10637    6279   11890+
+           6265    6562   11892   11891
CTETRA      3475       1    8769   10592   10605    6157    6745   11801+
+           6746    6747    6748    6749
CTETRA      3476       1    8768    8769    8781    6157    9776    9812+
+           9811    6750    6747    6751
CTETRA      3477       1    8769    8782    8781   10605    9814    9813+
+           9812    6746    6311    6752
CTETRA      3478       1    8577    8578   10367    6158    9235    6753+
+           6754    6755    6756    6757
CTETRA      3479       1    8576   10368    8589   10382    6758    6467+
+           9267    6459   11163    6469
CTETRA      3480       1    8576   10369   10368   10382    6458   11125+
+           6758    6459   11164   11163
CTETRA      3481       1    8588    8589    8601   10382    9266    9302+
+           9301    6460    6469    6759
CTETRA      3482       1    8769   10591    8782   10605    6760    6283+
+           9814    6746   11800    6311
CTETRA      3483       1    8601   10382   10381   10395    6759   11162+
+           6761    6762   11201   11200
CTETRA      3484       1    8696   10495   10509    6145    6479   11526+
+           6683    6763    6290    6764
CTETRA      3485       1    8538   10328    8551   10342    6765    6766+
+           9159    6767   11049    6768
CTETRA      3486       1    8761    8762    8774   10600    9755    9791+
+           9790    6769    6770    6771
CTETRA      3487       1    8750   10586   10585   10599    6314   11746+
+           6772    6773   11785   11784
CTETRA      3488       1    8551   10328   10341   10342    6766   11047+
+           6774    6768   11049   11048
CTETRA      3489       1    8633    8646    8645   10455    9428    9427+
+           9426    6624    6324    6323
CTETRA      3490       1    8551   10342   10341   10355    6768   11048+
+           6774    6775   11087   11086
CTETRA      3491       1    8762    8774   10600   10613    9791    6771+
+           6770    6776    6777   11825
CTETRA      3492       1    8763   10599   10598   10612    6778   11783+
+           6779    6780   11822   11821
CTETRA      3493       1    8514   10288   10301   10302    6781   10933+
+           6782    6783   10935   10934
CTETRA      3494       1    8728    8729    8741   10555    9662    9698+
+           9697    6388    6282    6784
CTETRA      3495       1    8729    8741   10555   10568    9698    6784+
+           6282    6785    6669   11696
CTETRA      3496       1    8501    8514    8513   10288    9054    9053+
+           9052    6786    6781    6787
CTETRA      3497       1    8513   10289   10288   10302    6788   10897+
+           6787    6789   10936   10935
CTETRA      3498       1    8716    8729    8728   10555    9663    9662+
+           9661    6682    6282    6388
CTETRA      3499       1    8475    8476    8488   10262    8945    8981+
+           8980    6251    6790    6241
CTETRA      3500       1    8464    8476   10248   10261    8947    6791+
+           6792    6793    6794   10819
CTETRA      3501       1    8726   10544   10557   10558    6307   11665+
+           6795    6796   11667   11666
CTETRA      3502       1    8463   10248    6159    6160    6797    6798+
+           6799    6800    6801    6802
CTETRA      3503       1    8476   10262   10261   10275    6790   10820+
+           6794    6803   10859   10858
CTETRA      3504       1    8729   10555   10554   10568    6282   11657+
+           6281    6785   11696   11695
CTETRA      3505       1    8449   10236   10223    6161    6804   10746+
+           6249    6805    6806    6807
CTETRA      3506       1    8730    8743    8742   10566    9703    9702+
+           9701    6331    6808    6332
CTETRA      3507       1    8731   10551    8744   10565    6486    6809+
+           9706    6810   11686    6811
CTETRA      3508       1    8463   10248    8476   10262    6797    6791+
+           8946    6812   10821    6790
CTETRA      3509       1   12363   10221    8438   10222   12250    6519+
+           6729   12247   10743    6813
CTETRA      3510       1    8438    8450   10222   10235    8863    6814+
+           6813    6815    6816   10742
CTETRA      3511       1    8609   10414    8621   10415    6817    6438+
+           9358    6451   11257    6414
CTETRA      3512       1    8714   10530   10543   10544    6377   11625+
+           6818    6306   11627   11626
CTETRA      3513       1    8711   10520   10519   10533    6819   11556+
+           6820    6821   11595   11594
CTETRA      3514       1   12498    8615    8603   10407   10160    9342+
+          10161    6822    6823    6824
CTETRA      3515       1   12498    8592    8604   10406   10050    9309+
+          10053    6614    6477    6825
CTETRA      3516       1    8733   10536   10550    6154    6826   11643+
+           6827    6473    6675    6828
CTETRA      3517       1   12496    8627   12497   10421   10157   10158+
+          12527    6194    6193    6829
CTETRA      3518       1   12496   12497    8616   10434   12527   10055+
+          10054    6198    6830    6831
CTETRA      3519       1   12480   12410   12409   10645    6832   12472+
+           6833    6834   12138   12137
CTETRA      3520       1   12480   12481   12410   10645   12543    6835+
+           6832    6834    6836   12138
CTETRA      3521       1   12481   12410   12411   10644    6835   12471+
+           6837    6838   12182   12183
CTETRA      3522       1   12481   12410   10644   10658    6835   12182+
+           6838    6839   12181   11953
CTETRA      3523       1   12482   10617   12411   10631    6840   12133+
+           6841    6842   11874   12136
CTETRA      3524       1   12481   12482   12411   10631   12542    6841+
+           6837    6843    6842   12136
CTETRA      3525       1    8733   10536   10549   10550    6826   11641+
+           6844    6827   11643   11642
CTETRA      3526       1    8721   10535    8734   10549    6343    6845+
+           9678    6846   11640    6847
CTETRA      3527       1    8689   10530    8701   10531    6848    6849+
+           9584    6850   11589    6851
CTETRA      3528       1    8577   10354   10353   10367    6852   11082+
+           6853    6754   11121   11120
CTETRA      3529       1   12477   12338   12311   10700   10094    8432+
+           6552    6622    6854   12172
CTETRA      3530       1    8811    8824    8823   10668    9932    9931+
+           9930    6213    6214    6855
CTETRA      3531       1    8689   10516    8690   10530    6856    6372+
+           9551    6848   11587    6857
CTETRA      3532       1   12499    8603    8591   10393   10162    9308+
+          10163    6616    6858    6859
CTETRA      3533       1   12499    8591   12500   10379   10163   10164+
+          12524    6612    6860    6489
CTETRA      3534       1    8669   10485   10484   10498    6402   11457+
+           6861    6862   11496   11495
CTETRA      3535       1    8693   10499   10498   10512    6863   11497+
+           6864    6865   11536   11535
CTETRA      3536       1   12481   12411   12482   10644    6837    6841+
+          12542    6838   12183    6866
CTETRA      3537       1    8681   10485   10498   10499    6394   11496+
+           6867    6396   11498   11497
CTETRA      3538       1    8669    8682    8681   10498    9530    9529+
+           9528    6862    6868    6867
CTETRA      3539       1    8637    8650    8649   10451    9440    9439+
+           9438    6493    6869    6424
CTETRA      3540       1    8635    8648    8647   10453    9434    9433+
+           9432    6870    6871    6872
CTETRA      3541       1   12479   12409   12408   10659    6873   12473+
+           6874    6875   12140   12139
CTETRA      3542       1    8825    8826    8838   10666    9937    9973+
+           9972    6876    6877    6878
CTETRA      3543       1    8837    8850    8849   10680   10006   10005+
+          10004    6879    6880    6881
CTETRA      3544       1    8617    8629    8628   10447    9380    9379+
+           9378    6882    6430    6883
CTETRA      3545       1    8838   10666   10679   10680    6878   12013+
+           6884    6885   12015   12014
CTETRA      3546       1    8837   10667   10680   10681    6886   12016+
+           6879    6887   12018   12017
CTETRA      3547       1    8618    8631    8630   10445    9385    9384+
+           9383    6888    6889    6890
CTETRA      3548       1    8788    8800   10626   10639    9865    6891+
+           6892    6893    6501   11899
CTETRA      3549       1    8628    8629    8640   10461    9379    9412+
+           9411    6894    6709    6629
CTETRA      3550       1    8714    8726   10544   10557    9655    6307+
+           6306    6895    6795   11665
CTETRA      3551       1    8646    8658   10455   10468    9463    6353+
+           6324    6604    6896   11410
CTETRA      3552       1    8787    8799   10627   10640    9862    6897+
+           6898    6899    6900   11902
CTETRA      3553       1    8787    8800    8799   10640    9864    9863+
+           9862    6899    6901    6900
CTETRA      3554       1    8650    8663    8662   10450    9477    9476+
+           9475    6902    6903    6904
CTETRA      3555       1   12495   12425   12496   10448    6187    6197+
+          12528    6905   12211    6199
CTETRA      3556       1    8761   10601   10600   10614    6906   11789+
+           6769    6907   11828   11827
CTETRA      3557       1    8805   10620   10634    6151    6617   11883+
+           6908    6909    6436    6653
CTETRA      3558       1    8749   10586    8762   10600    6315    6910+
+           9756    6911   11787    6770
CTETRA      3559       1    8640    8652   10462   10475    9445    6912+
+           6427    6708    6209   11431
CTETRA      3560       1   12511    8447   10211   10225   10187    6913+
+           6914    6915    6916   10701
CTETRA      3561       1    8761   10587   10600   10601    6917   11788+
+           6769    6906   11790   11789
CTETRA      3562       1   12493   12494   12423   10463   12530    6200+
+           6918    6919    6920   12112
CTETRA      3563       1   12494   12424   12423   10449    6190   12458+
+           6200    6191   12110   12109
CTETRA      3564       1    8697    8710    8709   10521    9610    9609+
+           9608    6921    6922    6357
CTETRA      3565       1    8697   10507    8710   10521    6923    6924+
+           9610    6921   11560    6922
CTETRA      3566       1    8697   10508   10507   10521    6925   11522+
+           6923    6921   11561   11560
CTETRA      3567       1    8607    8608    8620   10416    9319    9355+
+           9354    6642    6647    6406
CTETRA      3568       1    8607    8620    8619   10430    9354    9353+
+           9352    6643    6408    6926
CTETRA      3569       1    8829   10661    8842   10675    6260    6262+
+           9984    6632   12000    6602
CTETRA      3570       1    8608   10402   10415   10416    6927   11259+
+           6450    6647   11261   11260
CTETRA      3571       1    8597   10399    8598   10413    6928    6929+
+           9291    6344   11252    6345
CTETRA      3572       1    8587    8588    8600   10383    9263    9299+
+           9298    6930    6465    6931
CTETRA      3573       1    8671    8672    8684   10481    9501    9537+
+           9536    6932    6933    6934
CTETRA      3574       1    8671   10468   10481   10482    6935   11447+
+           6932    6936   11449   11448
CTETRA      3575       1    8672   10481   10480   10494    6933   11445+
+           6601    6937   11484   11483
CTETRA      3576       1    8600   10396    8613   10410    6938    6939+
+           9335    6940   11243    6941
CTETRA      3577       1    8634   10454    8646   10455    6942    6603+
+           9429    6943   11371    6324
CTETRA      3578       1    8634   10441   10440   10454    6606   11331+
+           6605    6942   11370   11369
CTETRA      3579       1   12501    8567   10351   10365   10167    6944+
+           6945    6946    6947   11114
CTETRA      3580       1    8634   10428   10427   10441    6367   11294+
+           6365    6606   11333   11332
CTETRA      3581       1   12501    8567   12502   10351   10167   10168+
+          12522    6945    6944    6948
CTETRA      3582       1    8571    8584    8583   10388    9252    9251+
+           9250    6441    6442    6949
CTETRA      3583       1    8584   10388   10387   10401    6442   11180+
+           6950    6951   11219   11218
CTETRA      3584       1    8597   10387   10400   10401    6952   11216+
+           6953    6954   11218   11217
CTETRA      3585       1    8547   10346    8560   10360    6955    6956+
+           9184    6957   11101    6958
CTETRA      3586       1    8514   10300    8527   10314    6959    6960+
+           9091    6961   10969    6962
CTETRA      3587       1    8527    8540    8539   10327    9128    9127+
+           9126    6963    6524    6964
CTETRA      3588       1    8546   10347    8559   10361    6965    6966+
+           9181    6967   11104    6968
CTETRA      3589       1    8547    8559   10347   10360    9182    6966+
+           6969    6957    6409   11102
CTETRA      3590       1    8515   10299    8528   10313    6970    6971+
+           9094    6972   10966    6514
CTETRA      3591       1    8476    8477    8489   10261    8948    8984+
+           8983    6794    6973    6974
CTETRA      3592       1    8453   10219   10218   10232    6975   10731+
+           6976    6977   10730   10729
CTETRA      3593       1    8571   10361   10374   10375    6978   11142+
+           6439    6979   11144   11143
CTETRA      3594       1    8559   10361   10360   10374    6968   11103+
+           6409    6411   11142   11141
CTETRA      3595       1    8486   10277    8499   10291    6980    6981+
+           9011    6244   10904    6982
CTETRA      3596       1    8768   10592    8769    6157    6983    6745+
+           9776    6750    6748    6747
CTETRA      3597       1    8487   10276   10277    6148    6984   10863+
+           6985    6986    6538    6987
CTETRA      3598       1    8520    8521   10321    6162    9073    6650+
+           6988    6989    6990    6991
CTETRA      3599       1    8520   10322   10321   10335    6256   10992+
+           6988    6992   11031   11030
CTETRA      3600       1   12390    8439    8438   10221   10207    8868+
+          10206    6721    6351    6519
CTETRA      3601       1    8521   10321   10320   10334    6650   10989+
+           6649    6993   11028   11027
CTETRA      3602       1    8450   10249   10235    6160    6994   10784+
+           6816    6995    6996    6997
CTETRA      3603       1    8479   10258   10257   10271    6998   10808+
+           6999    7000   10847   10846
CTETRA      3604       1    8467    8479   10244   10257    8956    7001+
+           7002    7003    6999   10807
CTETRA      3605       1    8478    8479    8491   10258    8954    8990+
+           8989    7004    6998    7005
CTETRA      3606       1    8506   10282    8519   10296    7006    7007+
+           9069    7008   10917    6656
CTETRA      3607       1    8506    8519    8518   10296    9069    9068+
+           9067    7008    6656    7009
CTETRA      3608       1   10681   10695   10694    6163   12058   12057+
+          12056    7010    7011    7012
CTETRA      3609       1    8849   10681   10694    6163    7013   12056+
+           7014    7015    7010    7012
CTETRA      3610       1    8495    8507   10268   10281    9036    7016+
+           7017    7018    7019   10875
CTETRA      3611       1    8519   10282   10295   10296    7007   10915+
+           6657    6656   10917   10916
CTETRA      3612       1    8467   10244   10243   10257    7002   10768+
+           7020    7003   10807   10806
CTETRA      3613       1    8456    8457    8469   10228    8889    8928+
+           8927    7021    7022    7023
CTETRA      3614       1    8457    8469   10228   10241    8928    7023+
+           7022    7024    7025   10761
CTETRA      3615       1    8468   10242    8469    6164    7026    7027+
+           8926    7028    7029    7030
CTETRA      3616       1   10242   10243   10256    6164   10765   10804+
+          10803    7029    7031    7032
CTETRA      3617       1    8468   10229   10242   10243    7033   10764+
+           7026    7034   10766   10765
CTETRA      3618       1    8446   10213   10212   10226    7035   10707+
+           7036    6547   10706   10705
CTETRA      3619       1   12384   12355    8445    6165   12288    7037+
+          10195    7038    7039    7040
CTETRA      3620       1   12383   12354    8446   10213   12290    7041+
+          10193    7042   12265    7035
CTETRA      3621       1   12551   12381   12352   10211   12394   12294+
+          12297    7043    7044   12076
CTETRA      3622       1   12385   12356    8444   10215   12286    7045+
+          10197    6413   12261    7046
CTETRA      3623       1   12305   10694   10695    6163   12160   12057+
+          12161    7047    7012    7011
CTETRA      3624       1   12333   12305   10695    6163    8410   12161+
+           7048    7049    7047    7011
CTETRA      3625       1   12385    8444    8443   10215   10197    8888+
+          10196    6413    7046    7050
CTETRA      3626       1   12479   12408   10672   10686    6874   12178+
+           7051    6608   12177   12033
CTETRA      3627       1   12381    8447   12353   10211   10188    7052+
+          12293    7044    6913   12269
CTETRA      3628       1   12477   12478    8844   10700   12546   10093+
+          10092    6622    6623    7053
CTETRA      3629       1   12478    8855    8843   10687   10120   10022+
+          10121    7054    7055    6726
CTETRA      3630       1   12478    8832    8844   10686   10090    9989+
+          10093    6607    6609    7056
CTETRA      3631       1   12477   12478   12407   10687   12546    6621+
+           6620    7057    7054   12144
CTETRA      3632       1   12500   12430   12429   10365    7058   12452+
+           7059    6488   12098   12097
CTETRA      3633       1   12500   12429   12430   10378    7059   12452+
+           7058    7060   12220   12221
CTETRA      3634       1    8463    8476    8475   10262    8946    8945+
+           8944    6812    6790    6251
CTETRA      3635       1   12500   12429   10378   10392    7059   12220+
+           7060    7061   12219   11193
CTETRA      3636       1   12499   12500   12429   10379   12524    7059+
+           6611    6612    6489   12100
CTETRA      3637       1   12500   10365   12429   10379    6488   12097+
+           7059    6489   11154   12100
CTETRA      3638       1   12386   12357    8443   10216   12270    7062+
+          10199    6567   12259    7063
CTETRA      3639       1    8462    8475   10263    6159    8943    6316+
+           7064    7065    7066    7067
CTETRA      3640       1   12385   12386   12357    8443   12399   12270+
+          12271   10196   10199    7062
CTETRA      3641       1    8782    8795    8794   10618    9851    9850+
+           9849    6312    6302    7068
CTETRA      3642       1    8783    8795   10604   10617    9852    7069+
+           6305    7070    6303   11835
CTETRA      3643       1   12482    8807    8795   10631   10128    9886+
+          10129    6842    7071    6304
CTETRA      3644       1   12482    8795   10617   10631   10129    6303+
+           6840    6842    6304   11874
CTETRA      3645       1    8794    8795    8807   10618    9850    9886+
+           9885    7068    6302    7072
CTETRA      3646       1    8448   10223    8449   10237    6250    6249+
+           8859    7073   10749    7074
CTETRA      3647       1   12388    8440   12361   10219   10202    7075+
+          12275    7076    7077   12254
CTETRA      3648       1    8449   10223   10236   10237    6249   10746+
+           6804    7074   10749   10748
CTETRA      3649       1    8462    8475    8474   10263    8943    8942+
+           8941    7064    6316    7078
CTETRA      3650       1    8474   10264   10263    6166    7079   10826+
+           7078    7080    7081    7082
CTETRA      3651       1   12391   12364   12363   10222   12284   12369+
+          12285    7083   12248   12247
CTETRA      3652       1    8843    8855   10674   10687   10022    7084+
+           6724    6726    7055   12035
CTETRA      3653       1   12364   10223   10222    6161   12245   10747+
+          12248    7085    6807    7086
CTETRA      3654       1   12327    8854    8855   10688   10116   10020+
+          10117    6553    6588    7087
CTETRA      3655       1    8683    8684    8696    6145    9535    9571+
+           9570    6289    6291    6763
CTETRA      3656       1    8855   10674   10687   10688    7084   12035+
+           7055    7087   12037   12036
CTETRA      3657       1   12478   10686    8844   10700    6607    7056+
+          10093    6623   12073    7053
CTETRA      3658       1   12336    8845   10698    6167   10098    7088+
+           7089    7090    7091    7092
CTETRA      3659       1   12299    8854   10688   10689    7093    6588+
+          12148   12149    6589   12039
CTETRA      3660       1   12478   12407   10686   10700    6621   12176+
+           6607    6623   12175   12073
CTETRA      3661       1   12329   12301   12330    8852    8418    8417+
+          12343   10112    7094   10111
CTETRA      3662       1    8825   10666    8837   10667    6876    7095+
+           9970    7096   11977    6886
CTETRA      3663       1    8824   10654   10667   10668    6212   11979+
+           7097    6214   11981   11980
CTETRA      3664       1   12500   12430   12501   10378    7058    7098+
+          12523    7060   12221    7099
CTETRA      3665       1    8812   10653    8825   10667    7100    7101+
+           9935    7102   11978    7096
CTETRA      3666       1    8493    8505   10270   10283    9030    7103+
+           7104    7105    6694   10881
CTETRA      3667       1    8804   10621   10634   10635    6651   11884+
+           6585    6555   11886   11885
CTETRA      3668       1    8816   10635   10648   10649    6554   11924+
+           6557    7106   11926   11925
CTETRA      3669       1    8766   10595   10594   10608    6668   11771+
+           7107    7108   11810   11809
CTETRA      3670       1    8778   10596   10595   10609    7109   11774+
+           7110    6276   11813   11812
CTETRA      3671       1   12497   12498   12427   10407   12526    6615+
+           7111    7112    6822   12104
CTETRA      3672       1    8830   10660    8843   10674    6633    7113+
+           9987    6267   11997    6724
CTETRA      3673       1    8830    8843    8842   10674    9987    9986+
+           9985    6267    6724    6268
CTETRA      3674       1    8755   10580   10579   10593    6447   11728+
+           7114    6448   11767   11766
CTETRA      3675       1    8817   10647    8830   10661    6641    7115+
+           9950    6637   11960    6261
CTETRA      3676       1    8830   10647   10660   10661    7115   11958+
+           6633    6261   11960   11959
CTETRA      3677       1    8818    8831    8830   10660    9953    9952+
+           9951    7116    7117    6633
CTETRA      3678       1    8818    8830   10647   10660    9951    7115+
+           7118    7116    6633   11958
CTETRA      3679       1    8766   10594    8779   10608    7107    7119+
+           9805    7108   11809    6644
CTETRA      3680       1   12493    8663   10463   10477   10151    7120+
+           6919    7121    7122   11434
CTETRA      3681       1    8831   10660   10659    6168    7117   11956+
+           7123    7124    7125    7126
CTETRA      3682       1    8766    8778   10595   10608    9803    7110+
+           6668    7108    7127   11810
CTETRA      3683       1   12333   10695    8848    6163    7048    6580+
+          10104    7049    7011    7128
CTETRA      3684       1    8819    8831   10646   10659    9954    7129+
+           7130    7131    7123   11955
CTETRA      3685       1   12480    8831    8819   10659   10124    9954+
+          10125    7132    7123    7131
CTETRA      3686       1    8831   10646   10659   10660    7129   11955+
+           7123    7117   11957   11956
CTETRA      3687       1    8749    8761   10587   10600    9754    6917+
+           7133    6911    6769   11788
CTETRA      3688       1    8748    8749    8760   10587    9719    9752+
+           9751    7134    7133    7135
CTETRA      3689       1    8793   10620   10619   10633    6434   11842+
+           7136    6618   11881   11880
CTETRA      3690       1    8780    8793    8792   10620    9845    9844+
+           9843    7137    6434    6433
CTETRA      3691       1    8792    8793    8805    6151    9844    9880+
+           9879    6435    6437    6909
CTETRA      3692       1   12329    8853   10689   10690   10113    7138+
+           7139    7140    7141   12042
CTETRA      3693       1    8748   10587    8760   10588    7134    7135+
+           9751    7142   11752    7143
CTETRA      3694       1    8748   10574   10573   10587    7144   11712+
+           7145    7134   11751   11750
CTETRA      3695       1    8816   10648    8829   10662    6557    6635+
+           9947    7146   11963    7147
CTETRA      3696       1    8841    8854    8853   10689   10018   10017+
+          10016    6597    6589    7138
CTETRA      3697       1    8754   10580    8767   10594    7148    6446+
+           9771    6677   11769    7149
CTETRA      3698       1    8718   10526   10525   10539    7150   11574+
+           7151    6592   11613   11612
CTETRA      3699       1    8754    8755    8767   10580    9736    9772+
+           9771    7148    6447    6446
CTETRA      3700       1    8754   10594    8766   10595    6677    7107+
+           9769    6667   11771    6668
CTETRA      3701       1    8754   10567   10580   10581    6339   11730+
+           7148    6676   11732   11731
CTETRA      3702       1    8734   10548    8747   10562    7152    7153+
+           9715    7154   11677    7155
CTETRA      3703       1   12382   12353    8447   10212   12292    7052+
+          10191    7156   12267    7157
CTETRA      3704       1    8705   10526    8717   10527    7158    7159+
+           9630    7160   11577    7161
CTETRA      3705       1    8717   10527   10526   10540    7161   11577+
+           7159    6292   11616   11615
CTETRA      3706       1    8729   10540   10553   10554    6294   11653+
+           7162    6281   11655   11654
CTETRA      3707       1   12389    8439   12362   10220   10204    6720+
+          12279    7163    6352   12252
CTETRA      3708       1    8718   10539    8730   10540    6592    7164+
+           9667    7165   11614    6293
CTETRA      3709       1    8734    8746   10549   10562    9713    7166+
+           6847    7154    7167   11678
CTETRA      3710       1    8680   10500   10499   10513    7168   11500+
+           7169    7170   11539   11538
CTETRA      3711       1    8692    8704   10514   10527    9593    7171+
+           7172    7173    7174   11579
CTETRA      3712       1    8679   10500    8692   10514    6359    7175+
+           9558    6360   11541    7172
CTETRA      3713       1    8667   10487   10486   10500    7176   11463+
+           7177    7178   11502   11501
CTETRA      3714       1    8667    8680    8679   10500    9524    9523+
+           9522    7178    7168    6359
CTETRA      3715       1    8681   10498    8693   10499    6867    6864+
+           9562    6396   11497    6863
CTETRA      3716       1    8680    8692   10500   10513    9559    7175+
+           7168    7170    7179   11539
CTETRA      3717       1    8684   10494    8697   10508    7180    7181+
+           9573    6480   11523    6925
CTETRA      3718       1    8697   10494   10507   10508    7181   11521+
+           6923    6925   11523   11522
CTETRA      3719       1    8641    8642    8654   10460    9415    9451+
+           9450    7182    7183    7184
CTETRA      3720       1    8684   10495   10494   10508    6288   11485+
+           7180    6480   11524   11523
CTETRA      3721       1    8641    8654    8653   10474    9450    9449+
+           9448    6478    7185    6428
CTETRA      3722       1    8629    8642    8641   10460    9416    9415+
+           9414    6432    7183    7182
CTETRA      3723       1    8642   10460   10459   10473    7183   11386+
+           7186    7187   11425   11424
CTETRA      3724       1    8474   10263    8475    6166    7078    6316+
+           8942    7080    7082    7188
CTETRA      3725       1    8642   10446   10459   10460    7189   11385+
+           7186    7183   11387   11386
CTETRA      3726       1   12511    8459    8447   10225   10186    8899+
+          10187    6915    6543    6916
CTETRA      3727       1    8659   10454   10467   10468    7190   11407+
+           7191    7192   11409   11408
CTETRA      3728       1    8604   10419    8616   10420    7193    7194+
+           9343    7195   11272    7196
CTETRA      3729       1    8446    8447    8459   10212    8900    8899+
+           8898    7036    7157    6546
CTETRA      3730       1    8590    8602   10381   10394    9305    7197+
+           7198    7199    7200   11198
CTETRA      3731       1   12498   10406    8604   10420    6614    6825+
+          10053    7201   11273    7195
CTETRA      3732       1    8604   10406   10419   10420    6825   11271+
+           7193    7195   11273   11272
CTETRA      3733       1    8810    8811   10655    6169    9894    6298+
+           7202    7203    7204    7205
CTETRA      3734       1    8600   10383   10396   10397    6931   11204+
+           6938    7206   11206   11205
CTETRA      3735       1    8588   10382    8601   10396    6460    6759+
+           9301    6466   11203    7207
CTETRA      3736       1    8447    8459   10212   10225    8899    6546+
+           7157    6916    6543   10702
CTETRA      3737       1   12495   12424   10448   10462    6188   12210+
+           6905    6426   12209   11393
CTETRA      3738       1    8571    8583   10375   10388    9250    7208+
+           6979    6441    6949   11182
CTETRA      3739       1    8590   10381   10380   10394    7198   11159+
+           7209    7199   11198   11197
CTETRA      3740       1    8589   10381    8601   10382    6468    6761+
+           9302    6469   11162    6759
CTETRA      3741       1    8583    8596    8595   10402    9286    9285+
+           9284    7210    7211    7212
CTETRA      3742       1    8583    8584    8596   10388    9251    9287+
+           9286    6949    6442    7213
CTETRA      3743       1    8551    8552    8564   10341    9161    9197+
+           9196    6774    7214    7215
CTETRA      3744       1    8539    8552    8551   10341    9162    9161+
+           9160    7216    7214    6774
CTETRA      3745       1    8539    8551   10328   10341    9160    6766+
+           7217    7216    6774   11047
CTETRA      3746       1    8488    8489    8501   10275    8982    9018+
+           9017    6239    7218    7219
CTETRA      3747       1    8552   10341   10340   10354    7214   11045+
+           7220    7221   11084   11083
CTETRA      3748       1    8526   10302   10301   10315    7222   10934+
+           7223    7224   10973   10972
CTETRA      3749       1    8563    8564    8576   10355    9195    9231+
+           9230    6216    7225    7226
CTETRA      3750       1    8576   10355   10368   10369    7226   11124+
+           6758    6458   11126   11125
CTETRA      3751       1    8563   10342   10356    6170    7227   11089+
+           6215    7228    7229    7230
CTETRA      3752       1    8514   10287   10300   10301    7231   10930+
+           6959    6782   10932   10931
CTETRA      3753       1    8476    8489    8488   10275    8983    8982+
+           8981    6803    7218    6239
CTETRA      3754       1    8477   10247   10260   10261    7232   10816+
+           7233    6973   10818   10817
CTETRA      3755       1   12478   12479   12408    8843   12545    6874+
+           7234   10121   10122    7235
CTETRA      3756       1    8464   10248   10247   10261    6792   10780+
+           7236    6793   10819   10818
CTETRA      3757       1    8476   10248   10261   10262    6791   10819+
+           6794    6790   10821   10820
CTETRA      3758       1    8477   10260    8489   10261    7233    7237+
+           8984    6973   10817    6974
CTETRA      3759       1    8574    8575    8587   10370    9226    9262+
+           9261    7238    7239    7240
CTETRA      3760       1    8539   10328   10327   10341    7217   11008+
+           6964    7216   11047   11046
CTETRA      3761       1    8563   10342   10355   10356    7227   11087+
+           6216    6215   11089   11088
CTETRA      3762       1   12496   12426   12497   10434    6627    7241+
+          12527    6198   12213    6830
CTETRA      3763       1   12497   10420    8616   10434    7242    7196+
+          10055    6830   11313    6831
CTETRA      3764       1   12497    8604    8616   10420   10052    9343+
+          10055    7242    7195    7196
CTETRA      3765       1   10262   10263   10276    6148   10823   10862+
+          10861    6319    6318    6538
CTETRA      3766       1   12497    8615   10407   10421   10159    6823+
+           7112    6829    7243   11274
CTETRA      3767       1   12495   12496   12425   10435   12528    6197+
+           6187    6189    6195   12108
CTETRA      3768       1   12477   12406   12298   10687    6551   12145+
+           6549    7057   12143   12146
CTETRA      3769       1   12338    8844   12310   10700   10095    7244+
+           8431    6854    7053   12171
CTETRA      3770       1    8558   10348   10361   10362    7245   11105+
+           7246    7247   11107   11106
CTETRA      3771       1    8533   10334    8546   10348    7248    7249+
+           9144    7250   11067    7251
CTETRA      3772       1   12483    8783   10603   10617   10131    7252+
+           7253    7254    7070   11834
CTETRA      3773       1   12482   12411   10630   10644    6841   12184+
+           7255    6866   12183   11913
CTETRA      3774       1   12481   12411   12410   10631    6837   12471+
+           6835    6843   12136   12135
CTETRA      3775       1   12483    8795    8783   10617   10130    9852+
+          10131    7254    6303    7070
CTETRA      3776       1   10248   10249   10262    6159   10783   10822+
+          10821    6798    7256    7257
CTETRA      3777       1    8533    8534    8546   10334    9109    9145+
+           9144    7248    7258    7249
CTETRA      3778       1    8475    8488    8487   10276    8980    8979+
+           8978    6252    6238    6984
CTETRA      3779       1    8803    8815   10636   10649    9908    7259+
+           6266    7260    7261   11927
CTETRA      3780       1    8803   10635    8816   10649    6590    6554+
+           9910    7260   11926    7106
CTETRA      3781       1   12496   12497   12426   10421   12527    7241+
+           6627    6194    6829   12106
CTETRA      3782       1    8814    8827    8826   10664    9941    9940+
+           9939    7262    7263    7264
CTETRA      3783       1    8815    8827   10650   10663    9942    7265+
+           7266    7267    7268   11967
CTETRA      3784       1    8811   10668    8823    6146    6213    6855+
+           9930    6299    6507    7269
CTETRA      3785       1    8815   10650   10649   10663    7266   11928+
+           7261    7267   11967   11966
CTETRA      3786       1    8774   10613    8787   10627    6777    7270+
+           9827    7271   11864    6898
CTETRA      3787       1    8787   10613   10626   10627    7270   11862+
+           7272    6898   11864   11863
CTETRA      3788       1    8526   10315   10328   10329    7224   11010+
+           7273    7274   11012   11011
CTETRA      3789       1    8462    6159   10249    6160    7065    7256+
+           7275    7276    6802    6996
CTETRA      3790       1    8763    8776    8775   10612    9796    9795+
+           9794    6780    7277    7278
CTETRA      3791       1    8762    8763    8775   10599    9758    9794+
+           9793    7279    6778    7280
CTETRA      3792       1    8774    8787    8786   10627    9827    9826+
+           9825    7271    6898    7281
CTETRA      3793       1    8787   10613   10612   10626    7270   11823+
+           7282    7272   11862   11861
CTETRA      3794       1    8526   10328    8538   10329    7273    6765+
+           9123    7274   11011    6533
CTETRA      3795       1    8492   10270    8505   10284    7283    7103+
+           9029    7284   10883    6693
CTETRA      3796       1    8734   10535   10548   10549    6845   11638+
+           7152    6847   11640   11639
CTETRA      3797       1    8503    8515   10286   10299    9058    7285+
+           7286    7287    6970   10927
CTETRA      3798       1    8722   10535   10534   10548    7288   11599+
+           7289    7290   11638   11637
CTETRA      3799       1    8488    8500   10276   10289    9015    6235+
+           6238    6240    7291   10899
CTETRA      3800       1    8734    8747    8746   10562    9715    9714+
+           9713    7154    7155    7167
CTETRA      3801       1    8733    8734    8746   10549    9677    9713+
+           9712    6844    6847    7166
CTETRA      3802       1    8488    8501    8500   10289    9017    9016+
+           9015    6240    7292    7291
CTETRA      3803       1    8693    8694    8706   10511    9563    9599+
+           9598    7293    7294    7295
CTETRA      3804       1    8501   10275   10288   10289    7219   10896+
+           6786    7292   10898   10897
CTETRA      3805       1    8694    8706   10511   10524    9599    7295+
+           7294    7296    7297   11570
CTETRA      3806       1    8682    8694   10497   10510    9565    7298+
+           6233    7299    7300   11530
CTETRA      3807       1    8489   10261   10274   10275    6974   10856+
+           7301    7218   10858   10857
CTETRA      3808       1    8654    8666   10474   10487    9485    7302+
+           7185    7303    6699   11465
CTETRA      3809       1    8654   10473    8667   10487    7304    7305+
+           9487    7303   11464    7176
CTETRA      3810       1    8487    8500    8499   10276    9014    9013+
+           9012    6984    6235    6234
CTETRA      3811       1    8482    8494   10255   10268    8999    7306+
+           7307    7308    7309   10838
CTETRA      3812       1    8641   10460    8654   10474    7182    7184+
+           9450    6478   11427    7185
CTETRA      3813       1    8701   10545   10531    6150    7310   11630+
+           6851    7311    6560    7312
CTETRA      3814       1   10531   10545   10544    6150   11630   11629+
+          11628    7312    6560    6380
CTETRA      3815       1    8654   10460   10473   10474    7184   11425+
+           7304    7185   11427   11426
CTETRA      3816       1    8601    8613   10396   10409    9336    6939+
+           7207    7313    7314   11241
CTETRA      3817       1    8613   10409    8626   10423    7314    7315+
+           9372    7316   11280    6731
CTETRA      3818       1    8566   10353   10352   10366    6452   11079+
+           7317    7318   11118   11117
CTETRA      3819       1   12392   12365   12364    8436   12283   12368+
+          12282   10025    7319    7320
CTETRA      3820       1    8612    8613    8625   10410    9334    9370+
+           9369    7321    6941    7322
CTETRA      3821       1    8566   10353   10366    6158    6452   11118+
+           7318    7323    7324    7325
CTETRA      3822       1    8520   10321    8521   10335    6988    6650+
+           9073    6992   11030    7326
CTETRA      3823       1    8601    8614    8613   10409    9338    9337+
+           9336    7313    7327    7314
CTETRA      3824       1    8438   10222    8450    6161    6813    6814+
+           8863    7328    7086    7329
CTETRA      3825       1    8560   10359    8573   10373    7330    7331+
+           9221    6390   11138    6391
CTETRA      3826       1    8572    8573    8585   10373    9220    9256+
+           9255    6392    6391    7332
CTETRA      3827       1    8455    8456    8468   10229    8885    8925+
+           8924    7333    7334    7033
CTETRA      3828       1    8573   10373   10372   10386    6391   11137+
+           7335    7336   11176   11175
CTETRA      3829       1    8491   10272   10271   10285    7337   10848+
+           7338    7339   10887   10886
CTETRA      3830       1    8478   10258    8491   10272    7004    7005+
+           8989    7340   10849    7337
CTETRA      3831       1    8483   10240   10253   10254    7341   10795+
+           7342    7343   10797   10796
CTETRA      3832       1    8796   10630   10643   10644    7344   11911+
+           7345    7346   11913   11912
CTETRA      3833       1   12497   12426   10420   10434    7241   12214+
+           7242    6830   12213   11313
CTETRA      3834       1    8437    8438    8450    6161    8864    8863+
+           8862    7347    7328    7329
CTETRA      3835       1   10256   10257   10270    6171   10805   10844+
+          10843    7348    7349    7350
CTETRA      3836       1   12510   10238    8460   10252    7351    7352+
+          10029    7353   10793    7354
CTETRA      3837       1    8492    8505    8504   10284    9029    9028+
+           9027    7284    6693    6573
CTETRA      3838       1    8479    8480    8492   10257    8957    8993+
+           8992    6999    7355    7356
CTETRA      3839       1    8492    8493   10270    6171    8994    7104+
+           7283    7357    7358    7350
CTETRA      3840       1   12510    8471    8459   10239   10184    8934+
+          10185    6545    6542    6541
CTETRA      3841       1    8458    8471    8470   10240    8933    8932+
+           8931    7359    7360    7361
CTETRA      3842       1    8451    8452    8464   10234    8869    8913+
+           8912    6223    6222    7362
CTETRA      3843       1    8464   10234   10247   10248    7362   10779+
+           7236    6792   10781   10780
CTETRA      3844       1    8452   10234   10233   10247    6222   10736+
+           7363    7364   10779   10778
CTETRA      3845       1    8452    8464   10234   10247    8913    7362+
+           6222    7364    7236   10779
CTETRA      3846       1    8550    8551    8563    6170    9158    9194+
+           9193    7365    7366    7228
CTETRA      3847       1    8452   10220   10233   10234    7367   10734+
+           7363    6222   10737   10736
CTETRA      3848       1    8440    8441    8453   10219    8876    8875+
+           8874    7077    7368    6975
CTETRA      3849       1    8470    8483    8482   10254    8967    8966+
+           8965    7369    7343    7370
CTETRA      3850       1    8440   10219    8453   10233    7077    6975+
+           8874    7371   10733    7372
CTETRA      3851       1   12336   10698   12309    6167    7089   12168+
+           8428    7090    7092    7373
CTETRA      3852       1   12337   12309   12310    6167    8429   12323+
+           8430    7374    7373    7375
CTETRA      3853       1    8551   10342    8563    6170    6768    7227+
+           9194    7366    7229    7228
CTETRA      3854       1   12479   10659   12408    6168    6875   12139+
+           6874    7376    7126    7377
CTETRA      3855       1    8818   10647   10646   10660    7118   11919+
+           7378    7116   11958   11957
CTETRA      3856       1    8828   10662    8841   10676    7379    7380+
+           9981    7381   12003    6595
CTETRA      3857       1    8840   10663   10676   10677    7382   12004+
+           7383    7384   12006   12005
CTETRA      3858       1    8829   10648   10661   10662    6635   11961+
+           6260    7147   11963   11962
CTETRA      3859       1   12479   10672    8832   10686    7051    6717+
+          10091    6608   12033    6609
CTETRA      3860       1   12390   12363   12362   10221   12281   12370+
+          12280    6721   12250   12249
CTETRA      3861       1    8537    8538    8550    6155    9121    9157+
+           9156    7385    6535    6537
CTETRA      3862       1    8811   10654   10655    6169    6211   11943+
+           6298    7204    7386    7205
CTETRA      3863       1   12391   12364   10222    6161   12284   12248+
+           7083    7387    7085    7086
CTETRA      3864       1    8821   10671   10670    6172    7388   11989+
+           6736    7389    7390    7391
CTETRA      3865       1    8823    8835   10669   10682    9964    6270+
+           7392    7393    7394   12022
CTETRA      3866       1    8823   10669   10668   10682    7392   11983+
+           6855    7393   12022   12021
CTETRA      3867       1   12493   12423   12494   10476    6918    6200+
+          12530    6227   12207    6202
CTETRA      3868       1    8788    8789    8801   10625    9832    9868+
+           9867    7395    6584    7396
CTETRA      3869       1   12478   12407   12408   10686    6621   12474+
+           7234    6607   12176   12177
CTETRA      3870       1   12495   12424   12425   10448    6188   12457+
+           6187    6905   12210   12211
CTETRA      3871       1    8640   10462   10461   10475    6427   11392+
+           6629    6708   11431   11430
CTETRA      3872       1    8640    8641    8652   10475    9413    9446+
+           9445    6708    6246    6209
CTETRA      3873       1   12494   10462    8652   10476    6201    6912+
+          10061    6202   11433    6208
CTETRA      3874       1    8789   10637    8801   10638    6575    6576+
+           9868    7397   11894    7398
CTETRA      3875       1   12493   12422   12423   10476    7399   12459+
+           6918    6227   12206   12207
CTETRA      3876       1    8628   10448   10447   10461    6631   11352+
+           6883    6894   11391   11390
CTETRA      3877       1    8777   10623    8789   10624    6526    7400+
+           9834    7401   11854    6583
CTETRA      3878       1   12337   12310   12338    8845    8430    8431+
+          12349   10097    7402   10096
CTETRA      3879       1    8771    8783   10590   10603    9818    7403+
+           7404    7405    7252   11795
CTETRA      3880       1   12338   12310    8844    8845    8431    7244+
+          10095   10096    7402    9991
CTETRA      3881       1   12508   12438   12509   10266    7406    7407+
+          12515    7408   12237    7409
CTETRA      3882       1    8781   10605   10606    6157    6752   11802+
+           6296    6751    6749    7410
CTETRA      3883       1   12482   12412   12411   10617    7411   12470+
+           6841    6840   12134   12133
CTETRA      3884       1    8769   10605    8781    6157    6746    6752+
+           9812    6747    6749    6751
CTETRA      3885       1    8780   10606    8793   10620    6295    6297+
+           9845    7137   11843    6434
CTETRA      3886       1   12310   10699    8845    6167   12170    7412+
+           7402    7375    7413    7091
CTETRA      3887       1    8793    8794    8806   10619    9847    9883+
+           9882    7136    7414    7415
CTETRA      3888       1   12310    8844    8845   10699    7244    9991+
+           7402   12170    7416    7412
CTETRA      3889       1   12299    8854   10689    6173    7093    6589+
+          12149    7417    7418    7419
CTETRA      3890       1   10564   10578   10577    6174   11723   11722+
+          11721    7420    7421    7422
CTETRA      3891       1    8781    8782    8794   10605    9813    9849+
+           9848    6752    6311    7423
CTETRA      3892       1    8772   10615    8784   10616    7424    7425+
+           9819    7426   11832    7427
CTETRA      3893       1   10484   10498   10497    6156   11495   11494+
+          11493    7428    7429    6692
CTETRA      3894       1    8838    8851    8850   10692   10009   10008+
+          10007    7430    7431    7432
CTETRA      3895       1    8826   10665    8838   10666    7433    7434+
+           9973    6877   11974    6878
CTETRA      3896       1    8773   10614    8786   10628    7435    7436+
+           9824    7437   11867    7438
CTETRA      3897       1    8762   10586   10599   10600    6910   11785+
+           7279    6770   11787   11786
CTETRA      3898       1    8788   10625    8801   10639    7395    7396+
+           9867    6893   11898    6502
CTETRA      3899       1    8774   10614   10613   10627    7439   11826+
+           6777    7271   11865   11864
CTETRA      3900       1    8800   10626   10639   10640    6891   11899+
+           6501    6901   11901   11900
CTETRA      3901       1   10329   10330   10343    6155   11014   11053+
+          11052    6536    7440    7441
CTETRA      3902       1    8801   10639   10638   10652    6502   11897+
+           7398    7442   11936   11935
CTETRA      3903       1    8762   10600   10599   10613    6770   11786+
+           7279    6776   11825   11824
CTETRA      3904       1    8741   10555   10568   10569    6784   11696+
+           6669    7443   11698   11697
CTETRA      3905       1    8549    8550   10343    6155    9155    7444+
+           7445    7446    6537    7441
CTETRA      3906       1    8549   10343   10344    6155    7445   11054+
+           6509    7446    7441    7447
CTETRA      3907       1    8774   10600   10613   10614    6771   11825+
+           6777    7439   11827   11826
CTETRA      3908       1    8750    8762   10586   10599    9757    6910+
+           6314    6773    7279   11785
CTETRA      3909       1    8537    8549   10344    6155    9154    6509+
+           6511    7385    7446    7447
CTETRA      3910       1    8740    8741    8753   10569    9696    9732+
+           9731    6398    7443    7448
CTETRA      3911       1    8736   10559    8737   10573    7449    7450+
+           9685    7451   11710    7452
CTETRA      3912       1    8725    8737   10559    6175    9686    7450+
+           7453    7454    7455    7456
CTETRA      3913       1    8728   10555    8741   10569    6388    6784+
+           9697    6389   11698    7443
CTETRA      3914       1    8537    8550    8549    6155    9156    9155+
+           9154    7385    6537    7446
CTETRA      3915       1    8724   10545    8725   10559    6363    7457+
+           9651    7458   11670    7453
CTETRA      3916       1    8724   10546   10559   10560    7459   11671+
+           7458    7460   11673   11672
CTETRA      3917       1    8752   10583    8765   10597    7461    7462+
+           9765    7463   11778    7464
CTETRA      3918       1    8740    8753    8752   10583    9731    9730+
+           9729    7465    7466    7461
CTETRA      3919       1    8741    8754    8753   10568    9734    9733+
+           9732    6669    6670    7467
CTETRA      3920       1    8710   10520    8723   10534    7468    7469+
+           9647    7470   11597    7471
CTETRA      3921       1    8508    8520   10308    6162    9071    6254+
+           7472    7473    6989    7474
CTETRA      3922       1    8709    8710    8722   10521    9609    9645+
+           9644    6357    6922    7475
CTETRA      3923       1    8710   10507   10520   10521    6924   11558+
+           7468    6922   11560   11559
CTETRA      3924       1    8722   10521   10534   10535    7475   11598+
+           7289    7288   11600   11599
CTETRA      3925       1    8710   10521   10520   10534    6922   11559+
+           7468    7470   11598   11597
CTETRA      3926       1    8719    8720    8732   10537    9637    9673+
+           9672    7476    7477    7478
CTETRA      3927       1    8695    8708    8707   10523    9604    9603+
+           9602    7479    7480    7481
CTETRA      3928       1    8708    8721    8720   10536    9641    9640+
+           9639    7482    6674    6673
CTETRA      3929       1    8677   10503   10516   10517    7483   11548+
+           7484    7485   11550   11549
CTETRA      3930       1    8660   10466    8673   10480    6421    6422+
+           9505    6600   11443    7486
CTETRA      3931       1    8672    8673    8685   10480    9504    9540+
+           9539    6601    7486    7487
CTETRA      3932       1    8673    8686    8685   10493    9542    9541+
+           9540    7488    7489    7490
CTETRA      3933       1    8689    8701    8700   10531    9584    9583+
+           9582    6850    6851    6703
CTETRA      3934       1    8676    8677    8688   10517    9515    9548+
+           9547    6661    7485    6662
CTETRA      3935       1    8635   10426   10439   10440    7491   11327+
+           7492    7493   11329   11328
CTETRA      3936       1    8635   10440   10439   10453    7493   11328+
+           7492    6870   11367   11366
CTETRA      3937       1    8690   10502   10515   10516    6368   11545+
+           6371    6372   11547   11546
CTETRA      3938       1    8677    8678    8690   10502    9517    9553+
+           9552    7494    6369    6368
CTETRA      3939       1    8701    8713    8712   10545    9618    9617+
+           9616    7310    6362    6361
CTETRA      3940       1    8508   10308   10307    6162    7472   10952+
+           7495    7473    7474    7496
CTETRA      3941       1    8508   10307    8509    6162    7495    7497+
+           9039    7473    7496    7498
CTETRA      3942       1    8655   10472    8668   10486    7499    7500+
+           9490    7501   11461    7502
CTETRA      3943       1    8659    8672    8671   10481    9502    9501+
+           9500    7503    6933    6932
CTETRA      3944       1    8656    8668   10472   10485    9491    7500+
+           7504    6401    6393   11459
CTETRA      3945       1    8667    8668    8680   10486    9489    9525+
+           9524    7177    7502    7505
CTETRA      3946       1    8656    8657    8669   10471    9458    9494+
+           9493    6399    7506    6400
CTETRA      3947       1    8559   10347   10360   10361    6966   11102+
+           6409    6968   11104   11103
CTETRA      3948       1    8647    8660    8659   10467    9468    9467+
+           9466    7507    6599    7191
CTETRA      3949       1    8522   10320   10319    6176    7508   10986+
+           7509    7510    7511    7512
CTETRA      3950       1    8522    8534   10320    6176    9111    7513+
+           7508    7510    7514    7511
CTETRA      3951       1    8508    8509    8520    6162    9039    9072+
+           9071    7473    7498    6989
CTETRA      3952       1    8509   10306    8522   10320    7515    7516+
+           9076    7517   10987    7508
CTETRA      3953       1    8684   10481   10494   10495    6934   11484+
+           7180    6288   11486   11485
CTETRA      3954       1    8521   10321   10334   10335    6650   11028+
+           6993    7326   11030   11029
CTETRA      3955       1    8673   10466   10479   10480    6422   11441+
+           7518    7486   11443   11442
CTETRA      3956       1    8457    8470    8469   10241    8930    8929+
+           8928    7024    7519    7025
CTETRA      3957       1    8469   10228   10241   10242    7023   10761+
+           7025    7027   10763   10762
CTETRA      3958       1    8660    8673    8672   10480    9505    9504+
+           9503    6600    7486    6601
CTETRA      3959       1    8470   10241   10240   10254    7519   10759+
+           7361    7369   10798   10797
CTETRA      3960       1    8649    8661   10452   10465    9472    6418+
+           6423    6425    7520   11401
CTETRA      3961       1    8661   10466   10465   10479    6420   11402+
+           7520    7521   11441   11440
CTETRA      3962       1   12496   12425   12426   10434    6197   12456+
+           6627    6198   12212   12213
CTETRA      3963       1   12383    8445   12355   10213   10192    7037+
+          12289    7042    7522   12266
CTETRA      3964       1    8631   10444    8644   10458    7523    7524+
+           9422    7525   11381    7526
CTETRA      3965       1    8520    8532   10322   10335    9105    7527+
+           6256    6992    7528   11031
CTETRA      3966       1   12501   12431   12430   10351    7529   12451+
+           7098    6945   12096   12095
CTETRA      3967       1   12478   12408   12407   10673    7234   12474+
+           6621    7530   12142   12141
CTETRA      3968       1   12501   12430   12431   10364    7098   12451+
+           7529    7531   12222   12223
CTETRA      3969       1   12501   12430   10364   10378    7098   12222+
+           7531    7099   12221   11153
CTETRA      3970       1   12500   12501   12430   10365   12523    7098+
+           7058    6488    6946   12098
CTETRA      3971       1   12501   10351   12430   10365    6945   12095+
+           7098    6946   11114   12098
CTETRA      3972       1    8732    8733   10550    6154    9674    6827+
+           7532    7533    6473    6828
CTETRA      3973       1    8835    8847   10683   10696    9998    7534+
+           6272    7535    6569   12062
CTETRA      3974       1    8835    8848    8847   10696   10000    9999+
+           9998    7535    6570    6569
CTETRA      3975       1    8532   10322   10335   10336    7527   11031+
+           7528    7536   11033   11032
CTETRA      3976       1    8823   10668    8836   10682    6855    7537+
+           9966    7393   12021    6578
CTETRA      3977       1    8834   10683    8847   10697    7538    7534+
+           9997    7539   12064    7540
CTETRA      3978       1    8835   10683   10682   10696    6272   12023+
+           7394    7535   12062   12061
CTETRA      3979       1    8822    8823    8835   10669    9928    9964+
+           9963    6269    7392    6270
CTETRA      3980       1    8633   10429   10442   10443    7541   11336+
+           7542    7543   11338   11337
CTETRA      3981       1    8608   10416   10415   10429    6647   11260+
+           6450    6470   11299   11298
CTETRA      3982       1    8781    8794    8793   10619    9848    9847+
+           9846    7544    7414    7136
CTETRA      3983       1    8581   10390    8594   10404    7545    7546+
+           9280    7547   11227    7548
CTETRA      3984       1    8781   10605    8794   10619    6752    7423+
+           9848    7544   11840    7414
CTETRA      3985       1    8782   10604    8795   10618    6286    7069+
+           9851    6312   11837    6302
CTETRA      3986       1   10536   10537   10550    6154   11605   11644+
+          11643    6675    7549    6828
CTETRA      3987       1    8574   10370    8587   10384    7238    7240+
+           9261    7550   11169    7551
CTETRA      3988       1    8574    8587    8586   10384    9261    9260+
+           9259    7550    7551    7552
CTETRA      3989       1    8586    8587    8599   10384    9260    9296+
+           9295    7552    7551    7553
CTETRA      3990       1    8587   10383    8600   10397    6930    6931+
+           9298    7554   11206    7206
CTETRA      3991       1    8726   10544   10558    6147    6307   11667+
+           6796    6310    6309    7555
CTETRA      3992       1   12386   12358   12357   10216   12272   12375+
+          12270    6567   12260   12259
CTETRA      3993       1    8702    8715    8714   10543    9623    9622+
+           9621    6383    7556    6818
CTETRA      3994       1    8577    8578    8590   10367    9235    9271+
+           9270    6754    6753    7557
CTETRA      3995       1    8580   10378   10391   10392    6494   11191+
+           6497    7558   11193   11192
CTETRA      3996       1    8566   10352    8579   10366    7317    7559+
+           9239    7318   11117    7560
CTETRA      3997       1    8720   10537   10536    6154    7477   11605+
+           6673    6471    7549    6675
CTETRA      3998       1    8713    8714    8726    6147    9619    9655+
+           9654    7561    6308    6310
CTETRA      3999       1    8566    8567    8579   10352    9204    9240+
+           9239    7317    7562    7559
CTETRA      4000       1    8714   10543    8727   10557    6818    7563+
+           9657    6895   11664    7564
CTETRA      4001       1   12500   10378    8580   10392    7060    6494+
+          10049    7061   11193    7558
CTETRA      4002       1    8720    8733    8732    6154    9675    9674+
+           9673    6471    6473    7533
CTETRA      4003       1    8468   10243   10242    6164    7034   10765+
+           7026    7028    7031    7029
CTETRA      4004       1   12500    8568    8580   10378   10046    9241+
+          10049    7060    6495    6494
CTETRA      4005       1    8661    8673   10466   10479    9506    6422+
+           6420    7521    7518   11441
CTETRA      4006       1    8546    8547    8559   10347    9146    9182+
+           9181    6965    6969    6966
CTETRA      4007       1    8672   10467   10480   10481    6598   11444+
+           6601    6933   11446   11445
CTETRA      4008       1    8480    8481   10256    6164    8960    7565+
+           7566    7567    7568    7032
CTETRA      4009       1    8685   10480   10493   10494    7487   11481+
+           7490    7569   11483   11482
CTETRA      4010       1    8673   10479    8686   10493    7518    7570+
+           9542    7488   11480    7489
CTETRA      4011       1    8672   10480    8685   10494    6601    7487+
+           9539    6937   11483    7569
CTETRA      4012       1    8534    8547    8546   10347    9147    9146+
+           9145    7571    6969    6965
CTETRA      4013       1    8468    8480   10243    6164    8959    7572+
+           7034    7028    7567    7031
CTETRA      4014       1    8633   10443   10442   10456    7543   11337+
+           7542    6625   11376   11375
CTETRA      4015       1    8632    8633    8645   10443    9390    9426+
+           9425    7573    7543    7574
CTETRA      4016       1    8633   10429   10428   10442    7541   11297+
+           7575    7542   11336   11335
CTETRA      4017       1    8535    8548    8547   10346    9150    9149+
+           9148    7576    7577    6955
CTETRA      4018       1    8552    8564   10341   10354    9197    7215+
+           7214    7221    7578   11084
CTETRA      4019       1    8552   10340    8565   10354    7220    7579+
+           9199    7221   11083    7580
CTETRA      4020       1    8547    8548    8560   10346    9149    9185+
+           9184    6955    7577    6956
CTETRA      4021       1    8526    8527    8539   10314    9090    9126+
+           9125    7581    6962    7582
CTETRA      4022       1    8552   10327   10340   10341    7583   11044+
+           7220    7214   11046   11045
CTETRA      4023       1    8540    8552   10327   10340    9163    7583+
+           6524    6525    7220   11044
CTETRA      4024       1    8538    8539    8551   10328    9124    9160+
+           9159    6765    7217    6766
CTETRA      4025       1    8539   10327    8552   10341    6964    7583+
+           9162    7216   11046    7214
CTETRA      4026       1    8468    8481    8480    6164    8961    8960+
+           8959    7028    7568    7567
CTETRA      4027       1    8533    8546    8545   10348    9144    9143+
+           9142    7250    7251    7584
CTETRA      4028       1    8521   10334    8533   10335    6993    7248+
+           9108    7326   11029    7585
CTETRA      4029       1    8533    8545    8544   10349    9142    9141+
+           9140    7586    7587    7588
CTETRA      4030       1    8533   10335   10348   10349    7585   11068+
+           7250    7586   11070   11069
CTETRA      4031       1    8557   10349   10362   10363    7589   11108+
+           7590    7591   11110   11109
CTETRA      4032       1    8521    8533    8532   10335    9108    9107+
+           9106    7326    7585    7528
CTETRA      4033       1    8512   10304   10303   10317    6274   10940+
+           7592    7593   10979   10978
CTETRA      4034       1    8505   10297    8517    6177    6695    7594+
+           9064    7595    7596    7597
CTETRA      4035       1    8564   10341   10354   10355    7215   11084+
+           7578    7225   11086   11085
CTETRA      4036       1    8516    8517   10298    6177    9062    7598+
+           7599    7600    7597    7601
CTETRA      4037       1    8500    8501    8513   10289    9016    9052+
+           9051    7291    7292    6788
CTETRA      4038       1    8499   10290    8512   10304    6236    7602+
+           9048    6273   10941    6274
CTETRA      4039       1    8504    8516   10285    6177    9061    7603+
+           6574    7604    7600    7605
CTETRA      4040       1   12383   12384   12355    8445   12397   12288+
+          12289   10192   10195    7037
CTETRA      4041       1    8551    8564    8563   10355    9196    9195+
+           9194    6775    7225    6216
CTETRA      4042       1    8505    8506    8518   10283    9031    9067+
+           9066    6694    7606    7607
CTETRA      4043       1   12362   10220    8439   10221   12252    6352+
+           6720   12249   10739    6351
CTETRA      4044       1    8439    8440    8452   10220    8872    8871+
+           8870    6352    7608    7367
CTETRA      4045       1    8439    8451   10221   10234    8867    6520+
+           6351    6221    6223   10738
CTETRA      4046       1    8505    8518    8517   10297    9066    9065+
+           9064    6695    7609    7594
CTETRA      4047       1    8518   10283   10296   10297    7607   10918+
+           7009    7609   10920   10919
CTETRA      4048       1    8494   10268    8507   10282    7309    7016+
+           9035    7610   10877    7611
CTETRA      4049       1    8494    8495    8507   10268    9000    9036+
+           9035    7309    7017    7016
CTETRA      4050       1    8494    8506   10269   10282    9033    7612+
+           7613    7610    7006   10878
CTETRA      4051       1    8496    8497    8508   10307    9005    9038+
+           9037    7614    6259    7495
CTETRA      4052       1    8498   10291    8511   10305    6245    7615+
+           9045    7616   10944    7617
CTETRA      4053       1    8512   10290   10303   10304    7602   10939+
+           7592    6274   10941   10940
CTETRA      4054       1    8500    8512   10290   10303    9049    7602+
+           6237    7618    7592   10939
CTETRA      4055       1   12365   10223    8436   10224   12246    7619+
+           7319   12243   10751    7620
CTETRA      4056       1    8504    8517    8516    6177    9063    9062+
+           9061    7604    7597    7600
CTETRA      4057       1    8488   10275    8501   10289    6239    7219+
+           9017    6240   10898    7292
CTETRA      4058       1   12551   12550   12365   10224   12296   12367+
+          12295    7621   12244   12243
CTETRA      4059       1    8844   10685    8845   10699    7622    7623+
+           9991    7416   12070    7412
CTETRA      4060       1    8844   10686   10699   10700    7056   12071+
+           7416    7053   12073   12072
CTETRA      4061       1    8499   10277   10290   10291    6981   10902+
+           6236    6982   10904   10903
CTETRA      4062       1   12336    8845    8846   10698   10098    9993+
+          10099    7089    7088    7624
CTETRA      4063       1    8469    8482    8481   10255    8964    8963+
+           8962    7625    7307    7626
CTETRA      4064       1    8454    8467    8466   10244    8921    8920+
+           8919    7627    7002    7628
CTETRA      4065       1    8485    8497    8496    6178    9006    9005+
+           9004    7629    7630    7631
CTETRA      4066       1   12477   12406   12407   10700    6551   12475+
+           6620    6622   12174   12175
CTETRA      4067       1    8466   10245   10244   10258    7632   10771+
+           7628    7633   10810   10809
CTETRA      4068       1    8840   10676    8853   10690    7383    7634+
+          10015    6710   12043    7141
CTETRA      4069       1    8841    8853   10676   10689   10016    7634+
+           6595    6597    7138   12041
CTETRA      4070       1    8521   10307   10321    6162    6648   10990+
+           6650    6990    7496    6991
CTETRA      4071       1    8472    8484   10266    6179    8969    7635+
+           7636    7637    7638    7639
CTETRA      4072       1   12498   12499    8592   10406   12525   10051+
+          10050    6614    6476    6477
CTETRA      4073       1    8820   10658   10657   10671    7640   11952+
+           7641    6714   11991   11990
CTETRA      4074       1    8484   10279    8485    6178    7642    7643+
+           8971    7644    7645    7629
CTETRA      4075       1    8484   10266   10279   10280    7635   10871+
+           7642    7646   10873   10872
CTETRA      4076       1    8808   10657    8820   10658    7647    7641+
+           9921    7648   11952    7640
CTETRA      4077       1   12481   10644    8808   10658    6838    7649+
+          10087    6839   11953    7648
CTETRA      4078       1   12481    8796    8808   10644   10084    9887+
+          10087    6838    7346    7649
CTETRA      4079       1   12480    8819   12481   10645   10125   10126+
+          12543    6834    7650    6836
CTETRA      4080       1   10265   10266   10279    6179   10832   10871+
+          10870    7651    7639    7652
CTETRA      4081       1    8794   10618    8807   10632    7068    7072+
+           9885    7653   11877    7654
CTETRA      4082       1    8781    8793   10606   10619    9846    6297+
+           6296    7544    7136   11841
CTETRA      4083       1    8565   10353    8566    6158    6453    6452+
+           9201    7655    7324    7323
CTETRA      4084       1    8793   10606   10619   10620    6297   11841+
+           7136    6434   11843   11842
CTETRA      4085       1    8794   10605   10618   10619    7423   11838+
+           7068    7414   11840   11839
CTETRA      4086       1    8553   10339    8554    6153    6531    7656+
+           9167    6718    7657    7658
CTETRA      4087       1    8554   10352    8566    6153    7659    7317+
+           9203    7658    7660    6455
CTETRA      4088       1    8836   10695   10681    6163    6579   12058+
+           7661    7662    7011    7010
CTETRA      4089       1    8743   10565    8756   10579    7663    7664+
+           9740    7665   11726    7666
CTETRA      4090       1    8743    8744    8756   10565    9705    9741+
+           9740    7663    6811    7664
CTETRA      4091       1   12333   12306   12334    8848    8408    8409+
+          12339   10104    7667   10103
CTETRA      4092       1    8850   10680   10679   10693    6880   12014+
+           7668    7669   12053   12052
CTETRA      4093       1    8756   10579   10578   10592    7666   11725+
+           7670    7671   11764   11763
CTETRA      4094       1    8756    8768   10579   10592    9775    7672+
+           7666    7671    6983   11764
CTETRA      4095       1    8530    8531    8543   10310    9102    9138+
+           9137    7673    7674    7675
CTETRA      4096       1    8506    8507    8519   10282    9034    9070+
+           9069    7006    7611    7007
CTETRA      4097       1    8730   10539   10552   10553    7164   11650+
+           6337    6336   11652   11651
CTETRA      4098       1   12505   12506   12435   10295   12518    7676+
+           7677    6678    7678   12088
CTETRA      4099       1   12505    8508    8520   10308   10036    9071+
+          10039    6253    7472    6254
CTETRA      4100       1    8717   10540    8729   10541    6292    6294+
+           9664    7679   11617    6280
CTETRA      4101       1    8718   10526   10539   10540    7150   11613+
+           6592    7165   11615   11614
CTETRA      4102       1    8718   10525   10538   10539    7151   11610+
+           6593    6592   11612   11611
CTETRA      4103       1   12506   10281   12435   10295    7680   12085+
+           7676    7678   10914   12088
CTETRA      4104       1   12506    8507   10281   10295   10177    7019+
+           7680    7678    7681   10914
CTETRA      4105       1    8692   10500   10513   10514    7175   11539+
+           7179    7172   11541   11540
CTETRA      4106       1    8691   10501   10514   10515    6697   11542+
+           7682    6698   11544   11543
CTETRA      4107       1   12480   10658    8820   10672    7683    7640+
+          10089    7684   11993    6716
CTETRA      4108       1    8679    8691   10501   10514    9556    6697+
+           6358    6360    7682   11542
CTETRA      4109       1    8553    8554    8566    6153    9167    9203+
+           9202    6718    7658    6455
CTETRA      4110       1   12478   10673   12407   10687    7530   12141+
+           6621    7054   12034   12144
CTETRA      4111       1    8642   10459    8655   10473    7186    7685+
+           9453    7187   11424    7686
CTETRA      4112       1    8630    8643    8642   10459    9419    9418+
+           9417    7687    7688    7186
CTETRA      4113       1    8630   10446   10445   10459    7689   11346+
+           6890    7687   11385   11384
CTETRA      4114       1    8824   10667    8837   10681    7097    6886+
+           9969    7690   12018    6887
CTETRA      4115       1    8842   10675   10674   10688    6602   11999+
+           6268    7691   12038   12037
CTETRA      4116       1   12497   12427   12426   10407    7111   12455+
+           7241    7112   12104   12103
CTETRA      4117       1    8773    8786    8785   10628    9824    9823+
+           9822    7437    7438    7692
CTETRA      4118       1    8616   10419    8617   10433    7194    6481+
+           9345    7693   11310    6483
CTETRA      4119       1    8616   10420   10419   10433    7196   11272+
+           7194    7693   11311   11310
CTETRA      4120       1    8592   10405    8604   10406    7694    7695+
+           9309    6477   11232    6825
CTETRA      4121       1   12498   12428   12427   10393    6613   12454+
+           6615    7696   12102   12101
CTETRA      4122       1    8605    8617   10419   10432    9346    6481+
+           7697    7698    6482   11308
CTETRA      4123       1    8604   10405    8605   10419    7695    7699+
+           9311    7193   11270    7697
CTETRA      4124       1    8605   10405   10418   10419    7699   11268+
+           7700    7697   11270   11269
CTETRA      4125       1   12499   12428   10392   10406    6610   12218+
+           6474    6476   12217   11233
CTETRA      4126       1    8593    8605   10405   10418    9312    7699+
+           7701    7702    7700   11268
CTETRA      4127       1    8774    8786   10614   10627    9825    7436+
+           7439    7271    7281   11865
CTETRA      4128       1    8509   10307    8521    6162    7497    6648+
+           9074    7498    7496    6990
CTETRA      4129       1    8450    8462   10249    6160    8907    7275+
+           6994    6995    7276    6996
CTETRA      4130       1    8509    8521    8520    6162    9074    9073+
+           9072    7498    6990    6989
CTETRA      4131       1    8591   10366   10379   10380    7703   11155+
+           6860    7704   11157   11156
CTETRA      4132       1    8590   10367   10380   10381    7557   11158+
+           7209    7198   11160   11159
CTETRA      4133       1    8591   10380   10379   10393    7704   11156+
+           6860    6859   11195   11194
CTETRA      4134       1    8780    8792   10607   10620    9843    7705+
+           7706    7137    6433   11844
CTETRA      4135       1    8753   10568   10581   10582    7467   11733+
+           7707    7708   11735   11734
CTETRA      4136       1    8742    8754   10567   10580    9735    6339+
+           6334    6335    7148   11730
CTETRA      4137       1    8735   10534   10547   10548    7709   11635+
+           7710    7711   11637   11636
CTETRA      4138       1   12488   10533   12417   10547    7712   12121+
+           7713    7714   11634   12124
CTETRA      4139       1    8590    8591    8603   10380    9272    9308+
+           9307    7209    7704    7715
CTETRA      4140       1   12486    8747   12487   10561   10137   10138+
+          12537    7716    7717    7718
CTETRA      4141       1    8578    8591    8590   10380    9273    9272+
+           9271    7719    7704    7209
CTETRA      4142       1    8716   10541    8729   10555    6687    6280+
+           9663    6682   11658    6282
CTETRA      4143       1   10248   10249    6159    6160   10783    7256+
+           6798    6801    6996    6802
CTETRA      4144       1    8463   10262    8475    6159    6812    6251+
+           8944    6799    7257    7066
CTETRA      4145       1    8673   10480   10479   10493    7486   11442+
+           7518    7488   11481   11480
CTETRA      4146       1    8492   10270   10257    6171    7283   10844+
+           7356    7357    7350    7349
CTETRA      4147       1    8553    8565   10340   10353    9200    7579+
+           6530    6532    6453   11081
CTETRA      4148       1    8538    8551    8550    6170    9159    9158+
+           9157    7720    7366    7365
CTETRA      4149       1    8514    8527    8526   10314    9091    9090+
+           9089    6961    6962    7581
CTETRA      4150       1    8497    8510    8509   10306    9042    9041+
+           9040    6258    7721    7515
CTETRA      4151       1    8616   10433    8617   10447    7693    6483+
+           9345    7722   11350    6882
CTETRA      4152       1    8514    8515    8527   10300    9056    9092+
+           9091    6959    7723    6960
CTETRA      4153       1    8602   10395   10394   10408    6205   11199+
+           7200    6206   11238   11237
CTETRA      4154       1    8515   10300   10299   10313    7723   10928+
+           6970    6972   10967   10966
CTETRA      4155       1    8514    8526   10301   10314    9089    7223+
+           6782    6961    7581   10970
CTETRA      4156       1    8514   10301   10300   10314    6782   10931+
+           6959    6961   10970   10969
CTETRA      4157       1    8525   10302    8526   10316    7724    7222+
+           9087    7725   10975    7726
CTETRA      4158       1    8629   10460    8641   10461    6432    7182+
+           9414    6709   11389    6707
CTETRA      4159       1    8616   10434   10433   10447    6831   11312+
+           7693    7722   11351   11350
CTETRA      4160       1    8497    8498    8510   10292    9007    9043+
+           9042    7727    7728    7729
CTETRA      4161       1    8465   10259    8478   10260    7730    7731+
+           8952    7732   10814    7733
CTETRA      4162       1    8476   10261    8489   10275    6794    6974+
+           8983    6803   10858    7218
CTETRA      4163       1    8550    8563   10356    6170    9193    6215+
+           7734    7365    7228    7230
CTETRA      4164       1   10329   10343   10342    6170   11052   11051+
+          11050    7735    7736    7229
CTETRA      4165       1    8465   10247   10246   10260    7737   10777+
+           7738    7732   10816   10815
CTETRA      4166       1    8465    8477   10247   10260    8950    7232+
+           7737    7732    7233   10816
CTETRA      4167       1    8625   10424   10423   10437    7739   11282+
+           7740    7741   11321   11320
CTETRA      4168       1    8626    8638   10423   10436    9407    7742+
+           6731    6733    7743   11318
CTETRA      4169       1   12496    8616    8628   10434   10054    9377+
+          10057    6198    6831    6630
CTETRA      4170       1   12495   12496    8628   10448   12528   10057+
+          10056    6905    6199    6631
CTETRA      4171       1    8517   10311    8529    6180    7744    7745+
+           9098    7746    7747    7748
CTETRA      4172       1    8546   10334   10347   10348    7249   11065+
+           6965    7251   11067   11066
CTETRA      4173       1   12494    8651   12495   10449   10153   10154+
+          12529    6191    7749    6192
CTETRA      4174       1   12494   12423   12424   10462    6200   12458+
+           6190    6201   12208   12209
CTETRA      4175       1   12327    8855   12298   10688   10117    6719+
+           8421    6553    7087   12147
CTETRA      4176       1    8771   10590   10589   10603    7404   11756+
+           7750    7405   11795   11794
CTETRA      4177       1    8521    8534    8533   10334    9110    9109+
+           9108    6993    7258    7248
CTETRA      4178       1   12477    8855   12478   10687   10119   10120+
+          12546    7057    7055    7054
CTETRA      4179       1   12478    8843   10673   10687   10121    6725+
+           7530    7054    6726   12034
CTETRA      4180       1    8449    8450   10236    6161    8861    7751+
+           6804    6805    7329    6806
CTETRA      4181       1   10222   10223   10236    6161   10747   10746+
+          10745    7086    6807    6806
CTETRA      4182       1   12298    8855   10687   10688    6719    7055+
+          12146   12147    7087   12036
CTETRA      4183       1    8528    8541    8540   10326    9131    9130+
+           9129    6516    6522    6521
CTETRA      4184       1   12484   10589   12413   10603    7752   12129+
+           7753    7754   11794   12132
CTETRA      4185       1   12483   12484   12413   10603   12540    7753+
+           7755    7253    7754   12132
CTETRA      4186       1    8480   10257   10256    6171    7355   10805+
+           7566    7756    7349    7348
CTETRA      4187       1   12483   12413   12484   10616    7755    7753+
+          12540    7757   12187    7758
CTETRA      4188       1   12364    8437   10223    6161    7759    6248+
+          12245    7085    7347    6807
CTETRA      4189       1   12482   12412   12483   10630    7411    7760+
+          12541    7255   12185    7761
CTETRA      4190       1   12482   12483   12412   10617   12541    7760+
+           7411    6840    7254   12134
CTETRA      4191       1    8802   10637   10636   10650    6563   11891+
+           6561    7762   11930   11929
CTETRA      4192       1    8470    8482   10241   10254    8965    7763+
+           7519    7369    7370   10798
CTETRA      4193       1    8801    8814    8813   10651    9904    9903+
+           9902    7764    7765    7766
CTETRA      4194       1    8801    8802    8814   10651    9869    9905+
+           9904    7764    7767    7765
CTETRA      4195       1    8481   10256   10255   10269    7565   10802+
+           7626    7768   10841   10840
CTETRA      4196       1    8813    8814    8826   10651    9903    9939+
+           9938    7766    7765    7769
CTETRA      4197       1    8826   10652   10651   10665    7770   11934+
+           7769    7433   11973   11972
CTETRA      4198       1    8481   10255   10256    6164    7626   10802+
+           7565    7568    7771    7032
CTETRA      4199       1    8773    8774    8786   10614    9789    9825+
+           9824    7435    7439    7436
CTETRA      4200       1    8437    8450    8449    6161    8862    8861+
+           8860    7347    7329    6805
CTETRA      4201       1    8580    8581    8592   10405    9243    9276+
+           9275    7772    7773    7694
CTETRA      4202       1    8763    8775   10599   10612    9794    7280+
+           6778    6780    7278   11822
CTETRA      4203       1   12497    8615   12498   10407   10159   10160+
+          12526    7112    6823    6822
CTETRA      4204       1    8762    8775    8774   10613    9793    9792+
+           9791    6776    7774    6777
CTETRA      4205       1    8544    8556   10364    6181    9173    7775+
+           7776    7777    7778    7779
CTETRA      4206       1    8556   10363   10364    6181    7780   11112+
+           7775    7778    7781    7779
CTETRA      4207       1    8733    8746    8745   10563    9712    9711+
+           9710    7782    7783    7784
CTETRA      4208       1    8569   10390    8581   10391    7785    7545+
+           9244    7786   11189    7787
CTETRA      4209       1    8700    8712   10532   10545    9615    7788+
+           6704    7789    6361   11631
CTETRA      4210       1    8701    8713   10545    6150    9618    6362+
+           7310    7311    6559    6560
CTETRA      4211       1   10349   10350   10363    6181   11072   11111+
+          11110    7790    7791    7781
CTETRA      4212       1    8693   10498    8694   10511    6864    7792+
+           9563    7293   11533    7294
CTETRA      4213       1    8681    8682    8694   10498    9529    9565+
+           9564    6867    6868    7792
CTETRA      4214       1    8544   10349    8545    6181    7588    7587+
+           9141    7777    7790    7793
CTETRA      4215       1    8693   10498   10511   10512    6864   11533+
+           7293    6865   11535   11534
CTETRA      4216       1    8680    8681    8693   10499    9526    9562+
+           9561    7169    6396    6863
CTETRA      4217       1    8544    8545    8556    6181    9141    9174+
+           9173    7777    7793    7778
CTETRA      4218       1    8693   10512    8705   10513    6865    7794+
+           9596    7795   11537    7796
CTETRA      4219       1    8612    8624   10411   10424    9367    7797+
+           7798    7799    7800   11284
CTETRA      4220       1    8600    8601    8613   10396    9300    9336+
+           9335    6938    7207    6939
CTETRA      4221       1    8612    8625    8624   10424    9369    9368+
+           9367    7799    7739    7800
CTETRA      4222       1    8613    8625   10410   10423    9370    7322+
+           6941    7316    7740   11281
CTETRA      4223       1    8593   10404    8606   10418    7801    7802+
+           9314    7702   11267    7803
CTETRA      4224       1   12488    8712    8724   10546   10070    9649+
+          10073    7804    7805    7459
CTETRA      4225       1    8581    8593    8592   10405    9278    9277+
+           9276    7773    7701    7694
CTETRA      4226       1   12489   10532    8712   10546    7806    7788+
+          10071    7807   11633    7805
CTETRA      4227       1    8593    8605    8604   10405    9312    9311+
+           9310    7701    7699    7695
CTETRA      4228       1    8581   10404    8593   10405    7547    7801+
+           9278    7773   11229    7701
CTETRA      4229       1   12497   12498    8604   10420   12526   10053+
+          10052    7242    7201    7195
CTETRA      4230       1    8821   10670    8822    6172    6736    6735+
+           9925    7389    7391    7808
CTETRA      4231       1   12499    8580    8592   10392   10048    9275+
+          10051    6474    7558    6475
CTETRA      4232       1    8580    8592   10392   10405    9275    6475+
+           7558    7772    7694   11231
CTETRA      4233       1    8819   10646   10645   10659    7130   11916+
+           7650    7131   11955   11954
CTETRA      4234       1    8841   10662   10675   10676    7380   12001+
+           6596    6595   12003   12002
CTETRA      4235       1    8829    8841   10662   10675    9982    7380+
+           7147    6632    6596   12001
CTETRA      4236       1    8559    8571   10361   10374    9216    6978+
+           6968    6411    6439   11142
CTETRA      4237       1    8560    8561    8573   10359    9186    9222+
+           9221    7330    7809    7331
CTETRA      4238       1    8573    8585   10373   10386    9256    7332+
+           6391    7336    7810   11176
CTETRA      4239       1    8573   10359   10372   10373    7331   11136+
+           7335    6391   11138   11137
CTETRA      4240       1   12331    8850    8851   10692   10108   10008+
+          10109    7811    7432    7431
CTETRA      4241       1    8479    8491   10258   10271    8990    7005+
+           6998    7000    7338   10847
CTETRA      4242       1    8842    8855    8854   10688   10021   10020+
+          10019    7691    7087    6588
CTETRA      4243       1    8490    8491    8503   10272    8988    9024+
+           9023    7812    7337    7813
CTETRA      4244       1    8822   10683    8834    6172    6271    7538+
+           9961    7808    7814    7815
CTETRA      4245       1    8820    8821    8832   10671    9923    9956+
+           9955    6714    7388    6715
CTETRA      4246       1    8834   10683   10684    6172    7538   12026+
+           7816    7815    7814    7817
CTETRA      4247       1    8451   10235   10234   10248    6581   10740+
+           6223    7818   10782   10781
CTETRA      4248       1   12389   12390   12362    8439   12403   12280+
+          12279   10204   10207    6720
CTETRA      4249       1    8438   10221    8451   10235    6519    6520+
+           8866    6815   10741    6581
CTETRA      4250       1    8438    8451    8450   10235    8866    8865+
+           8863    6815    6581    6816
CTETRA      4251       1    8452    8453    8465   10233    8873    8916+
+           8915    7363    7372    7819
CTETRA      4252       1    8798   10641    8799    6169    7820    7821+
+           9860    7822    7823    7824
CTETRA      4253       1   12498   12499   12428   10393   12525    6610+
+           6613    7696    6616   12102
CTETRA      4254       1   12364    8437    8436   10223    7759    8858+
+           7320   12245    6248    7619
CTETRA      4255       1    8821   10657   10670   10671    7825   11988+
+           6736    7388   11990   11989
CTETRA      4256       1   12382   12383   12354    8446   12396   12290+
+          12291   10190   10193    7041
CTETRA      4257       1    8822   10670   10683    6172    6735   12025+
+           6271    7808    7391    7814
CTETRA      4258       1    8800   10639    8813   10653    6501    6503+
+           9901    7826   11938    7827
CTETRA      4259       1    8821    8822    8834    6172    9925    9961+
+           9960    7389    7808    7815
CTETRA      4260       1    8789   10625   10624   10638    6584   11857+
+           6583    7397   11896   11895
CTETRA      4261       1    8814   10650    8827   10664    7828    7265+
+           9941    7262   11969    7263
CTETRA      4262       1    8802   10650    8814   10651    7762    7828+
+           9905    7767   11931    7765
CTETRA      4263       1    8621   10428   10414    6152    6415   11295+
+           6438    6741    6444    6443
CTETRA      4264       1    8850   10679   10692   10693    7668   12050+
+           7432    7669   12052   12051
CTETRA      4265       1    8838   10678    8851   10692    7829    7830+
+          10009    7430   12049    7431
CTETRA      4266       1    8609    8621   10414    6152    9358    6438+
+           6817    7831    6741    6443
CTETRA      4267       1    8839   10664   10677   10678    7832   12007+
+           7833    7834   12009   12008
CTETRA      4268       1    8789   10624   10637   10638    6583   11893+
+           6575    7397   11895   11894
CTETRA      4269       1    8837   10666    8838   10680    7095    6878+
+           9971    6879   12015    6885
CTETRA      4270       1    8801   10625   10638   10639    7396   11896+
+           7398    6502   11898   11897
CTETRA      4271       1    8789   10624   10623   10637    6583   11854+
+           7400    6575   11893   11892
CTETRA      4272       1    8609    8622    8621    6152    9360    9359+
+           9358    7831    6742    6741
CTETRA      4273       1   12498    8603   12499   10393   10161   10162+
+          12525    7696    6858    6616
CTETRA      4274       1    8534    8535   10333    6176    9112    7835+
+           7836    7514    7837    7838
CTETRA      4275       1    8534   10333   10320    6176    7836   11025+
+           7513    7514    7838    7511
CTETRA      4276       1    8813   10639   10652   10653    6503   11936+
+           7839    7827   11938   11937
CTETRA      4277       1    8767   10593    8780   10607    6449    7840+
+           9808    7841   11806    7706
CTETRA      4278       1   10319   10320   10333    6176   10986   11025+
+          11024    7512    7511    7838
CTETRA      4279       1    8751    8764    8763   10598    9762    9761+
+           9760    7842    7843    6779
CTETRA      4280       1    8751   10585   10584   10598    6330   11743+
+           6329    7842   11782   11781
CTETRA      4281       1    8768   10579   10592   10593    7672   11764+
+           6983    7844   11766   11765
CTETRA      4282       1    8749    8761    8760   10587    9754    9753+
+           9752    7133    6917    7135
CTETRA      4283       1    8737   10572    8750   10586    7845    7846+
+           9722    6313   11747    6314
CTETRA      4284       1    8737   10559   10572   10573    7450   11708+
+           7845    7452   11710   11709
CTETRA      4285       1    8726   10558   10572    6175    6796   11707+
+           7847    7848    7849    7850
CTETRA      4286       1    8750   10585    8763   10599    6772    7851+
+           9759    6773   11784    6778
CTETRA      4287       1    8760   10587    8761   10601    7135    6917+
+           9753    7852   11790    6906
CTETRA      4288       1    8726   10558   10557   10571    6796   11666+
+           6795    7853   11705   11704
CTETRA      4289       1    8760   10588   10587   10601    7143   11752+
+           7135    7852   11791   11790
CTETRA      4290       1    8522    8535    8534    6176    9113    9112+
+           9111    7510    7837    7514
CTETRA      4291       1    8635    8647   10440   10453    9432    7854+
+           7493    6870    6872   11367
CTETRA      4292       1   12497   12427   12498   10420    7111    6615+
+          12526    7242   12215    7201
CTETRA      4293       1    8635   10439    8636   10453    7492    7855+
+           9399    6870   11366    7856
CTETRA      4294       1    8623   10425    8636   10439    7857    7858+
+           9400    7859   11326    7855
CTETRA      4295       1    8760    8761    8772   10601    9753    9786+
+           9785    7852    6906    7860
CTETRA      4296       1    8623    8635   10426   10439    9398    7491+
+           7861    7859    7492   11327
CTETRA      4297       1    8647   10440   10453   10454    7854   11367+
+           6872    7862   11369   11368
CTETRA      4298       1    8634   10441   10454   10455    6606   11370+
+           6942    6943   11372   11371
CTETRA      4299       1   12486   10574    8748   10588    7863    7144+
+          10077    7864   11753    7142
CTETRA      4300       1    8585   10386   10385   10399    7810   11174+
+           7865    7866   11213   11212
CTETRA      4301       1    8585    8598    8597   10399    9292    9291+
+           9290    7866    6929    6928
CTETRA      4302       1    8736   10573    8748   10574    7451    7145+
+           9717    7867   11712    7144
CTETRA      4303       1    8598   10412    8610   10413    7868    7869+
+           9327    6345   11251    6346
CTETRA      4304       1    8598   10399   10398   10412    6929   11211+
+           7870    7868   11250   11249
CTETRA      4305       1   12485    8748    8760   10588   10076    9751+
+          10079    7871    7142    7143
CTETRA      4306       1   12485   10588    8760   10602    7871    7143+
+          10079    7872   11793    7873
CTETRA      4307       1    8559    8572    8571   10374    9218    9217+
+           9216    6411    6412    6439
CTETRA      4308       1    8728    8741    8740   10569    9697    9696+
+           9695    6389    7443    6398
CTETRA      4309       1    8561   10358    8573   10359    7874    7875+
+           9222    7809   11097    7331
CTETRA      4310       1    8561   10345   10358   10359    7876   11096+
+           7874    7809   11098   11097
CTETRA      4311       1    8700    8701    8712   10545    9583    9616+
+           9615    7789    7310    6361
CTETRA      4312       1    8707    8720    8719   10537    9638    9637+
+           9636    7877    7477    7476
CTETRA      4313       1    8718    8719    8731   10538    9634    9670+
+           9669    6593    7878    7879
CTETRA      4314       1    8527   10327   10313    6182    6963   11006+
+           7880    7881    7882    7883
CTETRA      4315       1    8527   10313    8528    6182    7880    6514+
+           9093    7881    7883    7884
CTETRA      4316       1    8511    8523   10305   10318    9080    7885+
+           7617    6529    7886   10982
CTETRA      4317       1    8523   10319   10318   10332    7887   10983+
+           7886    7888   11022   11021
CTETRA      4318       1    8732    8745    8744   10564    9709    9708+
+           9707    7889    7890    7891
CTETRA      4319       1    8721   10536   10535   10549    6674   11602+
+           6343    6846   11641   11640
CTETRA      4320       1    8527    8540   10327    6182    9128    6524+
+           6963    7881    7892    7882
CTETRA      4321       1    8686    8687    8699   10492    9544    9580+
+           9579    7893    7894    7895
CTETRA      4322       1    8484   10280   10279    6178    7646   10872+
+           7642    7644    7896    7645
CTETRA      4323       1    8485   10279   10278   10292    7643   10869+
+           7897    7898   10908   10907
CTETRA      4324       1    8540   10326   10327    6182    6521   11005+
+           6524    7892    7899    7882
CTETRA      4325       1    8687   10478   10491   10492    7900   11475+
+           7901    7894   11477   11476
CTETRA      4326       1   12492    8687    8675   10491   10148    9546+
+          10149    7902    7901    7903
CTETRA      4327       1    8647    8659   10454   10467    9466    7190+
+           7862    7507    7191   11407
CTETRA      4328       1    8470    8471    8483   10240    8932    8968+
+           8967    7361    7360    7341
CTETRA      4329       1    8701   10530    8714    6150    6849    6377+
+           9620    7311    6379    6378
CTETRA      4330       1    8458   10226    8471   10240    6548    6539+
+           8933    7359   10757    7360
CTETRA      4331       1    8471   10226   10239   10240    6539   10755+
+           6542    7360   10757   10756
CTETRA      4332       1    8471    8483   10240   10253    8968    7341+
+           7360    7904    7342   10795
CTETRA      4333       1    8658    8659    8671   10468    9464    9500+
+           9499    6896    7192    6935
CTETRA      4334       1    8646   10454    8659   10468    6603    7190+
+           9465    6604   11409    7192
CTETRA      4335       1   12381   12382   12353    8447   12395   12292+
+          12293   10188   10191    7052
CTETRA      4336       1   12382    8447    8446   10212   10191    8900+
+          10190    7156    7157    7036
CTETRA      4337       1   10455   10456   10469    6149   11374   11413+
+          11412    6326    7905    6356
CTETRA      4338       1    8647    8648    8660   10453    9433    9469+
+           9468    6872    6871    7906
CTETRA      4339       1    8616    8617    8628   10447    9345    9378+
+           9377    7722    6882    6883
CTETRA      4340       1    8629   10446    8642   10460    6431    7189+
+           9416    6432   11387    7183
CTETRA      4341       1    8615   10408   10407   10421    7907   11236+
+           6823    7243   11275   11274
CTETRA      4342       1   12501   12502    8556   10364   12522   10045+
+          10044    7531    7908    7775
CTETRA      4343       1   12502   10350    8544   10364    7909    7910+
+          10042    7908   11113    7776
CTETRA      4344       1   12502   12431   12432   10350    7911   12450+
+           7912    7909   12224   12225
CTETRA      4345       1   12502   12503   12432   10337   12521    7913+
+           7912    7914    7915   12094
CTETRA      4346       1   12502   10337   12431   10351    7914   12093+
+           7911    6948   11074   12096
CTETRA      4347       1    8834    8846   10684   10697    9995    7916+
+           7816    7539    7917   12065
CTETRA      4348       1    8626   10422    8639   10436    6732    6203+
+           9409    6733   11317    6184
CTETRA      4349       1    8701    8702    8714   10530    9585    9621+
+           9620    6849    6381    6377
CTETRA      4350       1    8822   10670   10669   10683    6735   11986+
+           6269    6271   12025   12024
CTETRA      4351       1   10670   10684   10683    6172   12027   12026+
+          12025    7391    7817    7814
CTETRA      4352       1    8607   10417   10416   10430    7918   11263+
+           6642    6643   11302   11301
CTETRA      4353       1    8833    8846    8845   10698    9994    9993+
+           9992    7919    7624    7088
CTETRA      4354       1    8834   10684   10683   10697    7816   12026+
+           7538    7539   12065   12064
CTETRA      4355       1    8834    8847    8846   10697    9997    9996+
+           9995    7539    7540    7917
CTETRA      4356       1    8822    8835    8834   10683    9963    9962+
+           9961    6271    6272    7538
CTETRA      4357       1    8753   10582   10581   10595    7708   11734+
+           7707    6666   11773   11772
CTETRA      4358       1    8753   10581    8754   10595    7707    6676+
+           9733    6666   11772    6667
CTETRA      4359       1    8598   10398    8611   10412    7870    7920+
+           9329    7868   11249    7921
CTETRA      4360       1    8580   10391    8581   10405    6497    7787+
+           9243    7772   11230    7773
CTETRA      4361       1    8754   10568   10567   10581    6670   11694+
+           6339    6676   11733   11732
CTETRA      4362       1    8587    8599   10384   10397    9296    7553+
+           7551    7554    7922   11207
CTETRA      4363       1    8753   10568    8754   10581    7467    6670+
+           9733    7707   11733    6676
CTETRA      4364       1    8586    8599    8598   10398    9295    9294+
+           9293    7923    7924    7870
CTETRA      4365       1    8685   10494   10493   10507    7569   11482+
+           7490    7925   11521   11520
CTETRA      4366       1    8566   10366    8578    6158    7318    7926+
+           9237    7323    7325    6756
CTETRA      4367       1    8659   10467    8672   10481    7191    6598+
+           9502    7503   11446    6933
CTETRA      4368       1    8554   10338    8567   10352    7927    7928+
+           9205    7659   11077    7562
CTETRA      4369       1    8671    8684    8683   10495    9536    9535+
+           9534    7929    6288    6287
CTETRA      4370       1    8671   10481    8684   10495    6932    6934+
+           9536    7929   11486    6288
CTETRA      4371       1    8565    8566    8578    6158    9201    9237+
+           9236    7655    7323    6756
CTETRA      4372       1    8652   10475    8653   10489    6209    6247+
+           9447    6210   11470    7930
CTETRA      4373       1    8569    8581    8580   10391    9244    9243+
+           9242    7786    7787    6497
CTETRA      4374       1    8566   10352   10353    6153    7317   11079+
+           6452    6455    7660    6456
CTETRA      4375       1    8566    8579    8578   10366    9239    9238+
+           9237    7318    7560    7926
CTETRA      4376       1    8619    8632    8631   10430    9388    9387+
+           9386    6926    7931    7932
CTETRA      4377       1    8620   10429    8633   10443    6407    7541+
+           9391    7933   11338    7543
CTETRA      4378       1    8620    8621    8633   10429    9356    9392+
+           9391    6407    6416    7541
CTETRA      4379       1    8558    8571    8570   10375    9215    9214+
+           9213    7934    6979    7935
CTETRA      4380       1    8560   10346   10359   10360    6956   11099+
+           7330    6958   11101   11100
CTETRA      4381       1    8633    8645   10443   10456    9426    7574+
+           7543    6625    6626   11376
CTETRA      4382       1    8620    8633    8632   10443    9391    9390+
+           9389    7933    7543    7573
CTETRA      4383       1    8548    8560   10346   10359    9185    6956+
+           7577    7936    7330   11099
CTETRA      4384       1    8546    8559    8558   10361    9181    9180+
+           9179    6967    6968    7246
CTETRA      4385       1   12500    8591    8579   10379   10164    9274+
+          10165    6489    6860    6490
CTETRA      4386       1    8578   10366    8591   10380    7926    7703+
+           9273    7719   11157    7704
CTETRA      4387       1    8539    8540    8552   10327    9127    9163+
+           9162    6964    6524    7583
CTETRA      4388       1    8557   10362    8570   10376    7590    7937+
+           9212    7938   11147    7939
CTETRA      4389       1    8538   10342    8551    6170    6767    6768+
+           9159    7720    7229    7366
CTETRA      4390       1    8550   10356    8562   10357    7734    6462+
+           9191    7940   11091    6461
CTETRA      4391       1    8550   10343   10329    6170    7444   11052+
+           6534    7365    7736    7735
CTETRA      4392       1    8550    8563    8562   10356    9193    9192+
+           9191    7734    6215    6462
CTETRA      4393       1    8523   10305   10318   10319    7885   10982+
+           7886    7887   10984   10983
CTETRA      4394       1    8498    8499    8511   10291    9010    9046+
+           9045    6245    6982    7615
CTETRA      4395       1    8516   10298    8517    6180    7599    7598+
+           9062    7941    7942    7746
CTETRA      4396       1    8499    8500    8512   10290    9013    9049+
+           9048    6236    6237    7602
CTETRA      4397       1    8524   10304   10317   10318    6528   10979+
+           6225    6224   10981   10980
CTETRA      4398       1   12480   12409   12410   10658    6833   12472+
+           6832    7683   12180   12181
CTETRA      4399       1    8525   10329    8538   10330    7943    6533+
+           9122    7944   11014    7945
CTETRA      4400       1    8525    8526    8538   10329    9087    9123+
+           9122    7943    7274    6533
CTETRA      4401       1    8517   10298   10311    6180    7598   10961+
+           7744    7746    7942    7747
CTETRA      4402       1   10298   10312   10311    6180   10963   10962+
+          10961    7942    7946    7747
CTETRA      4403       1    8458    8470   10227   10240    8931    7947+
+           7948    7359    7361   10758
CTETRA      4404       1    8516    8517    8529    6180    9062    9098+
+           9097    7941    7746    7748
CTETRA      4405       1   12329   10689   12300   10690    7139   12150+
+           8419    7140   12042   12151
CTETRA      4406       1    8458    8459    8471   10226    8897    8934+
+           8933    6548    6540    6539
CTETRA      4407       1   12329   10689    8853    6173    7139    7138+
+          10113    7949    7419    7950
CTETRA      4408       1    8840    8841    8853   10676    9980   10016+
+          10015    7383    6595    7634
CTETRA      4409       1   12328   12329    8853    6173   12345   10113+
+          10114    7951    7949    7950
CTETRA      4410       1   12511   12440   10224   10238    7952   12242+
+           7953    7954   12241   10753
CTETRA      4411       1    8507    8519   10282   10295    9070    7007+
+           7611    7681    6657   10915
CTETRA      4412       1   12511   12551    8436   10224   12512   10024+
+          10023    7953    7621    7620
CTETRA      4413       1    8448   10224   10223   10237    7955   10751+
+           6250    7073   10750   10749
CTETRA      4414       1    8506   10283   10282   10296    7606   10879+
+           7006    7008   10918   10917
CTETRA      4415       1    8506    8518   10283   10296    9067    7607+
+           7606    7008    7009   10918
CTETRA      4416       1    8473   10264    8486   10278    7956    7957+
+           8974    7958   10867    6243
CTETRA      4417       1   12336   12308   12309   10698    8427   12322+
+           8428    7089   12167   12168
CTETRA      4418       1   12308    8846   10697   10698    7959    7917+
+          12166   12167    7624   12066
CTETRA      4419       1    8485    8486    8498   10278    8973    9009+
+           9008    7897    6243    6242
CTETRA      4420       1    8485   10278    8498   10292    7897    6242+
+           9008    7898   10907    7728
CTETRA      4421       1    8810   10655    8811    6146    7202    6298+
+           9894    7960    6300    6299
CTETRA      4422       1    8498   10278   10291   10292    6242   10905+
+           6245    7728   10907   10906
CTETRA      4423       1    8809   10657   10656   10670    7961   11949+
+           7962    6734   11988   11987
CTETRA      4424       1    8808   10643    8809   10657    7963    7964+
+           9889    7647   11950    7961
CTETRA      4425       1    8810   10655   10642    6169    7202   11945+
+           6739    7203    7205    7965
CTETRA      4426       1    8808    8809    8820   10657    9889    9922+
+           9921    7647    7961    7641
CTETRA      4427       1   12480    8808    8820   10658   10086    9921+
+          10089    7683    7648    7640
CTETRA      4428       1    8478   10259    8490   10260    7731    7966+
+           8987    7733   10814    7967
CTETRA      4429       1    8477    8478    8490   10260    8951    8987+
+           8986    7233    7733    7967
CTETRA      4430       1    8471   10240   10239   10253    7360   10756+
+           6542    7904   10795   10794
CTETRA      4431       1    8466   10244    8479   10258    7628    7001+
+           8955    7633   10809    6998
CTETRA      4432       1    8799   10641   10654    6169    7821   11942+
+           7968    7824    7823    7386
CTETRA      4433       1    8795   10604   10617   10618    7069   11835+
+           6303    6302   11837   11836
CTETRA      4434       1    8465   10246   10245   10259    7738   10774+
+           7969    7730   10813   10812
CTETRA      4435       1    8445    8457   10214   10227    8891    7970+
+           7971    7972    7973   10710
CTETRA      4436       1    8444    8445    8457   10214    8892    8891+
+           8890    7974    7971    7970
CTETRA      4437       1   10654   10655   10668    6146   11943   11982+
+          11981    6301    6300    6507
CTETRA      4438       1    8782    8783    8795   10604    9816    9852+
+           9851    6286    6305    7069
CTETRA      4439       1    8794    8807    8806   10632    9885    9884+
+           9883    7653    7654    7975
CTETRA      4440       1    8457   10214   10227   10228    7970   10710+
+           7973    7022   10713   10712
CTETRA      4441       1    8445   10213    8458   10227    7522    7976+
+           8894    7972   10709    7948
CTETRA      4442       1    8757   10577   10578    6174    7977   11722+
+           7978    7979    7422    7421
CTETRA      4443       1   12355   10213    8445   10214   12266    7522+
+           7037   12263   10711    7971
CTETRA      4444       1   10263   10277    6148    6166   10864    6987+
+           6318    7082    7980    7981
CTETRA      4445       1    8756   10565   10578   10579    7664   11724+
+           7670    7666   11726   11725
CTETRA      4446       1    8767   10580   10593   10594    6446   11767+
+           6449    7149   11769   11768
CTETRA      4447       1    8581    8594    8593   10404    9280    9279+
+           9278    7547    7548    7801
CTETRA      4448       1   12551   12352   12550   10211   12297   12366+
+          12296    7043   12076   12075
CTETRA      4449       1    8706    8719    8718   10538    9635    9634+
+           9633    7982    7878    6593
CTETRA      4450       1    8719    8731   10538   10551    9670    7879+
+           7878    6484    6486   11647
CTETRA      4451       1    8718    8731    8730   10552    9669    9668+
+           9667    6594    7983    6337
CTETRA      4452       1    8735    8747   10548   10561    9716    7153+
+           7711    7984    7717   11675
CTETRA      4453       1    8487    6148   10277    6166    6986    6987+
+           6985    7985    7981    7980
CTETRA      4454       1    8669    8681   10485   10498    9528    6394+
+           6402    6862    6867   11496
CTETRA      4455       1   12487   12416   12417   10560    7986   12465+
+           7987    7988   12194   12195
CTETRA      4456       1    8694   10498   10497   10511    7792   11494+
+           7298    7294   11533   11532
CTETRA      4457       1   12489   10519   12418   10533    7989   12119+
+           7990    7991   11594   12122
CTETRA      4458       1   12489   12417   12418   10546    7992   12464+
+           7990    7807   12196   12197
CTETRA      4459       1    8655   10459   10472   10473    7685   11422+
+           7499    7686   11424   11423
CTETRA      4460       1    8643    8655   10459   10472    9454    7685+
+           7688    7993    7499   11422
CTETRA      4461       1    8643   10445   10458   10459    7994   11382+
+           7995    7688   11384   11383
CTETRA      4462       1    8820   10658   10671   10672    7640   11991+
+           6714    6716   11993   11992
CTETRA      4463       1    8644   10458   10457   10471    7526   11380+
+           7996    7997   11419   11418
CTETRA      4464       1   12479   12480    8820   10672   12544   10089+
+          10088    7051    7684    6716
CTETRA      4465       1    8832   10672   10685   10686    6717   12031+
+           7998    6609   12033   12032
CTETRA      4466       1    8618   10418   10431   10432    7999   11305+
+           8000    8001   11307   11306
CTETRA      4467       1    8605   10418    8618   10432    7700    7999+
+           9348    7698   11307    8001
CTETRA      4468       1   10413   10414   10427    6152   11254   11293+
+          11292    8002    6443    6445
CTETRA      4469       1    8606   10404   10417   10418    7802   11265+
+           8003    7803   11267   11266
CTETRA      4470       1   10263   10277   10276    6148   10864   10863+
+          10862    6318    6987    6538
CTETRA      4471       1    8838   10666   10665   10679    6878   11974+
+           7434    6884   12013   12012
CTETRA      4472       1    8850   10680   10693   10694    6880   12053+
+           7669    8004   12055   12054
CTETRA      4473       1    8556    8568   10364   10377    9207    8005+
+           7775    6498    6500   11151
CTETRA      4474       1    8568   10364   10377   10378    8005   11151+
+           6500    6495   11153   11152
CTETRA      4475       1   12501    8556    8568   10364   10044    9207+
+          10047    7531    7775    8005
CTETRA      4476       1   12500    8579   12501   10365   10165   10166+
+          12523    6488    6487    6946
CTETRA      4477       1    8825   10653   10666   10667    7101   11976+
+           6876    7096   11978   11977
CTETRA      4478       1    8825   10652    8826   10666    8006    7770+
+           9937    6876   11975    6877
CTETRA      4479       1    8804    8805   10634    6151    9878    6908+
+           6585    6652    6909    6653
CTETRA      4480       1    8804   10634    8817   10648    6585    8007+
+           9913    6556   11923    6636
CTETRA      4481       1    8565   10340   10353   10354    7579   11081+
+           6453    7580   11083   11082
CTETRA      4482       1    8806    8818   10633   10646    9917    8008+
+           8009    8010    7378   11918
CTETRA      4483       1    8503   10285    8516   10299    8011    7603+
+           9060    7287   10926    8012
CTETRA      4484       1    8745   10564   10577    6174    7890   11721+
+           8013    8014    7420    7422
CTETRA      4485       1    8528   10312   10299    6180    6515   10964+
+           6971    8015    7946    8016
CTETRA      4486       1    8516    8528   10299    6180    9095    6971+
+           8012    7941    8015    8016
CTETRA      4487       1    8780   10593   10606   10607    7840   11804+
+           6295    7706   11806   11805
CTETRA      4488       1   10620   10621   10634    6151   11845   11884+
+          11883    6436    6654    6653
CTETRA      4489       1    8490   10260   10259   10273    7967   10814+
+           7966    8017   10853   10852
CTETRA      4490       1    8792   10621   10620    6151    6655   11845+
+           6433    6435    6654    6436
CTETRA      4491       1    8792    8805    8804    6151    9879    9878+
+           9877    6435    6909    6652
CTETRA      4492       1    8713   10545   10544    6147    6362   11629+
+           6558    7561    8018    6309
CTETRA      4493       1    8478   10259   10258   10272    7731   10811+
+           7004    7340   10850   10849
CTETRA      4494       1    8466   10245   10258   10259    7632   10810+
+           7633    8019   10812   10811
CTETRA      4495       1    8466   10258    8478   10259    7633    7004+
+           8953    8019   10811    7731
CTETRA      4496       1    8763   10585   10598   10599    7851   11782+
+           6779    6778   11784   11783
CTETRA      4497       1   12486   12416   12415   10561    8020   12466+
+           8021    7716   12126   12125
CTETRA      4498       1   12388   12360    8441   10219   12276    8022+
+          10203    7076   12253    7368
CTETRA      4499       1   12489    8700    8712   10532   10068    9615+
+          10071    7806    6704    7788
CTETRA      4500       1    8441   10218    8453   10219    8023    6976+
+           8875    7368   10731    6975
CTETRA      4501       1    8712   10532   10545   10546    7788   11631+
+           6361    7805   11633   11632
CTETRA      4502       1    8724   10546   10545   10559    7459   11632+
+           6363    7458   11671   11670
CTETRA      4503       1   12488   10546    8724   10560    7804    7459+
+          10073    8024   11673    7460
CTETRA      4504       1   12494    8651   10449   10463   10153    7749+
+           6191    6920    8025   11394
CTETRA      4505       1   12495    8628    8640   10448   10056    9411+
+          10059    6905    6631    6628
CTETRA      4506       1   12495    8651    8639   10449   10154    9444+
+          10155    6192    7749    6186
CTETRA      4507       1   12493   12494    8652   10476   12530   10061+
+          10060    6227    6202    6208
CTETRA      4508       1   12494   10449   12423   10463    6191   12109+
+           6200    6920   11394   12112
CTETRA      4509       1   12496   10421   12425   10435    6194   12105+
+           6197    6195   11314   12108
CTETRA      4510       1    8705   10513   10512   10526    7796   11537+
+           7794    7158   11576   11575
CTETRA      4511       1    8599    8611   10398   10411    9330    7920+
+           7924    8026    8027   11247
CTETRA      4512       1    8853   10689    8854    6173    7138    6589+
+          10017    7950    7419    7418
CTETRA      4513       1    8841    8842    8854   10675    9983   10019+
+          10018    6596    6602    6587
CTETRA      4514       1    8696    8709    8708   10522    9607    9606+
+           9605    6349    6341    6350
CTETRA      4515       1   12327   12299   12328    8854    8420    8422+
+          12344   10116    7093   10115
CTETRA      4516       1    8725    8726   10558    6147    9653    6796+
+           8028    8029    6310    7555
CTETRA      4517       1    8842    8843    8855   10674    9986   10022+
+          10021    6268    6724    7084
CTETRA      4518       1    8685    8697   10494   10507    9574    7181+
+           7569    7925    6923   11521
CTETRA      4519       1   12484   12414   12485   10602    8030    8031+
+          12539    8032   12189    7872
CTETRA      4520       1    8713    8725   10545    6147    9652    7457+
+           6362    7561    8029    8018
CTETRA      4521       1   12484    8783    8771   10603   10132    9818+
+          10133    7754    7252    7405
CTETRA      4522       1   12484    8771   10589   10603   10133    7750+
+           7752    7754    7405   11794
CTETRA      4523       1    8698   10507   10506   10520    8033   11519+
+           8034    8035   11558   11557
CTETRA      4524       1   12484   10602    8772   10616    8032    8036+
+          10081    7758   11833    7426
CTETRA      4525       1    8696    8697    8709   10508    9572    9608+
+           9607    6347    6925    6348
CTETRA      4526       1    8826   10652   10665   10666    7770   11973+
+           7433    6877   11975   11974
CTETRA      4527       1    8812    8813    8825   10653    9900    9936+
+           9935    7100    7827    7101
CTETRA      4528       1    8813   10651    8826   10652    7766    7769+
+           9938    7839   11934    7770
CTETRA      4529       1    8800    8813    8812   10653    9901    9900+
+           9899    7826    7827    7100
CTETRA      4530       1    8654    8667    8666   10487    9487    9486+
+           9485    7303    7176    6699
CTETRA      4531       1    8733   10549    8746   10563    6844    7166+
+           9712    7782   11680    7783
CTETRA      4532       1    8732   10550   10537    6154    7532   11644+
+           7478    7533    6828    7549
CTETRA      4533       1    8721   10536    8733    6154    6674    6826+
+           9676    6472    6675    6473
CTETRA      4534       1    8721    8733   10536   10549    9676    6826+
+           6674    6846    6844   11641
CTETRA      4535       1    8642    8654   10460   10473    9451    7184+
+           7183    7187    7304   11425
CTETRA      4536       1   10530   10531   10544    6150   11589   11628+
+          11627    6379    7312    6380
CTETRA      4537       1    8679    8692    8691   10514    9558    9557+
+           9556    6360    7172    7682
CTETRA      4538       1    8691    8692    8704   10514    9557    9593+
+           9592    7682    7172    7171
CTETRA      4539       1    8705   10513   10526   10527    7796   11576+
+           7158    7160   11578   11577
CTETRA      4540       1    8692    8705    8704   10527    9595    9594+
+           9593    7173    7160    7174
CTETRA      4541       1    8713    8726    8725    6147    9654    9653+
+           9652    7561    6310    8029
CTETRA      4542       1   12495   10435   12424   10449    6189   12107+
+           6188    6192   11354   12110
CTETRA      4543       1    8654   10474   10473   10487    7185   11426+
+           7304    7303   11465   11464
CTETRA      4544       1    8646    8647    8659   10454    9430    9466+
+           9465    6603    7862    7190
CTETRA      4545       1    8653   10475   10488   10489    6247   11468+
+           6429    7930   11470   11469
CTETRA      4546       1    8672    8684   10481   10494    9537    6934+
+           6933    6937    7180   11484
CTETRA      4547       1    8639    8651   10436   10449    9444    8037+
+           6184    6186    7749   11355
CTETRA      4548       1    8628    8640   10448   10461    9411    6628+
+           6631    6894    6629   11391
CTETRA      4549       1    8682   10497   10498    6156    6233   11494+
+           6868    6690    6692    7429
CTETRA      4550       1    8598    8599    8611   10398    9294    9330+
+           9329    7870    7924    7920
CTETRA      4551       1    8611    8624    8623   10425    9366    9365+
+           9364    8038    8039    7857
CTETRA      4552       1    8612   10397   10410   10411    8040   11244+
+           7321    7798   11246   11245
CTETRA      4553       1    8600    8612   10397   10410    9333    8040+
+           7206    6940    7321   11244
CTETRA      4554       1    8617   10433   10432   10446    6483   11309+
+           6482    8041   11348   11347
CTETRA      4555       1    8609   10401   10414   10415    8042   11256+
+           6817    6451   11258   11257
CTETRA      4556       1    8621   10428    8633   10429    6415    7575+
+           9392    6416   11297    7541
CTETRA      4557       1    8570    8571    8583   10375    9214    9250+
+           9249    7935    6979    7208
CTETRA      4558       1    8570    8583    8582   10389    9249    9248+
+           9247    8043    8044    8045
CTETRA      4559       1    8559    8560    8572   10360    9183    9219+
+           9218    6409    6958    6410
CTETRA      4560       1    8570   10375    8583   10389    7935    7208+
+           9249    8043   11184    8044
CTETRA      4561       1    8584   10374   10387   10388    6440   11179+
+           6950    6442   11181   11180
CTETRA      4562       1   10483   10484   10497    6156   11454   11493+
+          11492    6691    7428    6692
CTETRA      4563       1    8572   10360   10373   10374    6410   11139+
+           6392    6412   11141   11140
CTETRA      4564       1    8622    8634   10427   10440    9395    6365+
+           6364    8046    6605   11330
CTETRA      4565       1    8529    8542    8541   10325    9134    9133+
+           9132    8047    8048    8049
CTETRA      4566       1    8530   10311   10310   10324    8050   10959+
+           7673    8051   10998   10997
CTETRA      4567       1   12481   10631   12410   10645    6843   12135+
+           6835    6836   11914   12138
CTETRA      4568       1    8669   10484   10483    6156    6861   11454+
+           6376    8052    7428    6691
CTETRA      4569       1    8622   10427   10426   10440    6364   11291+
+           8053    8046   11330   11329
CTETRA      4570       1    8622   10427   10428    6152    6364   11294+
+           6366    6742    6445    6444
CTETRA      4571       1    8602    8603    8615   10394    9306    9342+
+           9341    7200    8054    8055
CTETRA      4572       1    8669   10498   10484    6156    6862   11495+
+           6861    8052    7429    7428
CTETRA      4573       1   12508   10266    8484   10280    7408    7635+
+          10033    8056   10873    7646
CTETRA      4574       1    8695    8696   10509    6145    9569    6683+
+           8057    8058    6763    6764
CTETRA      4575       1   12480   12409   10658   10672    6833   12180+
+           7683    7684   12179   11993
CTETRA      4576       1    8518    8531    8530   10310    9103    9102+
+           9101    8059    7674    7673
CTETRA      4577       1    8490    8502   10273   10286    9021    8060+
+           8017    8061    8062   10890
CTETRA      4578       1    8490   10272    8503   10286    7812    7813+
+           9023    8061   10889    7286
CTETRA      4579       1    8489    8490    8502   10274    8985    9021+
+           9020    7301    8063    8064
CTETRA      4580       1    8462   10263   10249    6159    7064   10824+
+           7275    7065    7067    7256
CTETRA      4581       1    8609   10414   10413    6152    6817   11254+
+           8065    7831    6443    8002
CTETRA      4582       1    8614   10395   10408   10409    6204   11238+
+           6207    7327   11240   11239
CTETRA      4583       1   12391    8438    8437    6161   10209    8864+
+          10208    7387    7328    7347
CTETRA      4584       1    8638    8651    8650   10450    9443    9442+
+           9441    8066    8067    6902
CTETRA      4585       1   10495   10496   10509    6145   11488   11527+
+          11526    6290    8068    6764
CTETRA      4586       1    8683   10496   10495    6145    8069   11488+
+           6287    6289    8068    6290
CTETRA      4587       1   12335    8847   12307   10697   10101    8070+
+           8425    8071    7540   12165
CTETRA      4588       1    8683    8696    8695    6145    9570    9569+
+           9568    6289    6763    8058
CTETRA      4589       1    8756    8757   10578    6174    9742    7978+
+           7670    8072    7979    7421
CTETRA      4590       1    8626    8639    8638   10436    9409    9408+
+           9407    6733    6184    7743
CTETRA      4591       1   12498   10393   12427   10407    7696   12101+
+           6615    6822   11234   12104
CTETRA      4592       1    8839    8840    8852   10691    9977   10013+
+          10012    8073    6712    6713
CTETRA      4593       1    8839   10677    8840   10691    7833    7384+
+           9977    8073   12046    6712
CTETRA      4594       1    8827    8840    8839   10677    9978    9977+
+           9976    8074    7384    7833
CTETRA      4595       1    8828    8840   10663   10676    9979    7382+
+           8075    7381    7383   12004
CTETRA      4596       1   12498    8603   10393   10407   10161    6858+
+           7696    6822    6824   11234
CTETRA      4597       1    8827    8828    8840   10663    9943    9979+
+           9978    7268    8075    7382
CTETRA      4598       1    8827   10664   10663   10677    7263   11968+
+           7268    8074   12007   12006
CTETRA      4599       1    8827    8839   10664   10677    9976    7832+
+           7263    8074    7833   12007
CTETRA      4600       1    8603   10394   10393   10407    8054   11196+
+           6858    6824   11235   11234
CTETRA      4601       1   12497   10407   12426   10421    7112   12103+
+           7241    6829   11274   12106
CTETRA      4602       1    8789   10623    8790   10637    7400    6279+
+           9835    6575   11892    6562
CTETRA      4603       1    8649    8662    8661   10465    9474    9473+
+           9472    6425    8076    7520
CTETRA      4604       1    8585   10373   10386   10387    7332   11176+
+           7810    8077   11178   11177
CTETRA      4605       1    8648    8649    8661   10452    9436    9472+
+           9471    6417    6423    6418
CTETRA      4606       1    8584    8585    8597   10387    9254    9290+
+           9289    6950    8077    6952
CTETRA      4607       1    8636    8649    8648   10452    9437    9436+
+           9435    8078    6423    6417
CTETRA      4608       1    8564   10355   10354   10368    7225   11085+
+           7578    8079   11124   11123
CTETRA      4609       1    8777   10597   10596   10610    8080   11777+
+           8081    8082   11816   11815
CTETRA      4610       1    8763   10598    8776   10612    6779    8083+
+           9796    6780   11821    7277
CTETRA      4611       1    8764   10584   10597   10598    8084   11779+
+           8085    7843   11781   11780
CTETRA      4612       1    8565   10353    8577   10354    6453    6853+
+           9234    7580   11082    6852
CTETRA      4613       1    8776   10598   10611   10612    8083   11819+
+           8086    7277   11821   11820
CTETRA      4614       1    8565    8578    8577    6158    9236    9235+
+           9234    7655    6756    6755
CTETRA      4615       1   10564   10565   10578    6174   11685   11724+
+          11723    7420    8087    7421
CTETRA      4616       1    8547   10333   10346   10347    8088   11062+
+           6955    6969   11064   11063
CTETRA      4617       1    8727   10557   10556   10570    7564   11663+
+           8089    8090   11702   11701
CTETRA      4618       1    8726    8727    8739   10557    9656    9692+
+           9691    6795    7564    8091
CTETRA      4619       1    8739   10557   10570   10571    8091   11702+
+           8092    8093   11704   11703
CTETRA      4620       1    8534    8535    8547   10333    9112    9148+
+           9147    7836    7835    8088
CTETRA      4621       1    8744   10565   10564    6174    6811   11685+
+           7891    8094    8087    7420
CTETRA      4622       1    8726   10558   10571   10572    6796   11705+
+           7853    7847   11707   11706
CTETRA      4623       1    8546    8558   10348   10361    9179    7245+
+           7251    6967    7246   11105
CTETRA      4624       1    8688   10518   10517   10531    6727   11552+
+           6662    6728   11591   11590
CTETRA      4625       1    8688   10517    8689   10531    6662    8095+
+           9549    6728   11590    6850
CTETRA      4626       1    8677    8689    8688   10517    9550    9549+
+           9548    7485    8095    6662
CTETRA      4627       1    8744    8757    8756    6174    9743    9742+
+           9741    8094    7979    8072
CTETRA      4628       1    8689   10517   10516   10530    8095   11549+
+           6856    6848   11588   11587
CTETRA      4629       1    8545    8546    8558   10348    9143    9179+
+           9178    7584    7251    7245
CTETRA      4630       1    8690   10515    8703   10529    6371    8096+
+           9589    6373   11584    8097
CTETRA      4631       1    8675   10478   10477   10491    8098   11436+
+           8099    7903   11475   11474
CTETRA      4632       1    8475   10276    8487    6148    6252    6984+
+           8978    6317    6538    6986
CTETRA      4633       1    8662   10465   10464   10478    8076   11399+
+           8100    8101   11438   11437
CTETRA      4634       1    8662   10464    8675   10478    8100    8102+
+           9511    8101   11437    8098
CTETRA      4635       1    8662    8663    8675   10464    9476    9512+
+           9511    8100    8103    8102
CTETRA      4636       1    8526    8539    8538   10328    9125    9124+
+           9123    7273    7217    6765
CTETRA      4637       1    8526   10302   10315   10316    7222   10973+
+           7224    7726   10975   10974
CTETRA      4638       1    8526   10316   10315   10329    7726   10974+
+           7224    7274   11013   11012
CTETRA      4639       1    8686   10479   10478   10492    7570   11439+
+           8104    7893   11478   11477
CTETRA      4640       1    8686    8698   10493   10506    9577    8105+
+           7489    8106    8034   11518
CTETRA      4641       1    8509   10307   10306   10320    7497   10949+
+           7515    7517   10988   10987
CTETRA      4642       1    8679    8680    8692   10500    9523    9559+
+           9558    6359    7168    7175
CTETRA      4643       1    8483    8495   10254   10267    9002    8107+
+           7343    8108    8109   10835
CTETRA      4644       1    8636    8637    8649   10438    9402    9438+
+           9437    8110    6491    8111
CTETRA      4645       1    8624   10424    8637   10438    7800    8112+
+           9403    8113   11323    6491
CTETRA      4646       1    8637    8649   10438   10451    9438    8111+
+           6491    6493    6424   11361
CTETRA      4647       1    8482    8483    8495   10254    8966    9002+
+           9001    7370    7343    8107
CTETRA      4648       1   12507    8495   10267   10281   10179    8109+
+           8114    8115    7018   10874
CTETRA      4649       1    8598    8611    8610   10412    9329    9328+
+           9327    7868    7921    7869
CTETRA      4650       1    8475   10262   10263    6159    6251   10823+
+           6316    7066    7257    7067
CTETRA      4651       1    8599   10398   10397   10411    7924   11208+
+           7922    8026   11247   11246
CTETRA      4652       1    8599   10384   10397   10398    7553   11207+
+           7922    7924   11209   11208
CTETRA      4653       1    8737    8738   10572    6175    9687    8116+
+           7845    7455    8117    7850
CTETRA      4654       1    8729    8730    8742   10567    9665    9701+
+           9700    8118    6333    6334
CTETRA      4655       1    8730   10552    8743   10566    6337    8119+
+           9703    6331   11689    6808
CTETRA      4656       1    8548   10346   10345   10359    7577   11060+
+           8120    7936   11099   11098
CTETRA      4657       1    8549   10357    8561   10358    8121    8122+
+           9188    6510   11094    7874
CTETRA      4658       1    8549    8561   10345   10358    9188    7876+
+           6508    6510    7874   11096
CTETRA      4659       1    8561   10357    8574   10358    8122    8123+
+           9224    7874   11094    8124
CTETRA      4660       1    8444   10215   10214   10228    7046   10715+
+           7974    8125   10714   10713
CTETRA      4661       1    8469   10255    8481    6164    7625    7626+
+           8962    7030    7771    7568
CTETRA      4662       1    8820   10657    8821   10671    7641    7825+
+           9923    6714   11990    7388
CTETRA      4663       1    8523    8536    8535   10332    9116    9115+
+           9114    7888    8126    8127
CTETRA      4664       1    8797   10643   10642   10656    8128   11909+
+           6737    8129   11948   11947
CTETRA      4665       1    8512    8524   10304   10317    9083    6528+
+           6274    7593    6225   10979
CTETRA      4666       1    8523   10319   10332    6176    7887   11022+
+           7888    8130    7512    8131
CTETRA      4667       1    8810    8822   10656   10669    9927    6740+
+           8132    8133    6269   11985
CTETRA      4668       1    8473    8486    8485   10278    8974    8973+
+           8972    7958    6243    7897
CTETRA      4669       1   10558   10559   10572    6175   11669   11708+
+          11707    7849    7456    7850
CTETRA      4670       1    8485    8498    8497   10292    9008    9007+
+           9006    7898    7728    7727
CTETRA      4671       1   12479   12409   12480   10672    6873    6833+
+          12544    7051   12179    7684
CTETRA      4672       1    8725   10559   10558    6175    7453   11669+
+           8028    7454    7456    7849
CTETRA      4673       1    8486   10278   10277   10291    6243   10866+
+           6980    6244   10905   10904
CTETRA      4674       1    8818   10646    8831   10660    7378    7129+
+           9953    7116   11957    7117
CTETRA      4675       1    8725    8738    8737    6175    9688    9687+
+           9686    7454    8117    7455
CTETRA      4676       1   12551    8447   12381   10211   10189   10188+
+          12394    7043    6913    7044
CTETRA      4677       1   12480   10645   12409   10659    6834   12137+
+           6833    7132   11954   12140
CTETRA      4678       1    8797    8809    8808   10643    9890    9889+
+           9888    8128    7964    7963
CTETRA      4679       1   12481    8807   10631   10645   10127    7071+
+           6843    6836    8134   11914
CTETRA      4680       1    8808   10644   10643   10657    7649   11912+
+           7963    7647   11951   11950
CTETRA      4681       1    8473    8485    8484    6179    8972    8971+
+           8970    8135    8136    7638
CTETRA      4682       1    8791   10621    8804   10635    8137    6651+
+           9876    8138   11886    6555
CTETRA      4683       1    8792   10607   10620   10621    7705   11844+
+           6433    6655   11846   11845
CTETRA      4684       1    8472    8473    8484    6179    8937    8970+
+           8969    7637    8135    7638
CTETRA      4685       1    8773   10601   10614   10615    8139   11828+
+           7435    8140   11830   11829
CTETRA      4686       1    8776   10612   10611   10625    7277   11820+
+           8086    8141   11859   11858
CTETRA      4687       1    8472   10265    8473    6179    8142    8143+
+           8937    7637    7651    8135
CTETRA      4688       1    8787   10612    8788   10626    7282    8144+
+           9829    7272   11861    6892
CTETRA      4689       1    8762   10599    8775   10613    7279    7280+
+           9793    6776   11824    7774
CTETRA      4690       1    8761   10600    8774   10614    6769    6771+
+           9790    6907   11827    7439
CTETRA      4691       1    8774    8775    8787   10613    9792    9828+
+           9827    6777    7774    7270
CTETRA      4692       1    8761    8774    8773   10614    9790    9789+
+           9788    6907    7439    7435
CTETRA      4693       1    8772   10602   10601   10615    8036   11792+
+           7860    7424   11831   11830
CTETRA      4694       1    8761    8773    8772   10601    9788    9787+
+           9786    6906    8139    7860
CTETRA      4695       1    8772   10602   10615   10616    8036   11831+
+           7424    7426   11833   11832
CTETRA      4696       1    8776    8788   10612   10625    9831    8144+
+           7277    8141    7395   11859
CTETRA      4697       1    8772   10601    8773   10615    7860    8139+
+           9787    7424   11830    8140
CTETRA      4698       1    8740   10569    8753   10583    6398    7448+
+           9731    7465   11738    7466
CTETRA      4699       1    8740   10570   10569   10583    8145   11700+
+           6398    7465   11739   11738
CTETRA      4700       1    8787   10626    8800   10640    7272    6891+
+           9864    6899   11901    6901
CTETRA      4701       1    8788   10626   10625   10639    6892   11860+
+           7395    6893   11899   11898
CTETRA      4702       1    8751    8752    8764   10584    9727    9763+
+           9762    6329    8146    8084
CTETRA      4703       1    8779   10607    8792   10621    6645    7705+
+           9842    6646   11846    6655
CTETRA      4704       1    8753   10595    8765   10596    6666    8147+
+           9766    8148   11774    8149
CTETRA      4705       1    8671    8683   10482   10495    9534    8150+
+           6936    7929    6287   11487
CTETRA      4706       1    8659    8660    8672   10467    9467    9503+
+           9502    7191    6599    6598
CTETRA      4707       1    8659    8671   10468   10481    9500    6935+
+           7192    7503    6932   11447
CTETRA      4708       1    8659   10468   10467   10481    7192   11408+
+           7191    7503   11447   11446
CTETRA      4709       1    8658    8671    8670   10482    9499    9498+
+           9497    8151    6936    8152
CTETRA      4710       1    8768    8780   10593    6157    9809    7840+
+           7844    6750    8153    8154
CTETRA      4711       1    8632    8644   10444   10457    9423    7524+
+           8155    8156    7996   11379
CTETRA      4712       1    8631   10430    8632   10444    7932    7931+
+           9387    7523   11341    8155
CTETRA      4713       1    8630    8631    8643   10445    9384    9420+
+           9419    6890    6889    7994
CTETRA      4714       1    8620   10430   10429   10443    6408   11300+
+           6407    7933   11339   11338
CTETRA      4715       1    8589    8590    8602   10381    9269    9305+
+           9304    6468    7198    7197
CTETRA      4716       1    8578    8590   10367   10380    9271    7557+
+           6753    7719    7209   11158
CTETRA      4717       1    8579   10366   10365   10379    7560   11116+
+           6487    6490   11155   11154
CTETRA      4718       1    8589   10367    8590   10381    6634    7557+
+           9269    6468   11160    7198
CTETRA      4719       1    8780   10607   10606   10620    7706   11805+
+           6295    7137   11844   11843
CTETRA      4720       1    8473   10265    8485    6179    8143    8157+
+           8972    8135    7651    8136
CTETRA      4721       1    8739   10570    8752   10584    8092    8158+
+           9728    8159   11741    8146
CTETRA      4722       1    8550   10356   10343    6170    7734   11090+
+           7444    7365    7230    7736
CTETRA      4723       1    8750    8751    8763   10585    9724    9760+
+           9759    6772    6330    7851
CTETRA      4724       1    8535   10332    8548   10346    8127    8160+
+           9150    7576   11061    7577
CTETRA      4725       1    8741   10568    8753   10569    6669    7467+
+           9732    7443   11697    7448
CTETRA      4726       1    8498   10292   10291   10305    7728   10906+
+           6245    7616   10945   10944
CTETRA      4727       1    8509    8510    8522   10306    9041    9077+
+           9076    7515    7721    7516
CTETRA      4728       1    8509    8522    8521   10320    9076    9075+
+           9074    7517    7508    6649
CTETRA      4729       1    8485   10292    8497    6178    7898    7727+
+           9006    7629    8161    7630
CTETRA      4730       1    8753   10569   10568   10582    7448   11697+
+           7467    7708   11736   11735
CTETRA      4731       1    8727    8740    8739   10570    9694    9693+
+           9692    8090    8145    8092
CTETRA      4732       1    8498    8511    8510   10305    9045    9044+
+           9043    7616    7617    8162
CTETRA      4733       1    8511   10291   10304   10305    7615   10942+
+           6275    7617   10944   10943
CTETRA      4734       1    8456   10228    8469   10242    7021    7023+
+           8927    8163   10763    7027
CTETRA      4735       1   10242   10256   10255    6164   10803   10802+
+          10801    7029    7032    7771
CTETRA      4736       1    8468    8469    8481    6164    8926    8962+
+           8961    7028    7030    7568
CTETRA      4737       1    8695    8696    8708   10509    9569    9605+
+           9604    8057    6683    8164
CTETRA      4738       1    8707   10523    8720   10537    7481    8165+
+           9638    7877   11606    7477
CTETRA      4739       1    8687   10492   10491   10505    7894   11476+
+           7901    8166   11515   11514
CTETRA      4740       1   12490    8699   12491   10505   10145   10146+
+          12533    8167    8168    8169
CTETRA      4741       1    8698    8699    8711   10506    9578    9614+
+           9613    8034    8170    8171
CTETRA      4742       1    8655    8667   10473   10486    9488    7305+
+           7686    7501    7177   11462
CTETRA      4743       1    8655   10473   10472   10486    7686   11423+
+           7499    7501   11462   11461
CTETRA      4744       1    8666    8667    8679   10487    9486    9522+
+           9521    6699    7176    6700
CTETRA      4745       1   12511    8436    8448   10224   10023    8856+
+          10027    7953    7620    7955
CTETRA      4746       1   12391    8437   12364    6161   10208    7759+
+          12284    7387    7347    7085
CTETRA      4747       1    8670    8671    8683   10482    9498    9534+
+           9533    8152    6936    8150
CTETRA      4748       1    8731   10538   10551   10552    7879   11647+
+           6486    7983   11649   11648
CTETRA      4749       1    8648   10453   10452   10466    6871   11365+
+           6417    6419   11404   11403
CTETRA      4750       1   12336    8846   12308   10698   10099    7959+
+           8427    7089    7624   12167
CTETRA      4751       1    8485   10279   10292    6178    7643   10908+
+           7898    7629    7645    8161
CTETRA      4752       1    8497   10292   10293    6178    7727   10909+
+           6257    7630    8161    8172
CTETRA      4753       1    8809    8810    8822   10656    9891    9927+
+           9926    7962    8132    6740
CTETRA      4754       1    8797   10642    8810   10656    6737    6739+
+           9892    8129   11947    8132
CTETRA      4755       1    8496    8497   10293    6178    9005    6257+
+           8173    7631    7630    8172
CTETRA      4756       1    8838    8839   10678    6183    9974    7834+
+           7829    8174    8175    8176
CTETRA      4757       1    8634   10440    8647   10454    6605    7854+
+           9431    6942   11369    7862
CTETRA      4758       1    8615    8627   10408   10421    9376    6743+
+           7907    7243    6193   11275
CTETRA      4759       1    8651   10436   10449   10450    8037   11355+
+           7749    8067   11357   11356
CTETRA      4760       1    8625    8626    8638   10423    9371    9407+
+           9406    7740    6731    7742
CTETRA      4761       1    8614   10408    8626   10409    6207    6744+
+           9373    7327   11239    7315
CTETRA      4762       1    8745    8758    8757   10577    9746    9745+
+           9744    8013    8177    7977
CTETRA      4763       1    8769   10578   10591   10592    8178   11761+
+           6760    6745   11763   11762
CTETRA      4764       1    8758   10577   10576   10590    8177   11719+
+           8179    8180   11758   11757
CTETRA      4765       1    8758   10563   10576   10577    8181   11718+
+           8179    8177   11720   11719
CTETRA      4766       1    8632   10444   10443   10457    8155   11340+
+           7573    8156   11379   11378
CTETRA      4767       1    8618   10431    8631   10445    8000    8182+
+           9385    6888   11344    6889
CTETRA      4768       1    8719   10537    8732   10551    7476    7478+
+           9672    6484   11646    6485
CTETRA      4769       1    8707    8708    8720   10523    9603    9639+
+           9638    7481    7480    8165
CTETRA      4770       1    8606    8619    8618   10431    9351    9350+
+           9349    8183    8184    8000
CTETRA      4771       1    8720   10523   10536   10537    8165   11604+
+           6673    7477   11606   11605
CTETRA      4772       1    8586   10384    8599   10398    7552    7553+
+           9295    7923   11209    7924
CTETRA      4773       1    8573    8586    8585   10385    9258    9257+
+           9256    6320    6322    7865
CTETRA      4774       1    8574   10371   10384   10385    8185   11170+
+           7550    6321   11172   11171
CTETRA      4775       1    8682   10497   10496   10510    6233   11491+
+           6232    7299   11530   11529
CTETRA      4776       1    8670    8682   10483   10496    9531    6231+
+           6375    8186    6232   11490
CTETRA      4777       1   10664   10665   10678    6183   11971   12010+
+          12009    8187    8188    8176
CTETRA      4778       1    8669    8682   10498    6156    9530    6868+
+           6862    8052    6690    7429
CTETRA      4779       1    8680    8693    8692   10513    9561    9560+
+           9559    7170    7795    7179
CTETRA      4780       1    8601   10381    8602   10395    6761    7197+
+           9303    6762   11200    6205
CTETRA      4781       1    8603   10380   10393   10394    7715   11195+
+           6858    8054   11197   11196
CTETRA      4782       1    8632   10443    8645   10457    7573    7574+
+           9425    8156   11378    8189
CTETRA      4783       1    8643   10458    8656   10472    7995    8190+
+           9456    7993   11421    7504
CTETRA      4784       1    8631    8643   10445   10458    9420    7994+
+           6889    7525    7995   11382
CTETRA      4785       1    8656   10458   10471   10472    8190   11419+
+           6399    7504   11421   11420
CTETRA      4786       1    8591    8603   10380   10393    9308    7715+
+           7704    6859    6858   11195
CTETRA      4787       1    8553   10353   10339    6153    6532   11080+
+           6531    6718    6456    7657
CTETRA      4788       1    8606    8607    8619   10417    9316    9352+
+           9351    8003    7918    8191
CTETRA      4789       1    8594   10403    8607   10417    8192    8193+
+           9317    8194   11264    7918
CTETRA      4790       1    8594   10404   10403   10417    7548   11226+
+           8192    8194   11265   11264
CTETRA      4791       1   10353   10367   10366    6158   11120   11119+
+          11118    7324    6757    7325
CTETRA      4792       1    8533   10348    8545   10349    7250    7584+
+           9142    7586   11069    7587
CTETRA      4793       1    8826   10665   10664    6183    7433   11971+
+           7264    8195    8188    8187
CTETRA      4794       1    8826    8839    8838    6183    9975    9974+
+           9973    8195    8175    8174
CTETRA      4795       1    8645   10469   10456    6149    6571   11413+
+           6626    6325    6356    7905
CTETRA      4796       1   12501   10364    8568   10378    7531    8005+
+          10047    7099   11153    6495
CTETRA      4797       1   12507    8495   12508   10267   10179   10180+
+          12516    8114    8109    8196
CTETRA      4798       1    8568   10377    8569   10391    6500    8197+
+           9209    6496   11190    7786
CTETRA      4799       1    8667    8679   10487   10500    9522    6700+
+           7176    7178    6359   11502
CTETRA      4800       1   12549   12406   12548   12298    6550   12476+
+           8434    8433   12145   12325
CTETRA      4801       1    8522   10306   10319   10320    7516   10985+
+           7509    7508   10987   10986
CTETRA      4802       1    8645    8658    8657   10469    9462    9461+
+           9460    6571    6354    6384
CTETRA      4803       1   12479   12480   12409   10659   12544    6833+
+           6873    6875    7132   12140
CTETRA      4804       1    8537   10344   10330    6155    6511   11055+
+           6219    7385    7447    7440
CTETRA      4805       1    8525   10316   10329   10330    7725   11013+
+           7943    7944   11015   11014
CTETRA      4806       1    8568    8569    8580   10391    9209    9242+
+           9241    6496    7786    6497
CTETRA      4807       1   12511   12550   12440   10211    8198   12441+
+           7952    6914   12075   12074
CTETRA      4808       1    8474    8487    8486    6166    8977    8976+
+           8975    7080    7985    8199
CTETRA      4809       1    8557   10363   10376   10377    7591   11148+
+           7938    6499   11150   11149
CTETRA      4810       1    8557   10376    8569   10377    7938    8200+
+           9210    6499   11149    8197
CTETRA      4811       1   12477   12298    8855   10687    6549    6719+
+          10119    7057   12146    7055
CTETRA      4812       1    8538   10330   10329    6155    7945   11014+
+           6533    6535    7440    6536
CTETRA      4813       1   12477   12338   12549   12311   10094   12351+
+          12547    6552    8432    8435
CTETRA      4814       1    8504    8505    8517    6177    9028    9064+
+           9063    7604    7595    7597
CTETRA      4815       1    8517   10297   10298    6177    7594   10922+
+           7598    7597    7596    7601
CTETRA      4816       1   12310    8844   10699   10700    7244    7416+
+          12170   12171    7053   12072
CTETRA      4817       1    8492    8504   10271   10284    9027    6572+
+           8201    7284    6573   10884
CTETRA      4818       1    8486   10277   10264    6166    6980   10865+
+           7957    8199    7980    7081
CTETRA      4819       1   10263   10264   10277    6166   10826   10865+
+          10864    7082    7081    7980
CTETRA      4820       1    8497   10292    8510   10306    7727    7729+
+           9042    6258   10947    7721
CTETRA      4821       1    8600   10397   10396   10410    7206   11205+
+           6938    6940   11244   11243
CTETRA      4822       1   10279   10293   10292    6178   10910   10909+
+          10908    7645    8172    8161
CTETRA      4823       1    8436   10223    8448   10224    7619    6250+
+           8856    7620   10751    7955
CTETRA      4824       1    8499   10277   10276   10290    6981   10863+
+           6234    6236   10902   10901
CTETRA      4825       1    8453   10232   10231   10245    6977   10728+
+           8202    8203   10773   10772
CTETRA      4826       1    8486    8487   10277    6166    8976    6985+
+           6980    8199    7985    7980
CTETRA      4827       1    8464   10247    8477   10261    7236    7232+
+           8949    6793   10818    6973
CTETRA      4828       1    8465   10245    8466   10259    7969    7632+
+           8917    7730   10812    8019
CTETRA      4829       1   12511   12551   12550   10211   12512   12296+
+           8198    6914    7043   12075
CTETRA      4830       1    8542    8543    8555   10324    9136    9172+
+           9171    8204    8205    8206
CTETRA      4831       1    8474    8475    8487    6166    8942    8978+
+           8977    7080    7188    7985
CTETRA      4832       1   12479    8843    8831    6168   10122    9988+
+          10123    7376    8207    7124
CTETRA      4833       1    8470   10227   10240   10241    7947   10758+
+           7361    7519   10760   10759
CTETRA      4834       1   12408   10673    8843    6168   12142    6725+
+           7235    7377    8208    8207
CTETRA      4835       1    8469    8470    8482   10241    8929    8965+
+           8964    7025    7519    7763
CTETRA      4836       1    8540    8553    8552   10340    9165    9164+
+           9163    6525    6530    7220
CTETRA      4837       1    8445   10214   10213   10227    7971   10711+
+           7522    7972   10710   10709
CTETRA      4838       1    8554    8555    8567   10338    9170    9206+
+           9205    7927    8209    7928
CTETRA      4839       1    8816    8829    8828   10662    9947    9946+
+           9945    7146    7147    7379
CTETRA      4840       1   12507    8507    8495   10281   10178    9036+
+          10179    8115    7019    7018
CTETRA      4841       1   12505   12435   12434   10295    7677   12447+
+           6688    6678   12088   12087
CTETRA      4842       1   12507   10267   12436   10281    8114   12083+
+           8210    8115   10874   12086
CTETRA      4843       1    8554    8567    8566   10352    9205    9204+
+           9203    7659    7562    7317
CTETRA      4844       1   12480   12410   12481   10658    6832    6835+
+          12543    7683   12181    6839
CTETRA      4845       1   12505   12434   12435   10308    6688   12447+
+           7677    6253   12230   12231
CTETRA      4846       1   12507   12435   12436   10294    8211   12446+
+           8210    8212   12232   12233
CTETRA      4847       1    8552    8565    8564   10354    9199    9198+
+           9197    7221    7580    7578
CTETRA      4848       1    8837   10680    8849   10681    6879    6881+
+          10004    6887   12017    7013
CTETRA      4849       1    8554   10325   10338   10339    8213   11038+
+           7927    7656   11040   11039
CTETRA      4850       1    8480    8493    8492    6171    8995    8994+
+           8993    7756    7358    7357
CTETRA      4851       1   12332   12333    8849    6163   12340   10105+
+          10106    8214    7049    7015
CTETRA      4852       1   12492    8675   12493   10477   10149   10150+
+          12531    8215    8099    7121
CTETRA      4853       1    8542   10325   10324   10338    8048   10999+
+           8204    8216   11038   11037
CTETRA      4854       1    8481    8493   10256   10269    8996    8217+
+           7565    7768    8218   10841
CTETRA      4855       1    8461   10251   10250   10264    8219   10789+
+           8220    8221   10828   10827
CTETRA      4856       1   12332    8850   10693   10694   10107    7669+
+           8222    8223    8004   12054
CTETRA      4857       1    8843   10673   10660    6168    6725   11995+
+           7113    8207    8208    7125
CTETRA      4858       1    8757   10577    8770   10591    7977    8224+
+           9780    8225   11760    6284
CTETRA      4859       1    8496   10294   10293   10307    8226   10912+
+           8173    7614   10951   10950
CTETRA      4860       1    8555   10338   10337   10351    8209   11036+
+           8227    8228   11075   11074
CTETRA      4861       1   12506   12507   12435   10281   12517    8211+
+           7676    7680    8115   12085
CTETRA      4862       1   12507   12508   12436   10267   12516    8229+
+           8210    8114    8196   12083
CTETRA      4863       1   12501   12502   12431   10351   12522    7911+
+           7529    6945    6948   12096
CTETRA      4864       1    8809    8821   10657   10670    9924    7825+
+           7961    6734    6736   11988
CTETRA      4865       1    8833   10671   10684   10685    8230   12028+
+           8231    8232   12030   12029
CTETRA      4866       1    8832   10672   10671   10685    6717   11992+
+           6715    7998   12031   12030
CTETRA      4867       1   12484    8771   12485   10589   10133   10134+
+          12539    7752    7750    8233
CTETRA      4868       1    8769    8770    8782   10591    9779    9815+
+           9814    6760    6284    6283
CTETRA      4869       1    8805    8806    8818   10633    9881    9917+
+           9916    6619    8009    8008
CTETRA      4870       1   12505   12506    8508   10308   12518   10037+
+          10036    6253    8234    7472
CTETRA      4871       1   12478   12408   12479   10686    7234    6874+
+          12545    6607   12177    6608
CTETRA      4872       1   12479   12408   12409   10672    6874   12473+
+           6873    7051   12178   12179
CTETRA      4873       1    8721    8734    8733   10549    9678    9677+
+           9676    6846    6847    6844
CTETRA      4874       1    8491    8504    8503   10285    9026    9025+
+           9024    7339    6574    8011
CTETRA      4875       1    8489   10260    8490   10274    7237    7967+
+           8985    7301   10855    8063
CTETRA      4876       1    8638    8639    8651   10436    9408    9444+
+           9443    7743    6184    8037
CTETRA      4877       1   12477   12407   12406   10687    6620   12475+
+           6551    7057   12144   12143
CTETRA      4878       1    8553    8565   10353    6153    9200    6453+
+           6532    6718    6454    6456
CTETRA      4879       1    8553   10326   10339   10340    6523   11041+
+           6531    6530   11043   11042
CTETRA      4880       1    8821    8833   10671    6172    9958    8230+
+           7388    7389    8235    7390
CTETRA      4881       1    8621    8622    8634   10428    9359    9395+
+           9394    6415    6366    6367
CTETRA      4882       1   12479    8820    8832   10672   10088    9955+
+          10091    7051    6716    6717
CTETRA      4883       1    8810    8823    8822   10669    9929    9928+
+           9927    8133    7392    6269
CTETRA      4884       1    8770   10590    8783   10604    8236    7403+
+           9817    6285   11797    6305
CTETRA      4885       1    8796   10629    8797   10643    8237    8238+
+           9855    7345   11910    8128
CTETRA      4886       1    8842    8854   10675   10688   10019    6587+
+           6602    7691    6588   12038
CTETRA      4887       1    8810    8823   10669    6146    9929    7392+
+           8133    7960    7269    6591
CTETRA      4888       1   12334   12307   12335    8847    8424    8425+
+          12346   10102    8070   10101
CTETRA      4889       1   12477   12311   12406   10700    6552   12173+
+           6551    6622   12172   12174
CTETRA      4890       1    8810   10669   10655    6146    8133   11984+
+           7202    7960    6591    6300
CTETRA      4891       1   12333   12304   12305    6163    8411   12313+
+           8410    7049    8239    7047
CTETRA      4892       1   12333   12305   12306   10695    8410   12312+
+           8408    7048   12161   12162
CTETRA      4893       1   12504    8543    8531   10323   10172    9138+
+          10173    6665    8240    6672
CTETRA      4894       1   12502    8555   10337   10351   10169    8227+
+           7914    6948    8228   11074
CTETRA      4895       1   12508   12509    8472   10266   12515   10031+
+          10030    7408    7409    7636
CTETRA      4896       1   12502    8555   12503   10337   10169   10170+
+          12521    7914    8227    7915
CTETRA      4897       1    8800    8812   10640   10653    9899    8241+
+           6901    7826    7100   11939
CTETRA      4898       1   12304   10694   12305    6163   12159   12160+
+          12313    8239    7012    7047
CTETRA      4899       1    8542    8554   10325   10338    9169    8213+
+           8048    8216    7927   11038
CTETRA      4900       1    8775   10599   10612   10613    7280   11822+
+           7278    7774   11824   11823
CTETRA      4901       1    8805   10620   10633   10634    6617   11881+
+           6619    6908   11883   11882
CTETRA      4902       1   12503    8543   10323   10337   10171    8240+
+           8242    7915    8243   11034
CTETRA      4903       1    8703   10529   10528   10542    8097   11583+
+           8244    8245   11622   11621
CTETRA      4904       1    8555   10324   10337   10338    8206   11035+
+           8227    8209   11037   11036
CTETRA      4905       1    8767   10594   10593   10607    7149   11768+
+           6449    7841   11807   11806
CTETRA      4906       1    8738   10572   10571   10585    8116   11706+
+           8246    8247   11745   11744
CTETRA      4907       1    8621    8634    8633   10428    9394    9393+
+           9392    6415    6367    7575
CTETRA      4908       1    8493   10256   10270    6171    8217   10843+
+           7104    7358    7348    7350
CTETRA      4909       1    8779   10594   10607   10608    7119   11807+
+           6645    6644   11809   11808
CTETRA      4910       1    8767    8779   10594   10607    9806    7119+
+           7149    7841    6645   11807
CTETRA      4911       1   12491   10504    8688   10518    8248    6659+
+          10067    8249   11553    6727
CTETRA      4912       1    8593   10405   10404   10418    7701   11229+
+           7801    7702   11268   11267
CTETRA      4913       1    8480    8481    8493   10256    8960    8996+
+           8995    7566    7565    8217
CTETRA      4914       1    8692    8693    8705   10513    9560    9596+
+           9595    7179    7795    7796
CTETRA      4915       1    8480   10256    8493    6171    7566    8217+
+           8995    7756    7348    7358
CTETRA      4916       1    8565    8577   10353    6158    9234    6853+
+           6453    7655    6755    7324
CTETRA      4917       1    8657   10457   10470   10471    8250   11416+
+           6386    7506   11418   11417
CTETRA      4918       1    8705   10512    8706   10526    7794    8251+
+           9597    7158   11575    8252
CTETRA      4919       1    8729   10540    8730   10553    6294    6293+
+           9665    7162   11653    6336
CTETRA      4920       1    8791   10608   10621   10622    8253   11847+
+           8137    6527   11849   11848
CTETRA      4921       1    8799   10654    8811    6169    7968    6211+
+           9896    7824    7386    7204
CTETRA      4922       1    8686   10479   10492   10493    7570   11478+
+           7893    7489   11480   11479
CTETRA      4923       1    8731    8743   10552   10565    9704    8119+
+           7983    6810    7663   11687
CTETRA      4924       1    8577   10367   10353    6158    6754   11120+
+           6853    6755    6757    7324
CTETRA      4925       1    8516   10298   10285    6177    7599   10924+
+           7603    7600    7601    7605
CTETRA      4926       1    8684    8697    8696   10508    9573    9572+
+           9571    6480    6925    6347
CTETRA      4927       1    8655    8656    8668   10472    9455    9491+
+           9490    7499    7504    7500
CTETRA      4928       1    8516   10299   10298    6180    8012   10925+
+           7599    7941    8016    7942
CTETRA      4929       1    8809   10656    8822   10670    7962    6740+
+           9926    6734   11987    6735
CTETRA      4930       1    8646   10455    8658    6149    6324    6353+
+           9463    6327    6326    6355
CTETRA      4931       1    8646    8659    8658   10468    9465    9464+
+           9463    6604    7192    6896
CTETRA      4932       1    8757   10578   10577   10591    7978   11722+
+           7977    8225   11761   11760
CTETRA      4933       1    8786    8787    8799   10627    9826    9862+
+           9861    7281    6898    6897
CTETRA      4934       1    8617    8618    8630   10432    9347    9383+
+           9382    6482    8001    8254
CTETRA      4935       1    8617    8630    8629   10446    9382    9381+
+           9380    8041    7689    6431
CTETRA      4936       1    8597   10400   10413   10414    6953   11253+
+           6344    8255   11255   11254
CTETRA      4937       1    8609    8610    8622   10413    9325    9361+
+           9360    8065    6346    8256
CTETRA      4938       1   12309   10699   12310    6167   12169   12170+
+          12323    7373    7413    7375
CTETRA      4939       1    8806    8807    8819   10632    9884    9920+
+           9919    7975    7654    8257
CTETRA      4940       1   12480    8819   10645   10659   10125    7650+
+           6834    7132    7131   11954
CTETRA      4941       1    8851   10678   10691   10692    7830   12047+
+           6723    7431   12049   12048
CTETRA      4942       1    8823   10668   10669    6146    6855   11983+
+           7392    7269    6507    6591
CTETRA      4943       1    8807    8819   10632   10645    9920    8257+
+           7654    8134    7650   11915
CTETRA      4944       1    8845   10699   10698    6167    7412   12069+
+           7088    7091    7413    7092
CTETRA      4945       1    8810    8811    8823    6146    9894    9930+
+           9929    7960    6299    7269
CTETRA      4946       1    8811    8812    8824   10654    9897    9933+
+           9932    6211    8258    6212
CTETRA      4947       1    8573   10359   10358   10372    7331   11097+
+           7875    7335   11136   11135
CTETRA      4948       1    8803    8804    8816   10635    9875    9911+
+           9910    6590    6555    6554
CTETRA      4949       1   12327   12299    8854   10688    8420    7093+
+          10116    6553   12148    6588
CTETRA      4950       1   12309   10698   10699    6167   12168   12069+
+          12169    7373    7092    7413
CTETRA      4951       1    8597    8609   10401   10414    9324    8042+
+           6954    8255    6817   11256
CTETRA      4952       1    8510   10292   10305   10306    7729   10945+
+           8162    7721   10947   10946
CTETRA      4953       1    8541   10326   10325   10339    6522   11002+
+           8049    8259   11041   11040
CTETRA      4954       1    8449    8462    8461   10250    8906    8905+
+           8904    8260    8261    8220
CTETRA      4955       1   12479    8831   10659    6168   10123    7123+
+           6875    7376    7124    7126
CTETRA      4956       1   10284   10298   10297    6177   10923   10922+
+          10921    8262    7601    7596
CTETRA      4957       1   12337   12310    8845    6167    8430    7402+
+          10097    7374    7375    7091
CTETRA      4958       1    8444    8445   10214    6165    8892    7971+
+           7974    8263    7040    8264
CTETRA      4959       1    8521    8522    8534   10320    9075    9111+
+           9110    6649    7508    7513
CTETRA      4960       1    8534   10334   10333   10347    7258   11026+
+           7836    7571   11065   11064
CTETRA      4961       1   12355   12356   10214    6165   12377   12264+
+          12263    7039    8265    8264
CTETRA      4962       1    8514   10301    8526   10302    6782    7223+
+           9089    6783   10934    7222
CTETRA      4963       1   12384   12356   12355    6165   12287   12377+
+          12288    7038    8265    7039
CTETRA      4964       1    8558   10362   10361   10375    7247   11106+
+           7246    7934   11145   11144
CTETRA      4965       1    8575   10369    8588   10383    6464    6457+
+           9264    8266   11166    6465
CTETRA      4966       1    8491   10258   10271   10272    7005   10847+
+           7338    7337   10849   10848
CTETRA      4967       1   12328    8854   12299    6173   10115    7093+
+           8422    7951    7418    7417
CTETRA      4968       1    8606    8618   10418   10431    9349    7999+
+           7803    8183    8000   11305
CTETRA      4969       1   12507   12436   10280   10294    8210   12234+
+           8267    8212   12233   10913
CTETRA      4970       1    8479   10244   10257   10258    7001   10807+
+           6999    6998   10809   10808
CTETRA      4971       1    8497    8509    8508   10307    9040    9039+
+           9038    6259    7497    7495
CTETRA      4972       1    8569    8582    8581   10390    9246    9245+
+           9244    7785    8268    7545
CTETRA      4973       1    8693   10499   10512   10513    6863   11536+
+           6865    7795   11538   11537
CTETRA      4974       1    8585    8597   10387   10400    9290    6952+
+           8077    8269    6953   11216
CTETRA      4975       1   12384    8445    8444    6165   10195    8892+
+          10194    7038    7040    8263
CTETRA      4976       1    8502   10274   10273   10287    8064   10854+
+           8060    8270   10893   10892
CTETRA      4977       1    8831    8843   10660    6168    9988    7113+
+           7117    7124    8207    7125
CTETRA      4978       1    8594    8595    8607   10403    9282    9318+
+           9317    8192    8271    8193
CTETRA      4979       1    8502   10274   10287   10288    8064   10893+
+           8270    8272   10895   10894
CTETRA      4980       1    8618    8630   10432   10445    9383    8254+
+           8001    6888    6890   11345
CTETRA      4981       1    8632    8645    8644   10457    9425    9424+
+           9423    8156    8189    7996
CTETRA      4982       1    8780    8781   10606    6157    9810    6296+
+           6295    8153    6751    7410
CTETRA      4983       1    8502   10273   10286   10287    8060   10890+
+           8062    8270   10892   10891
CTETRA      4984       1    8482   10255   10254   10268    7307   10799+
+           7370    7308   10838   10837
CTETRA      4985       1    8466    8467    8479   10244    8920    8956+
+           8955    7628    7002    7001
CTETRA      4986       1    8493   10270   10269   10283    7104   10842+
+           8218    7105   10881   10880
CTETRA      4987       1    8755    8756    8768   10579    9739    9775+
+           9774    7114    7666    7672
CTETRA      4988       1    8482   10241   10254   10255    7763   10798+
+           7370    7307   10800   10799
CTETRA      4989       1   12508   12437   12436   10267    8273   12445+
+           8229    8196   12084   12083
CTETRA      4990       1    8594    8607    8606   10417    9317    9316+
+           9315    8194    7918    8003
CTETRA      4991       1   12507   10280    8496   10294    8267    8274+
+          10035    8212   10913    8226
CTETRA      4992       1    8529    8541   10312   10325    9132    6518+
+           6517    8047    8049   11001
CTETRA      4993       1   12492    8675   10477   10491   10149    8099+
+           8215    7902    7903   11474
CTETRA      4994       1   10592   10593   10606    6157   11765   11804+
+          11803    6748    8154    7410
CTETRA      4995       1    8768   10593   10592    6157    7844   11765+
+           6983    6750    8154    6748
CTETRA      4996       1    8740    8752   10570   10583    9729    8158+
+           8145    7465    7461   11739
CTETRA      4997       1    8768    8781    8780    6157    9811    9810+
+           9809    6750    6751    8153
CTETRA      4998       1    8739    8740    8752   10570    9693    9729+
+           9728    8092    8145    8158
CTETRA      4999       1    8842   10674    8855   10688    6268    7084+
+          10021    7691   12037    7087
CTETRA      5000       1    8593    8606    8605   10418    9314    9313+
+           9312    7702    7803    7700
CTETRA      5001       1   12479    8831   12480   10659   10123   10124+
+          12544    6875    7123    7132
CTETRA      5002       1    8452    8465    8464   10247    8915    8914+
+           8913    7364    7737    7236
CTETRA      5003       1    8465   10233   10246   10247    7819   10776+
+           7738    7737   10778   10777
CTETRA      5004       1    8465    8478    8477   10260    8952    8951+
+           8950    7732    7733    7233
CTETRA      5005       1    8677   10489   10502   10503    8275   11508+
+           7494    7483   11510   11509
CTETRA      5006       1    8465   10246   10259   10260    7738   10813+
+           7730    7732   10815   10814
CTETRA      5007       1   12478    8843   12408   10673   10121    7235+
+           7234    7530    6725   12142
CTETRA      5008       1   12483   12412   12413   10616    7760   12469+
+           7755    7757   12186   12187
CTETRA      5009       1   12490    8699   10505   10519   10145    8168+
+           8167    8276    8277   11554
CTETRA      5010       1    8699   10506   10505   10519    8170   11516+
+           8168    8277   11555   11554
CTETRA      5011       1   12489    8723    8711   10533   10142    9648+
+          10143    7991    8278    6821
CTETRA      5012       1   10659   10660   10673    6168   11956   11995+
+          11994    7126    7125    8208
CTETRA      5013       1   12332   12303   12304   10693    8416   12315+
+           8412    8222   12157   12158
CTETRA      5014       1    8797    8810    8809   10656    9892    9891+
+           9890    8129    8132    7962
CTETRA      5015       1   12329   12301    8852   10690    8418    7094+
+          10112    7140   12152    6711
CTETRA      5016       1    8465    8466    8478   10259    8917    8953+
+           8952    7730    8019    7731
CTETRA      5017       1   12332   10693   12304   10694    8222   12158+
+           8412    8223   12054   12159
CTETRA      5018       1   12333   12306    8848   10695    8408    7667+
+          10104    7048   12162    6580
CTETRA      5019       1    8689    8702    8701   10530    9586    9585+
+           9584    6848    6381    6849
CTETRA      5020       1    8785   10628    8798   10642    7692    8279+
+           9858    8280   11907    6738
CTETRA      5021       1    8537    8549   10331   10344    9154    6513+
+           6220    6511    6509   11056
CTETRA      5022       1    8649   10451    8662   10465    6424    8281+
+           9474    6425   11400    8076
CTETRA      5023       1   12303    8850   10692   10693    8282    7432+
+          12156   12157    7669   12051
CTETRA      5024       1    8830    8831    8843   10660    9952    9988+
+           9987    6633    7117    7113
CTETRA      5025       1    8684   10495    8696    6145    6288    6479+
+           9571    6291    6290    6763
CTETRA      5026       1    8688    8689    8700   10531    9549    9582+
+           9581    6728    6850    6703
CTETRA      5027       1    8713    8714   10544    6150    9619    6306+
+           6558    6559    6378    6380
CTETRA      5028       1   12490    8688    8700   10518   10066    9581+
+          10069    8283    6727    6702
CTETRA      5029       1   12482   10630    8796   10644    7255    7344+
+          10085    6866   11913    7346
CTETRA      5030       1    8660   10453   10466   10467    7906   11404+
+           6421    6599   11406   11405
CTETRA      5031       1    8623    8636    8635   10439    9400    9399+
+           9398    7859    7855    7492
CTETRA      5032       1   12489   12490    8700   10532   12534   10069+
+          10068    7806    8284    6704
CTETRA      5033       1   12489   12418   12419   10532    7990   12463+
+           8285    7806   12198   12199
CTETRA      5034       1   12489   12419   12418   10519    8285   12463+
+           7990    7989   12120   12119
CTETRA      5035       1   12360   10218    8441   10219   12256    8023+
+           8022   12253   10731    7368
CTETRA      5036       1    8711    8723   10520   10533    9648    7469+
+           6819    6821    8278   11595
CTETRA      5037       1   12387   12359   10217   10218   12274   12258+
+           6566    8286   12255   10727
CTETRA      5038       1    8823    8836    8835   10682    9966    9965+
+           9964    7393    6578    7394
CTETRA      5039       1   12338   12310   12311   10700    8431   12324+
+           8432    6854   12171   12172
CTETRA      5040       1    8837    8838    8850   10680    9971   10007+
+          10006    6879    6885    6880
CTETRA      5041       1    8838    8839    8851   10678    9974   10010+
+          10009    7829    7834    7830
CTETRA      5042       1   12330   12302    8851    8852    8415    6706+
+          10110   10111    6722   10011
CTETRA      5043       1    8441   10217    8454   10218    8287    8288+
+           8878    8023   10727    8289
CTETRA      5044       1    8454   10218   10217   10231    8289   10727+
+           8288    8290   10726   10725
CTETRA      5045       1   12331   12303    8850   10692    8414    8282+
+          10108    7811   12156    7432
CTETRA      5046       1    8832   10671    8833   10685    6715    8230+
+           9957    7998   12030    8232
CTETRA      5047       1    8816    8817    8829   10648    9912    9948+
+           9947    6557    6636    6635
CTETRA      5048       1    8828    8829    8841   10662    9946    9982+
+           9981    7379    7147    7380
CTETRA      5049       1   12482    8795   12483   10617   10129   10130+
+          12541    6840    6303    7254
CTETRA      5050       1   12483   10603   12412   10617    7253   12131+
+           7760    7254   11834   12134
CTETRA      5051       1    8794   10619   10618   10632    7414   11839+
+           7068    7653   11878   11877
CTETRA      5052       1    8441    8442    8454   10217    8880    8879+
+           8878    8287    6565    8288
CTETRA      5053       1    8534    8546   10334   10347    9145    7249+
+           7258    7571    6965   11065
CTETRA      5054       1    8807   10632   10631   10645    7654   11876+
+           7071    8134   11915   11914
CTETRA      5055       1   12364    8436   12365   10223    7320    7319+
+          12368   12245    7619   12246
CTETRA      5056       1    8466    8479    8478   10258    8955    8954+
+           8953    7633    6998    7004
CTETRA      5057       1   12481    8819    8807   10645   10126    9920+
+          10127    6836    7650    8134
CTETRA      5058       1   12510   12440   12511   10238    8291    7952+
+          12513    7351   12241    7954
CTETRA      5059       1   12328   12300   12329    6173    8423    8419+
+          12345    7951    8292    7949
CTETRA      5060       1    8453   10218   10231   10232    6976   10726+
+           8202    6977   10729   10728
CTETRA      5061       1    8554   10339   10352    6153    7656   11078+
+           7659    7658    7657    7660
CTETRA      5062       1    8801   10638   10637   10651    7398   11894+
+           6576    7764   11933   11932
CTETRA      5063       1   10235   10249   10248    6160   10784   10783+
+          10782    6997    6996    6801
CTETRA      5064       1    8651    8663   10450   10463    9478    6903+
+           8067    8025    7120   11395
CTETRA      5065       1    8788    8801    8800   10639    9867    9866+
+           9865    6893    6502    6501
CTETRA      5066       1    8450   10222   10236    6161    6814   10745+
+           7751    7329    7086    6806
CTETRA      5067       1    8467   10230   10243   10244    6506   10767+
+           7020    7002   10769   10768
CTETRA      5068       1    8789    8801   10625   10638    9868    7396+
+           6584    7397    7398   11896
CTETRA      5069       1   12387    8442    8441   10217   10201    8880+
+          10200    6566    6565    8287
CTETRA      5070       1    8755    8768    8767   10593    9774    9773+
+           9772    6448    7844    6449
CTETRA      5071       1   12329   12300   10689    6173    8419   12150+
+           7139    7949    8292    7419
CTETRA      5072       1    8728   10542   10555   10556    6404   11659+
+           6388    6387   11661   11660
CTETRA      5073       1    8446   10212    8459   10226    7036    6546+
+           8898    6547   10705    6540
CTETRA      5074       1    8467    8468    8480   10243    8923    8959+
+           8958    7020    7034    7572
CTETRA      5075       1    8440   10220   10219   10233    7608   10735+
+           7077    7371   10734   10733
CTETRA      5076       1    8726   10557    8739   10571    6795    8091+
+           9691    7853   11704    8093
CTETRA      5077       1    8726    8739    8738   10571    9691    9690+
+           9689    7853    8093    8246
CTETRA      5078       1    8475    6148    8487    6166    6317    6986+
+           8978    7188    7981    7985
CTETRA      5079       1    8590   10380    8603   10394    7209    7715+
+           9307    7199   11197    8054
CTETRA      5080       1    8714    8715    8727   10543    9622    9658+
+           9657    6818    7556    7563
CTETRA      5081       1    8706    8707    8719   10524    9600    9636+
+           9635    7297    8293    8294
CTETRA      5082       1    8450    8462   10236   10249    8907    8295+
+           7751    6994    7275   10785
CTETRA      5083       1    8493    8494    8506   10269    8997    9033+
+           9032    8218    7613    7612
CTETRA      5084       1    8732   10550    8745   10564    7532    8296+
+           9709    7889   11683    7890
CTETRA      5085       1   12511   12440   12550   10224    7952   12441+
+           8198    7953   12242   12244
CTETRA      5086       1    8473   10251   10264   10265    8297   10828+
+           7956    8143   10830   10829
CTETRA      5087       1    8461    8462    8474   10250    8905    8941+
+           8940    8220    8261    8298
CTETRA      5088       1    8493    8506    8505   10283    9032    9031+
+           9030    7105    7606    6694
CTETRA      5089       1    8633   10442    8634   10455    7542    8299+
+           9393    6624   11373    6943
CTETRA      5090       1    8719   10524   10537   10538    8294   11607+
+           7476    7878   11609   11608
CTETRA      5091       1    8718    8730   10539   10552    9667    7164+
+           6592    6594    6337   11650
CTETRA      5092       1    8596    8609    8608   10415    9323    9322+
+           9321    8300    6451    6450
CTETRA      5093       1    8720    8732   10537    6154    9673    7478+
+           7477    6471    7533    7549
CTETRA      5094       1    8686   10492    8699   10506    7893    7895+
+           9579    8106   11517    8170
CTETRA      5095       1    8674    8687    8686   10478    9545    9544+
+           9543    8301    7900    8104
CTETRA      5096       1    8674   10478    8686   10479    8301    8104+
+           9543    8302   11439    7570
CTETRA      5097       1    8667   10486    8680   10500    7177    7505+
+           9524    7178   11501    7168
CTETRA      5098       1   12329    8852    8853   10690   10112   10014+
+          10113    7140    6711    7141
CTETRA      5099       1    8690   10529    8702   10530    6373    6382+
+           9587    6857   11586    6381
CTETRA      5100       1    8691    8704    8703   10528    9592    9591+
+           9590    8303    6685    8244
CTETRA      5101       1    8678   10502   10501   10515    6369   11506+
+           6696    6370   11545   11544
CTETRA      5102       1    8622   10426    8635   10440    8053    7491+
+           9397    8046   11329    7493
CTETRA      5103       1    8568   10378   10377   10391    6495   11152+
+           6500    6496   11191   11190
CTETRA      5104       1    8585   10387   10386   10400    8077   11177+
+           7810    8269   11216   11215
CTETRA      5105       1    8645    8657   10456   10469    9460    8304+
+           6626    6571    6384   11413
CTETRA      5106       1    8561    8562    8574   10357    9189    9225+
+           9224    8122    6461    8123
CTETRA      5107       1    8658   10469   10468   10482    6354   11411+
+           6896    8151   11450   11449
CTETRA      5108       1   12328   12299   12300    6173    8422   12319+
+           8423    7951    7417    8292
CTETRA      5109       1    8480    8492   10257    6171    8993    7356+
+           7355    7756    7357    7349
CTETRA      5110       1    8633    8634    8646   10455    9393    9429+
+           9428    6624    6943    6324
CTETRA      5111       1    8528   10313   10326    6182    6514   11004+
+           6516    7884    7883    7899
CTETRA      5112       1    8613    8614    8626   10409    9337    9373+
+           9372    7314    7327    7315
CTETRA      5113       1    8625   10423    8638   10437    7740    7742+
+           9406    7741   11320    8305
CTETRA      5114       1    8525   10316    8526   10329    7725    7726+
+           9087    7943   11013    7274
CTETRA      5115       1    8840    8853    8852   10690   10015   10014+
+          10013    6710    7141    6711
CTETRA      5116       1   12498   12427   10406   10420    6615   12216+
+           6614    7201   12215   11273
CTETRA      5117       1    8453   10245    8465   10246    8203    7969+
+           8916    8306   10774    7738
CTETRA      5118       1    8588    8600   10383   10396    9299    6931+
+           6465    6466    6938   11204
CTETRA      5119       1    8839    8852    8851   10691   10012   10011+
+          10010    8073    6713    6723
CTETRA      5120       1    8530    8543    8542   10324    9137    9136+
+           9135    8051    8205    8204
CTETRA      5121       1    8585   10386   10399   10400    7810   11213+
+           7866    8269   11215   11214
CTETRA      5122       1    8575    8588    8587   10383    9264    9263+
+           9262    8266    6465    6930
CTETRA      5123       1    8585    8586    8598   10399    9257    9293+
+           9292    7866    8307    6929
CTETRA      5124       1   12502   12432   12503   10350    7912    7913+
+          12521    7909   12225    8308
CTETRA      5125       1    8578   10366   10367    6158    7926   11119+
+           6753    6756    7325    6757
CTETRA      5126       1    8490   10273    8502   10274    8017    8060+
+           9021    8063   10854    8064
CTETRA      5127       1   10339   10353   10352    6153   11080   11079+
+          11078    7657    6456    7660
CTETRA      5128       1    8513   10288    8514   10302    6787    6781+
+           9053    6789   10935    6783
CTETRA      5129       1    8677   10503   10502   10516    7483   11509+
+           7494    7484   11548   11547
CTETRA      5130       1    8564    8576   10355   10368    9231    7226+
+           7225    8079    6758   11124
CTETRA      5131       1    8514   10288   10287   10301    6781   10894+
+           7231    6782   10933   10932
CTETRA      5132       1    8453   10232   10245   10246    6977   10773+
+           8203    8306   10775   10774
CTETRA      5133       1    8506   10269   10282   10283    7612   10878+
+           7006    7606   10880   10879
CTETRA      5134       1    8525   10317   10316   10330    8309   10977+
+           7725    7944   11016   11015
CTETRA      5135       1    8492   10257   10270   10271    7356   10844+
+           7283    8201   10846   10845
CTETRA      5136       1    8564    8565    8577   10354    9198    9234+
+           9233    7578    7580    6852
CTETRA      5137       1    8552    8553    8565   10340    9164    9200+
+           9199    7220    6530    7579
CTETRA      5138       1    8562    8563    8575   10356    9192    9228+
+           9227    6462    6215    8310
CTETRA      5139       1    8448   10224   10237   10238    7955   10750+
+           7073    8311   10753   10752
CTETRA      5140       1    8511    8524    8523   10318    9082    9081+
+           9080    6529    6224    7886
CTETRA      5141       1    8557    8570    8569   10376    9212    9211+
+           9210    7938    7939    8200
CTETRA      5142       1    8569   10377   10376   10390    8197   11149+
+           8200    7785   11188   11187
CTETRA      5143       1    8539   10314   10327   10328    7582   11007+
+           6964    7217   11009   11008
CTETRA      5144       1    8524    8525    8537   10317    9084    9120+
+           9119    6225    8309    6218
CTETRA      5145       1   12503   10336    8544   10350    8312    8313+
+          10043    8308   11073    7910
CTETRA      5146       1    8525    8537   10317   10330    9120    6218+
+           8309    7944    6219   11016
CTETRA      5147       1    8525    8538    8537   10330    9122    9121+
+           9120    7944    7945    6219
CTETRA      5148       1    8563    8575   10356   10369    9228    8310+
+           6215    6217    6464   11127
CTETRA      5149       1    8523   10318    8536   10332    7886    8314+
+           9116    7888   11021    8126
CTETRA      5150       1    8536   10332   10331   10345    8126   11020+
+           6512    6586   11059   11058
CTETRA      5151       1    8541    8542    8554   10325    9133    9169+
+           9168    8049    8048    8213
CTETRA      5152       1    8512    8525    8524   10317    9085    9084+
+           9083    7593    8309    6225
CTETRA      5153       1   12506    8496    8508   10294   10034    9037+
+          10037    8315    8226    8316
CTETRA      5154       1   10298   10299   10312    6180   10925   10964+
+          10963    7942    8016    7946
CTETRA      5155       1    8509    8521   10307   10320    9074    6648+
+           7497    7517    6649   10988
CTETRA      5156       1    8521   10320    8534   10334    6649    7513+
+           9110    6993   11027    7258
CTETRA      5157       1   10307   10308   10321    6162   10952   10991+
+          10990    7496    7474    6991
CTETRA      5158       1    8505   10283    8518   10297    6694    7607+
+           9066    6695   10920    7609
CTETRA      5159       1   12491   10491   12420   10505    8317   12115+
+           8318    8169   11514   12118
CTETRA      5160       1    8516   10285   10298   10299    7603   10924+
+           7599    8012   10926   10925
CTETRA      5161       1    8605    8617    8616   10419    9346    9345+
+           9344    7697    6481    7194
CTETRA      5162       1    8496    8508   10294   10307    9037    8316+
+           8226    7614    7495   10951
CTETRA      5163       1    8529    8530    8542   10311    9099    9135+
+           9134    7745    8050    8319
CTETRA      5164       1    8530   10297   10310   10311    8320   10958+
+           7673    8050   10960   10959
CTETRA      5165       1   12497   12426   12427   10420    7241   12455+
+           7111    7242   12214   12215
CTETRA      5166       1   10330   10344   10343    6155   11055   11054+
+          11053    7440    7447    7441
CTETRA      5167       1    8510   10305    8523   10319    8162    7885+
+           9079    8321   10984    7887
CTETRA      5168       1    8520   10321   10308    6162    6988   10991+
+           6254    6989    6991    7474
CTETRA      5169       1    8673    8685   10480   10493    9540    7487+
+           7486    7488    7490   11481
CTETRA      5170       1    8503    8516    8515   10299    9060    9059+
+           9058    7287    8012    6970
CTETRA      5171       1    8666   10474   10487   10488    7302   11465+
+           6699    6705   11467   11466
CTETRA      5172       1    8499   10291   10290   10304    6982   10903+
+           6236    6273   10942   10941
CTETRA      5173       1    8686   10478    8687   10492    8104    7900+
+           9544    7893   11477    7894
CTETRA      5174       1    8484    8485    8496    6178    8971    9004+
+           9003    7644    7629    7631
CTETRA      5175       1    8496   10293   10280    6178    8173   10911+
+           8274    7631    8172    7896
CTETRA      5176       1    8454   10217   10230   10231    8288   10722+
+           6504    8290   10725   10724
CTETRA      5177       1    8501   10274    8502   10288    8322    8064+
+           9019    6786   10895    8272
CTETRA      5178       1    8477    8490    8489   10260    8986    8985+
+           8984    7233    7967    7237
CTETRA      5179       1    8464    8477    8476   10261    8949    8948+
+           8947    6793    6973    6794
CTETRA      5180       1   12509    8471   10239   10253   10183    6542+
+           8323    8324    7904   10794
CTETRA      5181       1    8574   10384    8586   10385    7550    7552+
+           9259    6321   11171    6322
CTETRA      5182       1    8602   10394    8615   10408    7200    8055+
+           9341    6206   11237    7907
CTETRA      5183       1    8458   10213   10226   10227    7976   10706+
+           6548    7948   10709   10708
CTETRA      5184       1    8534   10333    8547   10347    7836    8088+
+           9147    7571   11064    6969
CTETRA      5185       1    8599    8612    8611   10411    9332    9331+
+           9330    8026    7798    8027
CTETRA      5186       1    8641   10461   10460   10474    6707   11389+
+           7182    6478   11428   11427
CTETRA      5187       1    8445    8446    8458   10213    8896    8895+
+           8894    7522    7035    7976
CTETRA      5188       1    8653    8666    8665   10488    9484    9483+
+           9482    6429    6705    8325
CTETRA      5189       1    8549    8562    8561   10357    9190    9189+
+           9188    8121    6461    8122
CTETRA      5190       1    8443   10215    8456   10229    7050    8326+
+           8886    8327   10717    7334
CTETRA      5191       1   12503    8555    8543   10337   10170    9172+
+          10171    7915    8227    8243
CTETRA      5192       1    8634   10442   10441   10455    8299   11334+
+           6606    6943   11373   11372
CTETRA      5193       1    8577   10354   10367   10368    6852   11121+
+           6754    8328   11123   11122
CTETRA      5194       1    8622   10413   10426   10427    8256   11290+
+           8053    6364   11292   11291
CTETRA      5195       1    8596   10388   10401   10402    7213   11219+
+           8329    7211   11221   11220
CTETRA      5196       1    8550   10343   10356   10357    7444   11090+
+           7734    7940   11092   11091
CTETRA      5197       1    8538   10329   10342    6170    6533   11050+
+           6767    7720    7735    7229
CTETRA      5198       1    8578    8579    8591   10366    9238    9274+
+           9273    7926    7560    7703
CTETRA      5199       1   12384   12385   12356    8444   12398   12286+
+          12287   10194   10197    7045
CTETRA      5200       1    8592    8593    8604   10405    9277    9310+
+           9309    7694    7701    7695
CTETRA      5201       1    8595    8607   10403   10416    9318    8193+
+           8271    8330    6642   11262
CTETRA      5202       1   12381   12353   12352   10211   12293   12380+
+          12294    7044   12269   12076
CTETRA      5203       1    8513   10289   10302   10303    6788   10936+
+           6789    8331   10938   10937
CTETRA      5204       1    8515    8527   10300   10313    9092    6960+
+           7723    6972    7880   10967
CTETRA      5205       1    8526   10315   10314   10328    7224   10971+
+           7581    7273   11010   11009
CTETRA      5206       1    8538    8550   10329    6170    9157    6534+
+           6533    7720    7365    7735
CTETRA      5207       1    8547    8560    8559   10360    9184    9183+
+           9182    6957    6958    6409
CTETRA      5208       1    8574   10358   10371   10372    8124   11133+
+           8185    8332   11135   11134
CTETRA      5209       1   12382   12354   12353   10212   12291   12379+
+          12292    7156   12268   12267
CTETRA      5210       1   12489   12418   12417   10533    7990   12464+
+           7992    7991   12122   12121
CTETRA      5211       1   12486   12487   12416   10561   12537    7986+
+           8020    7716    7718   12126
CTETRA      5212       1   12486   12415   12416   10574    8021   12466+
+           8020    7863   12192   12193
CTETRA      5213       1    8582   10376   10389   10390    8333   11185+
+           8045    8268   11187   11186
CTETRA      5214       1    8593    8594    8606   10404    9279    9315+
+           9314    7801    7548    7802
CTETRA      5215       1    8582    8595    8594   10403    9283    9282+
+           9281    8334    8271    8192
CTETRA      5216       1   12488    8723   12489   10533   10141   10142+
+          12535    7712    8278    7991
CTETRA      5217       1   12487    8724    8736   10560   10072    9683+
+          10075    7988    7460    8335
CTETRA      5218       1    8748   10573    8749   10587    7145    8336+
+           9719    7134   11750    7133
CTETRA      5219       1    8604   10406   10405   10419    6825   11232+
+           7695    7193   11271   11270
CTETRA      5220       1    8581   10391   10390   10404    7787   11189+
+           7545    7547   11228   11227
CTETRA      5221       1    8595    8608    8607   10416    9320    9319+
+           9318    8330    6647    6642
CTETRA      5222       1    8572   10374   10373   10387    6412   11140+
+           6392    8337   11179   11178
CTETRA      5223       1   12488   12489    8712   10546   12535   10071+
+          10070    7804    7807    7805
CTETRA      5224       1    8577   10367    8589   10368    6754    6634+
+           9268    8328   11122    6467
CTETRA      5225       1    8698   10506    8711   10520    8034    8171+
+           9613    8035   11557    6819
CTETRA      5226       1   12489   12490   12419   10519   12534    8338+
+           8285    7989    8276   12120
CTETRA      5227       1    8723   10534   10533   10547    7471   11596+
+           8278    8339   11635   11634
CTETRA      5228       1   12485   12486   12415   10575   12538    8021+
+           8340    8341    8342   12128
CTETRA      5229       1   12489    8711   10519   10533   10143    6820+
+           7989    7991    6821   11594
CTETRA      5230       1    8633   10428    8634   10442    7575    6367+
+           9393    7542   11335    8299
CTETRA      5231       1    8613    8626    8625   10423    9372    9371+
+           9370    7316    6731    7740
CTETRA      5232       1    8570   10362   10375   10376    7937   11145+
+           7935    7939   11147   11146
CTETRA      5233       1    8710    8723    8722   10534    9647    9646+
+           9645    7470    7471    7289
CTETRA      5234       1   12487    8735   12488   10547   10139   10140+
+          12536    8343    7710    7714
CTETRA      5235       1   12489   12419   12490   10532    8285    8338+
+          12534    7806   12199    8284
CTETRA      5236       1    8712   10545    8724   10546    6361    6363+
+           9649    7805   11632    7459
CTETRA      5237       1   12487   12488    8724   10560   12536   10073+
+          10072    7988    8024    7460
CTETRA      5238       1   10670   10671   10684    6172   11989   12028+
+          12027    7391    7390    7817
CTETRA      5239       1    8542   10324    8555   10338    8204    8206+
+           9171    8216   11037    8209
CTETRA      5240       1    8623   10426   10425   10439    7861   11288+
+           7857    7859   11327   11326
CTETRA      5241       1    8616    8628   10434   10447    9377    6630+
+           6831    7722    6883   11351
CTETRA      5242       1    8615   10394   10407   10408    8055   11235+
+           6823    7907   11237   11236
CTETRA      5243       1    8812    8825    8824   10667    9935    9934+
+           9933    7102    7096    7097
CTETRA      5244       1    8799   10641   10640   10654    7821   11903+
+           6900    7968   11942   11941
CTETRA      5245       1    8577    8590    8589   10367    9270    9269+
+           9268    6754    7557    6634
CTETRA      5246       1    8601   10395    8614   10409    6762    6204+
+           9338    7313   11240    7327
CTETRA      5247       1   12386   12387   12358   10217   12400   12273+
+          12272    6564    6566   12257
CTETRA      5248       1    8478    8490   10259   10272    8987    7966+
+           7731    7340    7812   10850
CTETRA      5249       1    8818   10633   10646   10647    8008   11918+
+           7378    7118   11920   11919
CTETRA      5250       1    8567   10352   10351   10365    7562   11076+
+           6944    6947   11115   11114
CTETRA      5251       1    8555    8567   10338   10351    9206    7928+
+           8209    8228    6944   11075
CTETRA      5252       1    8819   10632   10645   10646    8257   11915+
+           7650    7130   11917   11916
CTETRA      5253       1   12387   10217    8441   10218    6566    8287+
+          10200    8286   10727    8023
CTETRA      5254       1    8817    8830    8829   10661    9950    9949+
+           9948    6637    6261    6260
CTETRA      5255       1    8518   10297   10296   10310    7609   10919+
+           7009    8059   10958   10957
CTETRA      5256       1    8776    8789    8788   10625    9833    9832+
+           9831    8141    6584    7395
CTETRA      5257       1    8775   10612    8787   10613    7278    7282+
+           9828    7774   11823    7270
CTETRA      5258       1    8606   10417    8619   10431    8003    8191+
+           9351    8183   11304    8184
CTETRA      5259       1    8798    8799    8811    6169    9860    9896+
+           9895    7822    7824    7204
CTETRA      5260       1    8599   10397    8612   10411    7922    8040+
+           9332    8026   11246    7798
CTETRA      5261       1    8776    8777    8789   10611    9798    9834+
+           9833    8086    8344    6582
CTETRA      5262       1    8597    8610    8609   10413    9326    9325+
+           9324    6344    6346    8065
CTETRA      5263       1    8747   10548   10561   10562    7153   11675+
+           7717    7155   11677   11676
CTETRA      5264       1    8661   10465    8674   10479    7520    8345+
+           9508    7521   11440    8302
CTETRA      5265       1    8696   10509   10508   10522    6683   11525+
+           6347    6349   11564   11563
CTETRA      5266       1    8799   10640    8812   10654    6900    8241+
+           9898    7968   11941    8258
CTETRA      5267       1    8833    8834   10684    6172    9959    7816+
+           8231    8235    7815    7817
CTETRA      5268       1    8739    8751   10571   10584    9726    6328+
+           8093    8159    6329   11742
CTETRA      5269       1    8682    8695    8694   10510    9567    9566+
+           9565    7299    8346    7300
CTETRA      5270       1    8642    8643    8655   10459    9418    9454+
+           9453    7186    7688    7685
CTETRA      5271       1    8667   10473   10486   10487    7305   11462+
+           7177    7176   11464   11463
CTETRA      5272       1    8611   10398   10411   10412    7920   11247+
+           8027    7921   11249   11248
CTETRA      5273       1    8725   10558   10545    6147    8028   11668+
+           7457    8029    7555    8018
CTETRA      5274       1    8737    8749   10573   10586    9720    8336+
+           7452    6313    6315   11748
CTETRA      5275       1    8677   10502    8690   10516    7494    6368+
+           9552    7484   11547    6372
CTETRA      5276       1    8517   10298   10297   10311    7598   10922+
+           7594    7744   10961   10960
CTETRA      5277       1    8661    8662    8674   10465    9473    9509+
+           9508    7520    8076    8345
CTETRA      5278       1    8743   10552   10565   10566    8119   11687+
+           7663    6808   11689   11688
CTETRA      5279       1    8707   10524   10523   10537    8293   11568+
+           7481    7877   11607   11606
CTETRA      5280       1    8742   10566    8755   10580    6332    8347+
+           9737    6335   11729    6447
CTETRA      5281       1   12491    8676    8688   10504   10064    9547+
+          10067    8248    6660    6659
CTETRA      5282       1    8736   10560   10559   10573    8335   11672+
+           7449    7451   11711   11710
CTETRA      5283       1   12492   10477   12421   10491    8215   12113+
+           8348    7902   11474   12116
CTETRA      5284       1    8512    8513    8525   10303    9050    9086+
+           9085    7592    8331    8349
CTETRA      5285       1    8674    8675    8687   10478    9510    9546+
+           9545    8301    8098    7900
CTETRA      5286       1    8556   10364   10363   10377    7775   11112+
+           7780    6498   11151   11150
CTETRA      5287       1    8505   10284   10297    6177    6693   10921+
+           6695    7595    8262    7596
CTETRA      5288       1    8724   10559    8736   10560    7458    7449+
+           9683    7460   11672    8335
CTETRA      5289       1    8705    8706    8718   10526    9597    9633+
+           9632    7158    8252    7150
CTETRA      5290       1   12488   12489   12417   10533   12535    7992+
+           7713    7712    7991   12121
CTETRA      5291       1    8668   10486   10485   10499    7502   11460+
+           6393    6395   11499   11498
CTETRA      5292       1    8635    8636    8648   10453    9399    9435+
+           9434    6870    7856    6871
CTETRA      5293       1    8689    8690    8702   10530    9551    9587+
+           9586    6848    6857    6381
CTETRA      5294       1    8522   10319    8523    6176    7509    7887+
+           9078    7510    7512    8130
CTETRA      5295       1    8655    8668    8667   10486    9490    9489+
+           9488    7501    7502    7177
CTETRA      5296       1    8535   10332   10333    6176    8127   11023+
+           7835    7837    8131    7838
CTETRA      5297       1    8665    8677    8676   10489    9516    9515+
+           9514    8350    8275    8351
CTETRA      5298       1    8647   10453    8660   10467    6872    7906+
+           9468    7507   11406    6599
CTETRA      5299       1    8676   10489    8677   10503    8351    8275+
+           9515    8352   11510    7483
CTETRA      5300       1    8656   10472   10471   10485    7504   11420+
+           6399    6401   11459   11458
CTETRA      5301       1    8630   10432   10445   10446    8254   11345+
+           6890    7689   11347   11346
CTETRA      5302       1    8606   10418   10417   10431    7803   11266+
+           8003    8183   11305   11304
CTETRA      5303       1    8663    8675   10464   10477    9512    8102+
+           8103    7122    8099   11435
CTETRA      5304       1    8653    8654    8666   10474    9449    9485+
+           9484    6428    7185    7302
CTETRA      5305       1    8610    8623    8622   10426    9363    9362+
+           9361    8353    7861    8053
CTETRA      5306       1    8608    8621    8620   10429    9357    9356+
+           9355    6470    6416    6407
CTETRA      5307       1    8596   10401    8609   10415    8329    8042+
+           9323    8300   11258    6451
CTETRA      5308       1    8623   10412   10425   10426    8354   11287+
+           7857    7861   11289   11288
CTETRA      5309       1    8657   10483    8669   10484    6374    6376+
+           9494    8355   11454    6861
CTETRA      5310       1    8750   10572   10585   10586    7846   11745+
+           6772    6314   11747   11746
CTETRA      5311       1    8557   10363   10362   10376    7591   11109+
+           7590    7938   11148   11147
CTETRA      5312       1    8614    8615    8627   10408    9340    9376+
+           9375    6207    7907    6743
CTETRA      5313       1    8558    8570   10362   10375    9213    7937+
+           7247    7934    7935   11145
CTETRA      5314       1    8571   10375   10374   10388    6979   11143+
+           6439    6441   11182   11181
CTETRA      5315       1    8573   10372    8574   10385    7335    8332+
+           9223    6320   11173    6321
CTETRA      5316       1    8573   10385    8585   10386    6320    7865+
+           9256    7336   11174    7810
CTETRA      5317       1    8597   10400   10399   10413    6953   11214+
+           6928    6344   11253   11252
CTETRA      5318       1    8588    8601    8600   10396    9301    9300+
+           9299    6466    7207    6938
CTETRA      5319       1    8682   10496    8695   10510    6232    8356+
+           9567    7299   11529    8346
CTETRA      5320       1    8805   10634   10633   10647    6908   11882+
+           6619    8357   11921   11920
CTETRA      5321       1    8597   10401   10400   10414    6954   11217+
+           6953    8255   11256   11255
CTETRA      5322       1    8534   10320   10333   10334    7513   11025+
+           7836    7258   11027   11026
CTETRA      5323       1    8584    8596   10388   10401    9287    7213+
+           6442    6951    8329   11219
CTETRA      5324       1    8569    8570    8582   10376    9211    9247+
+           9246    8200    7939    8333
CTETRA      5325       1    8637   10437    8650   10451    6492    8358+
+           9440    6493   11360    6869
CTETRA      5326       1    8668    8669    8681   10485    9492    9528+
+           9527    6393    6402    6394
CTETRA      5327       1    8656    8669    8668   10485    9493    9492+
+           9491    6401    6402    6393
CTETRA      5328       1    8502    8503    8515   10286    9022    9058+
+           9057    8062    7286    7285
CTETRA      5329       1    8540   10326    8553   10340    6521    6523+
+           9165    6525   11043    6530
CTETRA      5330       1    8690    8703    8702   10529    9589    9588+
+           9587    6373    8097    6382
CTETRA      5331       1    8729   10541   10540   10554    6280   11617+
+           6294    6281   11656   11655
CTETRA      5332       1    8515    8528    8527   10313    9094    9093+
+           9092    6972    6514    7880
CTETRA      5333       1   12508    8472    8484   10266   10030    8969+
+          10033    7408    7636    7635
CTETRA      5334       1    8527   10314   10313   10327    6962   10968+
+           7880    6963   11007   11006
CTETRA      5335       1    8607    8619   10417   10430    9352    8191+
+           7918    6643    6926   11302
CTETRA      5336       1    8716    8717    8729   10541    9628    9664+
+           9663    6687    7679    6280
CTETRA      5337       1    8691   10515   10514   10528    6698   11543+
+           7682    8303   11582   11581
CTETRA      5338       1    8703    8715   10529   10542    9624    8359+
+           8097    8245    6403   11622
CTETRA      5339       1    8703    8716    8715   10542    9626    9625+
+           9624    8245    6681    6403
CTETRA      5340       1    8844   10686   10685   10699    7056   12032+
+           7622    7416   12071   12070
CTETRA      5341       1   12508   12437   10266   10280    8273   12236+
+           7408    8056   12235   10873
CTETRA      5342       1   12508   12436   12437   10280    8229   12445+
+           8273    8056   12234   12235
CTETRA      5343       1    8529   10311   10312    6180    7745   10962+
+           6517    7748    7747    7946
CTETRA      5344       1    8457    8458    8470   10227    8893    8931+
+           8930    7973    7948    7947
CTETRA      5345       1   12491    8687   10491   10505   10147    7901+
+           8317    8169    8166   11514
CTETRA      5346       1    8663   10464   10463   10477    8103   11396+
+           7120    7122   11435   11434
CTETRA      5347       1    8595   10403   10402   10416    8271   11223+
+           7212    8330   11262   11261
CTETRA      5348       1    8458   10227   10226   10240    7948   10708+
+           6548    7359   10758   10757
CTETRA      5349       1   12506    8507   12507   10281   10177   10178+
+          12517    7680    7019    8115
CTETRA      5350       1   12508   10253   12437   10267    8360   12081+
+           8273    8196   10834   12084
CTETRA      5351       1   12506   12507    8496   10294   12517   10035+
+          10034    8315    8212    8226
CTETRA      5352       1    8472   10252   10251   10265    8361   10792+
+           8362    8142   10831   10830
CTETRA      5353       1    8484   10279   10266    6179    7642   10871+
+           7635    7638    7652    7639
CTETRA      5354       1    8461    8473    8472   10251    8938    8937+
+           8936    8219    8297    8362
CTETRA      5355       1    8740   10556   10569   10570    6397   11699+
+           6398    8145   11701   11700
CTETRA      5356       1   12508   12437   12438   10266    8273   12444+
+           7406    7408   12236   12237
CTETRA      5357       1    8472   10252   10265   10266    8361   10831+
+           8142    7636   10833   10832
CTETRA      5358       1    8745   10564   10563   10577    7890   11682+
+           7784    8013   11721   11720
CTETRA      5359       1    8770   10591   10590   10604    6284   11759+
+           8236    6285   11798   11797
CTETRA      5360       1    8472   10266   10265    6179    7636   10832+
+           8142    7637    7639    7651
CTETRA      5361       1    8730   10553   10566   10567    6336   11690+
+           6331    6333   11692   11691
CTETRA      5362       1   12487   12417   12416   10547    7987   12465+
+           7986    8343   12124   12123
CTETRA      5363       1   12507   12436   12508   10280    8210    8229+
+          12516    8267   12234    8056
CTETRA      5364       1    8722   10534    8735   10548    7289    7709+
+           9681    7290   11637    7711
CTETRA      5365       1    8722    8723    8735   10534    9646    9682+
+           9681    7289    7471    7709
CTETRA      5366       1   12508    8483   10253   10267   10181    7342+
+           8360    8196    8108   10834
CTETRA      5367       1    8711   10506   10519   10520    8171   11555+
+           6820    6819   11557   11556
CTETRA      5368       1   12487    8747    8735   10561   10138    9716+
+          10139    7718    7717    7984
CTETRA      5369       1   12477    8844   12338   10700   10092   10095+
+          10094    6622    7053    6854
CTETRA      5370       1    8815    8816    8828   10649    9909    9945+
+           9944    7261    7106    8363
CTETRA      5371       1    8701   10531   10530    6150    6851   11589+
+           6849    7311    7312    6379
CTETRA      5372       1    8719   10538   10537   10551    7878   11608+
+           7476    6484   11647   11646
CTETRA      5373       1    8814    8815    8827   10650    9906    9942+
+           9941    7828    7266    7265
CTETRA      5374       1    8812   10654   10653   10667    8258   11940+
+           7100    7102   11979   11978
CTETRA      5375       1    8826    8827    8839   10664    9940    9976+
+           9975    7264    7263    7832
CTETRA      5376       1    8839   10664   10678    6183    7832   12009+
+           7834    8175    8187    8176
CTETRA      5377       1    8734    8735    8747   10548    9680    9716+
+           9715    7152    7711    7153
CTETRA      5378       1   12482   12411   12412   10630    6841   12470+
+           7411    7255   12184   12185
CTETRA      5379       1    8789    8790    8802   10637    9835    9871+
+           9870    6575    6562    6563
CTETRA      5380       1    8806    8819    8818   10646    9919    9918+
+           9917    8010    7130    7378
CTETRA      5381       1    8807   10618   10631   10632    7072   11875+
+           7071    7654   11877   11876
CTETRA      5382       1    8745   10550   10563   10564    8296   11681+
+           7784    7890   11683   11682
CTETRA      5383       1   12482   12483    8784   10630   12541   10083+
+          10082    7255    7761    8364
CTETRA      5384       1   12480   12481    8808   10658   12543   10087+
+          10086    7683    6839    7648
CTETRA      5385       1    8818    8819    8831   10646    9918    9954+
+           9953    7378    7130    7129
CTETRA      5386       1    8730    8731    8743   10552    9668    9704+
+           9703    6337    7983    8119
CTETRA      5387       1    8791    8792    8804   10621    9841    9877+
+           9876    8137    6655    6651
CTETRA      5388       1    8743    8755   10566   10579    9738    8347+
+           6808    7665    7114   11727
CTETRA      5389       1    8784   10615    8785   10629    7425    8365+
+           9821    8366   11870    8367
CTETRA      5390       1    8502   10286    8515   10300    8062    7285+
+           9057    8368   10929    7723
CTETRA      5391       1    8764    8777    8776   10611    9799    9798+
+           9797    8369    8344    8086
CTETRA      5392       1    8787    8788    8800   10626    9829    9865+
+           9864    7272    6892    6891
CTETRA      5393       1    8786   10627    8799   10641    7281    6897+
+           9861    8370   11904    7821
CTETRA      5394       1    8715    8716    8728   10542    9625    9661+
+           9660    6403    6681    6404
CTETRA      5395       1    8786   10614   10627   10628    7436   11865+
+           7281    7438   11867   11866
CTETRA      5396       1   12487    8735   10547   10561   10139    7710+
+           8343    7718    7984   11674
CTETRA      5397       1    8751   10584    8764   10598    6329    8084+
+           9762    7842   11781    7843
CTETRA      5398       1    8729   10554   10553   10567    6281   11654+
+           7162    8118   11693   11692
CTETRA      5399       1    8754    8767    8766   10594    9771    9770+
+           9769    6677    7149    7107
CTETRA      5400       1    8769   10592   10591   10605    6745   11762+
+           6760    6746   11801   11800
CTETRA      5401       1   10592   10606   10605    6157   11803   11802+
+          11801    6748    7410    6749
CTETRA      5402       1    8778   10608    8791   10622    7127    8253+
+           9839    6277   11849    6527
CTETRA      5403       1    8778    8779    8791   10608    9804    9840+
+           9839    7127    6644    8253
CTETRA      5404       1    8785    8798    8797   10642    9858    9857+
+           9856    8280    6738    6737
CTETRA      5405       1    8450    8463    8462    6160    8909    8908+
+           8907    6995    6800    7276
CTETRA      5406       1    8746    8758   10563   10576    9747    8181+
+           7783    8371    8179   11718
CTETRA      5407       1    8745    8746    8758   10563    9711    9747+
+           9746    7784    7783    8181
CTETRA      5408       1    8765   10583   10596   10597    7462   11776+
+           8149    7464   11778   11777
CTETRA      5409       1    8758    8770   10577   10590    9781    8224+
+           8177    8180    8236   11758
CTETRA      5410       1   12299   10689   12300    6173   12149   12150+
+          12319    7417    7419    8292
CTETRA      5411       1    8721    8722    8734   10535    9643    9679+
+           9678    6343    7288    6845
CTETRA      5412       1    8777    8789   10611   10624    9834    6582+
+           8344    7401    6583   11856
CTETRA      5413       1    8802    8815    8814   10650    9907    9906+
+           9905    7762    7266    7828
CTETRA      5414       1    8749   10587   10586   10600    7133   11749+
+           6315    6911   11788   11787
CTETRA      5415       1    8494   10269   10268   10282    7613   10839+
+           7309    7610   10878   10877
CTETRA      5416       1    8481   10255    8494   10269    7626    7306+
+           8998    7768   10840    7613
CTETRA      5417       1    8731    8732    8744   10551    9671    9707+
+           9706    6486    6485    6809
CTETRA      5418       1    8739   10571   10570   10584    8093   11703+
+           8092    8159   11742   11741
CTETRA      5419       1    8801   10651    8813   10652    7764    7766+
+           9902    7442   11934    7839
CTETRA      5420       1   12479   12408    8843    6168    6874    7235+
+          10122    7376    7377    8207
CTETRA      5421       1   12485    8759   10575   10589   10135    6639+
+           8341    8233    8372   11754
CTETRA      5422       1    8799    8812    8811   10654    9898    9897+
+           9896    7968    8258    6211
CTETRA      5423       1    8715   10529   10542   10543    8359   11622+
+           6403    7556   11624   11623
CTETRA      5424       1    8470   10240    8483   10254    7361    7341+
+           8967    7369   10797    7343
CTETRA      5425       1    8696    8708   10509   10522    9605    8164+
+           6683    6349    6350   11564
CTETRA      5426       1    8833   10684    8846   10698    8231    7916+
+           9994    7919   12067    7624
CTETRA      5427       1    8782    8794   10605   10618    9849    7423+
+           6311    6312    7068   11838
CTETRA      5428       1    8694   10510    8707   10524    7300    8373+
+           9601    7296   11569    8293
CTETRA      5429       1   12483   12412   10616   10630    7760   12186+
+           7757    7761   12185   11873
CTETRA      5430       1    8694   10511   10510   10524    7294   11531+
+           7300    7296   11570   11569
CTETRA      5431       1    8702   10529    8715   10543    6382    8359+
+           9623    6383   11624    7556
CTETRA      5432       1    8693    8706    8705   10512    9598    9597+
+           9596    6865    8251    7794
CTETRA      5433       1    8707    8719   10524   10537    9636    8294+
+           8293    7877    7476   11607
CTETRA      5434       1    8785   10629   10628   10642    8367   11869+
+           7692    8280   11908   11907
CTETRA      5435       1    8784    8785    8796   10629    9821    9854+
+           9853    8366    8367    8237
CTETRA      5436       1    8706   10525    8718   10526    8374    7151+
+           9633    8252   11574    7150
CTETRA      5437       1    8799    8800    8812   10640    9863    9899+
+           9898    6900    6901    8241
CTETRA      5438       1    8835   10669   10682   10683    6270   12022+
+           7394    6272   12024   12023
CTETRA      5439       1    8772    8773    8784   10615    9787    9820+
+           9819    7424    8140    7425
CTETRA      5440       1    8827   10650   10663   10664    7265   11967+
+           7268    7263   11969   11968
CTETRA      5441       1    8803    8816    8815   10649    9910    9909+
+           9908    7260    7106    7261
CTETRA      5442       1    8707   10510   10523   10524    8373   11567+
+           7481    8293   11569   11568
CTETRA      5443       1   12481    8807   12482   10631   10127   10128+
+          12542    6843    7071    6842
CTETRA      5444       1    8788   10612   10625   10626    8144   11859+
+           7395    6892   11861   11860
CTETRA      5445       1    8700   10531    8701   10545    6703    6851+
+           9583    7789   11630    7310
CTETRA      5446       1    8686    8699    8698   10506    9579    9578+
+           9577    8106    8170    8034
CTETRA      5447       1    8694    8707    8706   10524    9601    9600+
+           9599    7296    8293    7297
CTETRA      5448       1    8756    8769    8768   10592    9777    9776+
+           9775    7671    6745    6983
CTETRA      5449       1    8815   10636   10649   10650    7259   11927+
+           7261    7266   11929   11928
CTETRA      5450       1    8815    8828    8827   10663    9944    9943+
+           9942    7267    8075    7268
CTETRA      5451       1    8687    8699   10492   10505    9580    7895+
+           7894    8166    8168   11515
CTETRA      5452       1   12490    8711    8699   10519   10144    9614+
+          10145    8276    6820    8277
CTETRA      5453       1    8747    8759   10562   10575    9750    6638+
+           7155    8375    6639   11715
CTETRA      5454       1    8697    8698    8710   10507    9575    9611+
+           9610    6923    8033    6924
CTETRA      5455       1    8767    8768    8780   10593    9773    9809+
+           9808    6449    7844    7840
CTETRA      5456       1    8489    8502    8501   10274    9020    9019+
+           9018    7301    8064    8322
CTETRA      5457       1    8806   10633   10632   10646    8009   11879+
+           7975    8010   11918   11917
CTETRA      5458       1    8653   10474    8666   10488    6428    7302+
+           9484    6429   11467    6705
CTETRA      5459       1    8666    8678   10488   10501    9519    8376+
+           6705    6701    6696   11505
CTETRA      5460       1    8801    8813   10639   10652    9902    6503+
+           6502    7442    7839   11936
CTETRA      5461       1    8453    8465   10233   10246    8916    7819+
+           7372    8306    7738   10776
CTETRA      5462       1    8746   10563   10562   10576    7783   11679+
+           7167    8371   11718   11717
CTETRA      5463       1    8764    8765    8777   10597    9764    9800+
+           9799    8085    7464    8080
CTETRA      5464       1   10641   10642   10655    6169   11906   11945+
+          11944    7823    7965    7205
CTETRA      5465       1    8849   10681   10680   10694    7013   12017+
+           6881    7014   12056   12055
CTETRA      5466       1    8823    8824    8836   10668    9931    9967+
+           9966    6855    6214    7537
CTETRA      5467       1    8641   10461   10474   10475    6707   11428+
+           6478    6246   11430   11429
CTETRA      5468       1    8800   10640   10639   10653    6901   11900+
+           6501    7826   11939   11938
CTETRA      5469       1    8633   10442   10455   10456    7542   11373+
+           6624    6625   11375   11374
CTETRA      5470       1    8765    8778    8777   10596    9802    9801+
+           9800    8149    7109    8081
CTETRA      5471       1    8749    8762    8761   10600    9756    9755+
+           9754    6911    6770    6769
CTETRA      5472       1    8661   10452   10465   10466    6418   11401+
+           7520    6420   11403   11402
CTETRA      5473       1    8833   10684   10671    6172    8231   12028+
+           8230    8235    7817    7390
CTETRA      5474       1    8758    8771    8770   10590    9783    9782+
+           9781    8180    7404    8236
CTETRA      5475       1    8809   10643   10656   10657    7964   11948+
+           7962    7961   11950   11949
CTETRA      5476       1    8453   10218    8454   10231    6976    8289+
+           8877    8202   10726    8290
CTETRA      5477       1    8657    8658    8670   10483    9461    9497+
+           9496    6374    6385    6375
CTETRA      5478       1    8595   10402    8608   10416    7212    6927+
+           9320    8330   11261    6647
CTETRA      5479       1    8626   10409   10422   10423    7315   11278+
+           6732    6731   11280   11279
CTETRA      5480       1    8824    8836   10668   10681    9967    7537+
+           6214    7690    7661   12019
CTETRA      5481       1    8612   10410    8625   10424    7321    7322+
+           9369    7799   11283    7739
CTETRA      5482       1    8599    8600    8612   10397    9297    9333+
+           9332    7922    7206    8040
CTETRA      5483       1    8650   10437   10450   10451    8358   11358+
+           6902    6869   11360   11359
CTETRA      5484       1    8624    8625    8637   10424    9368    9404+
+           9403    7800    7739    8112
CTETRA      5485       1    8631    8644    8643   10458    9422    9421+
+           9420    7525    7526    7995
CTETRA      5486       1    8758    8759    8771   10576    9748    9784+
+           9783    8179    6640    8377
CTETRA      5487       1    8630   10445    8643   10459    6890    7994+
+           9419    7687   11384    7688
CTETRA      5488       1    8617   10432    8630   10446    6482    8254+
+           9382    8041   11347    7689
CTETRA      5489       1    8632   10430   10443   10444    7931   11339+
+           7573    8155   11341   11340
CTETRA      5490       1    8759    8771   10576   10589    9784    8377+
+           6640    8372    7750   11755
CTETRA      5491       1   12389   12361    8440   10220   12277    7075+
+          10205    7163   12251    7608
CTETRA      5492       1    8461    8473   10251   10264    8938    8297+
+           8219    8221    7956   10828
CTETRA      5493       1   12551   12365   12392    8436   12295   12283+
+          12393   10024    7319   10025
CTETRA      5494       1    8605    8618    8617   10432    9348    9347+
+           9346    7698    8001    6482
CTETRA      5495       1    8618   10432   10431   10445    8001   11306+
+           8000    6888   11345   11344
CTETRA      5496       1    8441    8454    8453   10218    8878    8877+
+           8875    8023    8289    6976
CTETRA      5497       1    8715    8728    8727   10556    9660    9659+
+           9658    6405    6387    8089
CTETRA      5498       1    8752    8765    8764   10597    9765    9764+
+           9763    7463    7464    8085
CTETRA      5499       1   12511   10224    8448   10238    7953    7955+
+          10027    7954   10753    8311
CTETRA      5500       1    8587   10370   10383   10384    7240   11167+
+           6930    7551   11169   11168
CTETRA      5501       1   12361   10219    8440   10220   12254    7077+
+           7075   12251   10735    7608
CTETRA      5502       1    8759   10576   10575   10589    6640   11716+
+           6639    8372   11755   11754
CTETRA      5503       1   12391   10222    8438    6161    7083    6813+
+          10209    7387    7086    7328
CTETRA      5504       1    8645    8646    8658    6149    9427    9463+
+           9462    6325    6327    6355
CTETRA      5505       1    8586   10385   10384   10398    6322   11171+
+           7552    7923   11210   11209
CTETRA      5506       1    8770    8771    8783   10590    9782    9818+
+           9817    8236    7404    7403
CTETRA      5507       1   12391   12392   12364    8436   12405   12282+
+          12284   10210   10025    7320
CTETRA      5508       1    8644    8645    8657   10457    9424    9460+
+           9459    7996    8189    8250
CTETRA      5509       1   12332    8849    8850   10694   10106   10005+
+          10107    8223    7014    8004
CTETRA      5510       1    8584    8597    8596   10401    9289    9288+
+           9287    6951    6954    8329
CTETRA      5511       1    8628   10434   10447   10448    6630   11351+
+           6883    6631   11353   11352
CTETRA      5512       1    8573   10372   10385   10386    7335   11173+
+           6320    7336   11175   11174
CTETRA      5513       1    8626   10409   10408   10422    7315   11239+
+           6744    6732   11278   11277
CTETRA      5514       1    8653    8665    8664   10489    9482    9481+
+           9480    7930    8350    8378
CTETRA      5515       1    8604    8605    8616   10419    9311    9344+
+           9343    7193    7697    7194
CTETRA      5516       1   12495    8639   12496   10435   10155   10156+
+          12528    6189    6185    6195
CTETRA      5517       1   12492   10490    8676   10504    8379    8380+
+          10065    8381   11513    6660
CTETRA      5518       1   12501    8579    8567   10365   10166    9240+
+          10167    6946    6487    6947
CTETRA      5519       1    8567    8579   10352   10365    9240    7559+
+           7562    6947    6487   11115
CTETRA      5520       1    8753   10583   10582   10596    7466   11737+
+           7708    8148   11776   11775
CTETRA      5521       1    8460   10238   10251   10252    7352   10791+
+           8382    7354   10793   10792
CTETRA      5522       1    8589    8602    8601   10381    9304    9303+
+           9302    6468    7197    6761
CTETRA      5523       1    8564   10354    8577   10368    7578    6852+
+           9233    8079   11123    8328
CTETRA      5524       1    8545   10349    8557    6181    7587    7589+
+           9176    7793    7790    8383
CTETRA      5525       1    8557    8569    8568   10377    9210    9209+
+           9208    6499    8197    6500
CTETRA      5526       1    8643    8644    8656   10458    9421    9457+
+           9456    7995    7526    8190
CTETRA      5527       1   12491   12421   12492   10504    8384    8348+
+          12532    8248   12203    8381
CTETRA      5528       1    8676   10504   10503   10517    6660   11512+
+           8352    6661   11551   11550
CTETRA      5529       1    8545    8557    8556    6181    9176    9175+
+           9174    7793    8383    7778
CTETRA      5530       1    8556   10363    8557   10377    7780    7591+
+           9175    6498   11150    6499
CTETRA      5531       1    8557    8558    8570   10362    9177    9213+
+           9212    7590    7247    7937
CTETRA      5532       1    8545    8558    8557   10362    9178    9177+
+           9176    8385    7247    7590
CTETRA      5533       1    8548    8549    8561   10345    9152    9188+
+           9187    8120    6508    7876
CTETRA      5534       1    8526   10301   10314   10315    7223   10970+
+           7581    7224   10972   10971
CTETRA      5535       1    8784   10616   10629   10630    7427   11871+
+           8366    8364   11873   11872
CTETRA      5536       1    8512   10303    8525   10317    7592    8349+
+           9085    7593   10978    8309
CTETRA      5537       1    8536    8549    8548   10345    9153    9152+
+           9151    6586    6508    8120
CTETRA      5538       1    8524    8537    8536   10331    9119    9118+
+           9117    6226    6220    6512
CTETRA      5539       1   12335   12308   12336    8846    8426    8427+
+          12347   10100    7959   10099
CTETRA      5540       1    8493   10269    8506   10283    8218    7612+
+           9032    7105   10880    7606
CTETRA      5541       1    8835   10682    8848   10696    7394    6577+
+          10000    7535   12061    6570
CTETRA      5542       1    8753   10582   10595   10596    7708   11773+
+           6666    8148   11775   11774
CTETRA      5543       1    8492    8493    8505   10270    8994    9030+
+           9029    7283    7104    7103
CTETRA      5544       1    8492   10271   10270   10284    8201   10845+
+           7283    7284   10884   10883
CTETRA      5545       1    8503    8504    8516   10285    9025    9061+
+           9060    8011    6574    7603
CTETRA      5546       1   10284   10285   10298    6177   10885   10924+
+          10923    8262    7605    7601
CTETRA      5547       1    8786   10628   10627   10641    7438   11866+
+           7281    8370   11905   11904
CTETRA      5548       1    8484    8496   10280    6178    9003    8274+
+           7646    7644    7631    7896
CTETRA      5549       1    8848   10682   10695   10696    6577   12059+
+           6580    6570   12061   12060
CTETRA      5550       1    8484    8485   10279    6179    8971    7643+
+           7642    7638    8136    7652
CTETRA      5551       1    8837   10667   10666   10680    6886   11977+
+           7095    6879   12016   12015
CTETRA      5552       1    8473    8485   10265   10278    8972    8157+
+           8143    7958    7897   10868
CTETRA      5553       1    8473    8474    8486   10264    8939    8975+
+           8974    7956    7079    7957
CTETRA      5554       1    8735   10548   10547   10561    7711   11636+
+           7710    7984   11675   11674
CTETRA      5555       1    8722    8734   10535   10548    9679    6845+
+           7288    7290    7152   11638
CTETRA      5556       1   12485   12415   12486   10588    8340    8021+
+          12538    7871   12191    7864
CTETRA      5557       1    8498    8510   10292   10305    9043    7729+
+           7728    7616    8162   10945
CTETRA      5558       1   12332   12304   12333    6163    8412    8411+
+          12340    8214    8239    7049
CTETRA      5559       1    8497   10293   10292   10306    6257   10909+
+           7727    6258   10948   10947
CTETRA      5560       1   10279   10280   10293    6178   10872   10911+
+          10910    7645    7896    8172
CTETRA      5561       1    8771   10576   10589   10590    8377   11755+
+           7750    7404   11757   11756
CTETRA      5562       1    8765   10595    8778   10596    8147    7110+
+           9802    8149   11774    7109
CTETRA      5563       1   12508   12438   12437   10253    7406   12444+
+           8273    8360   12082   12081
CTETRA      5564       1   12483   12413   12412   10603    7755   12469+
+           7760    7253   12132   12131
CTETRA      5565       1    8730   10540   10539   10553    6293   11614+
+           7164    6336   11653   11652
CTETRA      5566       1    8485   10265   10278   10279    8157   10868+
+           7897    7643   10870   10869
CTETRA      5567       1    8455   10229    8468   10243    7333    7033+
+           8924    8386   10766    7034
CTETRA      5568       1    8737    8749    8748   10573    9720    9719+
+           9718    7452    8336    7145
CTETRA      5569       1    8785    8797   10629   10642    9856    8238+
+           8367    8280    6737   11908
CTETRA      5570       1    8810   10656   10655   10669    8132   11946+
+           7202    8133   11985   11984
CTETRA      5571       1    8463   10248   10262    6159    6797   10821+
+           6812    6799    6798    7257
CTETRA      5572       1    8760   10588   10601   10602    7143   11791+
+           7852    7873   11793   11792
CTETRA      5573       1    8532    8533    8544   10349    9107    9140+
+           9139    8387    7586    7588
CTETRA      5574       1    8542    8555    8554   10338    9171    9170+
+           9169    8216    8209    7927
CTETRA      5575       1    8476    8488   10262   10275    8981    6241+
+           6790    6803    6239   10859
CTETRA      5576       1    8455    8468    8467   10243    8924    8923+
+           8922    8386    7034    7020
CTETRA      5577       1    8462    8463    6159    6160    8908    6799+
+           7065    7276    6800    6802
CTETRA      5578       1    8798   10642   10641    6169    6738   11906+
+           7820    7822    7965    7823
CTETRA      5579       1    8718   10538    8731   10552    6593    7879+
+           9669    6594   11649    7983
CTETRA      5580       1    8804    8805    8817   10634    9878    9914+
+           9913    6585    6908    8007
CTETRA      5581       1    8444    8456   10215   10228    8887    8326+
+           7046    8125    7021   10714
CTETRA      5582       1    8532    8544   10336   10349    9139    8313+
+           7536    8387    7588   11071
CTETRA      5583       1   12504    8531   12505   10309   10173   10174+
+          12519    6663    6671    6679
CTETRA      5584       1    8443    8455   10216   10229    8883    8388+
+           7063    8327    7333   10718
CTETRA      5585       1    8455    8467   10230   10243    8922    6506+
+           6505    8386    7020   10767
CTETRA      5586       1    8732   10537   10550   10551    7478   11644+
+           7532    6485   11646   11645
CTETRA      5587       1   12503    8543   12504   10323   10171   10172+
+          12520    8242    8240    6665
CTETRA      5588       1   12503   12504    8532   10336   12520   10041+
+          10040    8312    8389    7536
CTETRA      5589       1    8543   10310   10323   10324    7675   10995+
+           8240    8205   10997   10996
CTETRA      5590       1    8742    8755    8754   10580    9737    9736+
+           9735    6335    6447    7148
CTETRA      5591       1   12331    8851   12302   10692   10109    6706+
+           8413    7811    7431   12155
CTETRA      5592       1    8457   10227    8470   10241    7973    7947+
+           8930    7024   10760    7519
CTETRA      5593       1    8450    8451    8463    6160    8865    8910+
+           8909    6995    8390    6800
CTETRA      5594       1    8695   10509   10496    6145    8057   11527+
+           8356    8058    6764    8068
CTETRA      5595       1   12391    8436   12364    8437   10210    7320+
+          12284   10208    8858    7759
CTETRA      5596       1    8449    8461   10237   10250    8904    8391+
+           7074    8260    8220   10788
CTETRA      5597       1   12504   12433   12434   10322    6664   12448+
+           6689    8392   12228   12229
CTETRA      5598       1   12507   12436   12435   10281    8210   12446+
+           8211    8115   12086   12085
CTETRA      5599       1    8469   10241    8482   10255    7025    7763+
+           8964    7625   10800    7307
CTETRA      5600       1    8480   10243   10256   10257    7572   10804+
+           7566    7355   10806   10805
CTETRA      5601       1    8683   10482   10495   10496    8150   11487+
+           6287    8069   11489   11488
CTETRA      5602       1    8690    8691    8703   10515    9554    9590+
+           9589    6371    6698    8096
CTETRA      5603       1   12506   10294    8508   10308    8315    8316+
+          10037    8234   10953    7472
CTETRA      5604       1   12505   12435   12506   10308    7677    7676+
+          12518    6253   12231    8234
CTETRA      5605       1   12331   12302   12303   10692    8413   12314+
+           8414    7811   12155   12156
CTETRA      5606       1    8691   10514    8704   10528    7682    7171+
+           9592    8303   11581    6685
CTETRA      5607       1   12332    8850   12303   10693   10107    8282+
+           8416    8222    7669   12157
CTETRA      5608       1    8838   10678   10665    6183    7829   12010+
+           7434    8174    8176    8188
CTETRA      5609       1    8826   10651   10664   10665    7769   11970+
+           7264    7433   11972   11971
CTETRA      5610       1   12506   12435   12507   10294    7676    8211+
+          12517    8315   12232    8212
CTETRA      5611       1    8490   10273   10272   10286    8017   10851+
+           7812    8061   10890   10889
CTETRA      5612       1    8746    8759    8758   10576    9749    9748+
+           9747    8371    6640    8179
CTETRA      5613       1    8443    8456    8455   10229    8886    8885+
+           8883    8327    7334    7333
CTETRA      5614       1   12384    8444   12356    6165   10194    7045+
+          12287    7038    8263    8265
CTETRA      5615       1   12356    8444   10214    6165    7045    7974+
+          12264    8265    8263    8264
CTETRA      5616       1   12356   10214    8444   10215   12264    7974+
+           7045   12261   10715    7046
CTETRA      5617       1   12504   12434   12433   10309    6689   12448+
+           6664    6663   12090   12089
CTETRA      5618       1   12505   10295   12434   10309    6678   12087+
+           6688    6679   10954   12090
CTETRA      5619       1    8793    8806    8805   10633    9882    9881+
+           9880    6618    8009    6619
CTETRA      5620       1    8453    8454    8466   10245    8877    8919+
+           8918    8203    8393    7632
CTETRA      5621       1    8485   10265   10279    6179    8157   10870+
+           7643    8136    7651    7652
CTETRA      5622       1    8500   10276   10289   10290    6235   10899+
+           7291    6237   10901   10900
CTETRA      5623       1    8669   10483    8670    6156    6376    6375+
+           9495    8052    6691    8394
CTETRA      5624       1    8836    8849    8848    6163   10003   10002+
+          10001    7662    7015    7128
CTETRA      5625       1    8451    8464    8463   10248    8912    8911+
+           8910    7818    6792    6797
CTETRA      5626       1   12332   10694   12304    6163    8223   12159+
+           8412    8214    7012    8239
CTETRA      5627       1    8448   10237    8460   10238    7073    8395+
+           8901    8311   10752    7352
CTETRA      5628       1    8828    8841    8840   10676    9981    9980+
+           9979    7381    6595    7383
CTETRA      5629       1    8691    8703   10515   10528    9590    8096+
+           6698    8303    8244   11582
CTETRA      5630       1    8451   10234    8464   10248    6223    7362+
+           8912    7818   10781    6792
CTETRA      5631       1    8692   10514   10513   10527    7172   11540+
+           7179    7173   11579   11578
CTETRA      5632       1    8439   10220    8452   10234    6352    7367+
+           8870    6221   10737    6222
CTETRA      5633       1   10249   10263   10262    6159   10824   10823+
+          10822    7256    7067    7257
CTETRA      5634       1    8649    8650    8662   10451    9439    9475+
+           9474    6424    6869    8281
CTETRA      5635       1    8474   10250   10263   10264    8298   10825+
+           7078    7079   10827   10826
CTETRA      5636       1   12508   12509   12438   10253   12515    7407+
+           7406    8360    8324   12082
CTETRA      5637       1    8833    8845   10685   10698    9992    7623+
+           8232    7919    7088   12068
CTETRA      5638       1    8462   10250   10249   10263    8261   10786+
+           7275    7064   10825   10824
CTETRA      5639       1    8443    8444    8456   10215    8888    8887+
+           8886    7050    7046    8326
CTETRA      5640       1    8462    8474   10250   10263    8941    8298+
+           8261    7064    7078   10825
CTETRA      5641       1    8821    8834    8833    6172    9960    9959+
+           9958    7389    7815    8235
CTETRA      5642       1    8481    8482    8494   10255    8963    8999+
+           8998    7626    7307    7306
CTETRA      5643       1   12335   12307   12308   10697    8425   12321+
+           8426    8071   12165   12166
CTETRA      5644       1    8493   10256   10269   10270    8217   10841+
+           8218    7104   10843   10842
CTETRA      5645       1   12336   12309   12337    6167    8428    8429+
+          12348    7090    7373    7374
CTETRA      5646       1    8827   10663    8840   10677    7268    7382+
+           9978    8074   12006    7384
CTETRA      5647       1    8481    8494    8493   10269    8998    8997+
+           8996    7768    7613    8218
CTETRA      5648       1    8826    8838   10665    6183    9973    7434+
+           7433    8195    8174    8188
CTETRA      5649       1    8447   10212   10211   10225    7157   10703+
+           6913    6916   10702   10701
CTETRA      5650       1    8833   10685   10684   10698    8232   12029+
+           8231    7919   12068   12067
CTETRA      5651       1    8515   10286   10299   10300    7285   10927+
+           6970    7723   10929   10928
CTETRA      5652       1    8796   10643    8808   10644    7345    7963+
+           9887    7346   11912    7649
CTETRA      5653       1   10544   10545   10558    6147   11629   11668+
+          11667    6309    8018    7555
CTETRA      5654       1    8497   10306    8509   10307    6258    7515+
+           9040    6259   10949    7497
CTETRA      5655       1   12491   12421   12420   10491    8384   12461+
+           8318    8317   12116   12115
CTETRA      5656       1    8638   10436    8651   10450    7743    8037+
+           9443    8066   11357    8067
CTETRA      5657       1    8799   10627   10640   10641    6897   11902+
+           6900    7821   11904   11903
CTETRA      5658       1    8777   10611   10610   10624    8344   11817+
+           8082    7401   11856   11855
CTETRA      5659       1    8505   10270   10283   10284    7103   10881+
+           6694    6693   10883   10882
CTETRA      5660       1    8775    8776    8788   10612    9795    9831+
+           9830    7278    7277    8144
CTETRA      5661       1    8609   10413    8622    6152    8065    8256+
+           9360    7831    8002    6742
CTETRA      5662       1    8752    8753    8765   10583    9730    9766+
+           9765    7461    7466    7462
CTETRA      5663       1    8451   10248    8463    6160    7818    6797+
+           8910    8390    6801    6800
CTETRA      5664       1    8766    8767    8779   10594    9770    9806+
+           9805    7107    7149    7119
CTETRA      5665       1    8782   10591   10604   10605    6283   11798+
+           6286    6311   11800   11799
CTETRA      5666       1    8452   10233    8465   10247    7363    7819+
+           8915    7364   10778    7737
CTETRA      5667       1    8843   10660   10673   10674    7113   11995+
+           6725    6724   11997   11996
CTETRA      5668       1    8817    8818    8830   10647    9915    9951+
+           9950    6641    7118    7115
CTETRA      5669       1    8794    8806   10619   10632    9883    7415+
+           7414    7653    7975   11878
CTETRA      5670       1    8714   10544   10543   10557    6306   11626+
+           6818    6895   11665   11664
CTETRA      5671       1    8500    8513    8512   10303    9051    9050+
+           9049    7618    8331    7592
CTETRA      5672       1    8501   10288    8513   10289    6786    6787+
+           9052    7292   10897    6788
CTETRA      5673       1    8500   10290   10289   10303    6237   10900+
+           7291    7618   10939   10938
CTETRA      5674       1    8500   10289    8513   10303    7291    6788+
+           9051    7618   10938    8331
CTETRA      5675       1    8731    8744    8743   10565    9706    9705+
+           9704    6810    6811    7663
CTETRA      5676       1    8708   10522    8721   10536    6350    6340+
+           9641    7482   11603    6674
CTETRA      5677       1    8522    8523    8535    6176    9078    9114+
+           9113    7510    8130    7837
CTETRA      5678       1    8708    8720   10523   10536    9639    8165+
+           7480    7482    6673   11604
CTETRA      5679       1    8622   10413   10427    6152    8256   11292+
+           6364    6742    8002    6445
CTETRA      5680       1    8744   10551   10564   10565    6809   11684+
+           7891    6811   11686   11685
CTETRA      5681       1    8475   10263    6148    6166    6316    6318+
+           6317    7188    7082    7981
CTETRA      5682       1    8756   10578    8769   10592    7670    8178+
+           9777    7671   11763    6745
CTETRA      5683       1    8737   10572   10559    6175    7845   11708+
+           7450    7455    7850    7456
CTETRA      5684       1    8706   10512   10525   10526    8251   11573+
+           8374    8252   11575   11574
CTETRA      5685       1    8597   10413    8609   10414    6344    8065+
+           9324    8255   11254    6817
CTETRA      5686       1    8495   10268   10267   10281    7017   10836+
+           8109    7018   10875   10874
CTETRA      5687       1   12491   12492    8676   10504   12532   10065+
+          10064    8248    8381    6660
CTETRA      5688       1    8706   10511   10524   10525    7295   11570+
+           7297    8374   11572   11571
CTETRA      5689       1   12502   12503    8544   10350   12521   10043+
+          10042    7909    8308    7910
CTETRA      5690       1    8693   10511    8706   10512    7293    7295+
+           9598    6865   11534    8251
CTETRA      5691       1   12502    8567    8555   10351   10168    9206+
+          10169    6948    6944    8228
CTETRA      5692       1   12491   12420   12421   10504    8318   12461+
+           8384    8248   12202   12203
CTETRA      5693       1    8704   10514   10527   10528    7171   11579+
+           7174    6685   11581   11580
CTETRA      5694       1    8528   10312    8541   10326    6515    6518+
+           9131    6516   11003    6522
CTETRA      5695       1    8570    8582   10376   10389    9247    8333+
+           7939    8043    8045   11185
CTETRA      5696       1    8543   10324   10323   10337    8205   10996+
+           8240    8243   11035   11034
CTETRA      5697       1    8517    8518    8530   10297    9065    9101+
+           9100    7594    7609    8320
CTETRA      5698       1    8507   10282   10281   10295    7611   10876+
+           7019    7681   10915   10914
CTETRA      5699       1    8685    8698    8697   10507    9576    9575+
+           9574    7925    8033    6923
CTETRA      5700       1    8668   10472   10485   10486    7500   11459+
+           6393    7502   11461   11460
CTETRA      5701       1    8643   10459   10458   10472    7688   11383+
+           7995    7993   11422   11421
CTETRA      5702       1    8668    8681    8680   10499    9527    9526+
+           9525    6395    6396    7169
CTETRA      5703       1    8682   10497    8694   10498    6233    7298+
+           9565    6868   11494    7792
CTETRA      5704       1    8708   10523   10522   10536    7480   11565+
+           6350    7482   11604   11603
CTETRA      5705       1    8681    8694    8693   10498    9564    9563+
+           9562    6867    7792    6864
CTETRA      5706       1    8502   10287   10286   10300    8270   10891+
+           8062    8368   10930   10929
CTETRA      5707       1    8502    8515    8514   10300    9057    9056+
+           9055    8368    7723    6959
CTETRA      5708       1    8658   10455   10468   10469    6353   11410+
+           6896    6354   11412   11411
CTETRA      5709       1    8583   10375   10388   10389    7208   11182+
+           6949    8044   11184   11183
CTETRA      5710       1    8644    8656   10458   10471    9457    8190+
+           7526    7997    6399   11419
CTETRA      5711       1    8548   10345    8561   10359    8120    7876+
+           9187    7936   11098    7809
CTETRA      5712       1   12503    8532    8544   10336   10040    9139+
+          10043    8312    7536    8313
CTETRA      5713       1    8596    8597    8609   10401    9288    9324+
+           9323    8329    6954    8042
CTETRA      5714       1    8501    8502    8514   10288    9019    9055+
+           9054    6786    8272    6781
CTETRA      5715       1    8537   10330    8538    6155    6219    7945+
+           9121    7385    7440    6535
CTETRA      5716       1    8531   10310   10309   10323    7674   10956+
+           6671    6672   10995   10994
CTETRA      5717       1    8572    8585    8584   10387    9255    9254+
+           9253    8337    8077    6950
CTETRA      5718       1    8721   10522   10535   10536    6340   11601+
+           6343    6674   11603   11602
CTETRA      5719       1    8579    8591   10366   10379    9274    7703+
+           7560    6490    6860   11155
CTETRA      5720       1   12499   12500    8580   10392   12524   10049+
+          10048    6474    7061    7558
CTETRA      5721       1    8626   10408    8627   10422    6744    6743+
+           9374    6732   11277    6730
CTETRA      5722       1    8602    8615    8614   10408    9341    9340+
+           9339    6206    7907    6207
CTETRA      5723       1    8550   10329   10343    6155    6534   11052+
+           7444    6537    6536    7441
CTETRA      5724       1    8560   10360   10359   10373    6958   11100+
+           7330    6390   11139   11138
CTETRA      5725       1    8545   10348    8558   10362    7584    7245+
+           9178    8385   11107    7247
CTETRA      5726       1    8548    8561    8560   10359    9187    9186+
+           9185    7936    7809    7330
CTETRA      5727       1    8528   10326    8540    6182    6516    6521+
+           9129    7884    7899    7892
CTETRA      5728       1    8541   10312   10325   10326    6518   11001+
+           8049    6522   11003   11002
CTETRA      5729       1    8544   10336   10349   10350    8313   11071+
+           7588    7910   11073   11072
CTETRA      5730       1   12485   10575   12414   10589    8341   12127+
+           8031    8233   11754   12130
CTETRA      5731       1    8510    8522   10306   10319    9077    7516+
+           7721    8321    7509   10985
CTETRA      5732       1    8508   10294   10307   10308    8316   10951+
+           7495    7472   10953   10952
CTETRA      5733       1    8544   10350   10349    6181    7910   11072+
+           7588    7777    7791    7790
CTETRA      5734       1    8503   10272   10285   10286    7813   10887+
+           8011    7286   10889   10888
CTETRA      5735       1    8562   10356    8575   10370    6462    8310+
+           9227    6463   11129    7239
CTETRA      5736       1    8496   10293    8497   10307    8173    6257+
+           9005    7614   10950    6259
CTETRA      5737       1   12509   10252    8472   10266    8396    8361+
+          10031    7409   10833    7636
CTETRA      5738       1    8510   10306   10305   10319    7721   10946+
+           8162    8321   10985   10984
CTETRA      5739       1    8570   10376   10375   10389    7939   11146+
+           7935    8043   11185   11184
CTETRA      5740       1    8545   10349   10348   10362    7587   11069+
+           7584    8385   11108   11107
CTETRA      5741       1   12486    8747   10561   10575   10137    7717+
+           7716    8342    8375   11714
CTETRA      5742       1   12486    8759    8747   10575   10136    9750+
+          10137    8342    6639    8375
CTETRA      5743       1    8575    8587   10370   10383    9262    7240+
+           7239    8266    6930   11167
CTETRA      5744       1    8538   10329   10328   10342    6533   11011+
+           6765    6767   11050   11049
CTETRA      5745       1    8453   10219   10232   10233    6975   10730+
+           6977    7372   10733   10732
CTETRA      5746       1    8502    8514   10287   10300    9055    7231+
+           8270    8368    6959   10930
CTETRA      5747       1    8612   10411   10410   10424    7798   11245+
+           7321    7799   11284   11283
CTETRA      5748       1    8453   10231    8454   10245    8202    8290+
+           8877    8203   10772    8393
CTETRA      5749       1    8558   10361    8571   10375    7246    6978+
+           9215    7934   11144    6979
CTETRA      5750       1    8487   10276    8499   10277    6984    6234+
+           9012    6985   10863    6981
CTETRA      5751       1    8588   10369   10382   10383    6457   11164+
+           6460    6465   11166   11165
CTETRA      5752       1    8636   10439   10438   10452    7855   11325+
+           8110    8078   11364   11363
CTETRA      5753       1    8502   10287    8514   10288    8270    7231+
+           9055    8272   10894    6781
CTETRA      5754       1   12503   10323   12432   10337    8242   12091+
+           7913    7915   11034   12094
CTETRA      5755       1   12502   12432   12431   10337    7912   12450+
+           7911    7914   12094   12093
CTETRA      5756       1    8529   10312   10311   10325    6517   10962+
+           7745    8047   11001   11000
CTETRA      5757       1   12335   12308    8846   10697    8426    7959+
+          10100    8071   12166    7917
CTETRA      5758       1    8542   10311   10324   10325    8319   10998+
+           8204    8048   11000   10999
CTETRA      5759       1   10342   10343   10356    6170   11051   11090+
+          11089    7229    7736    7230
CTETRA      5760       1    8549   10344   10343   10357    6509   11054+
+           7445    8121   11093   11092
CTETRA      5761       1    8562    8575    8574   10370    9227    9226+
+           9225    6463    7239    7238
CTETRA      5762       1   12487   12416   10560   10574    7986   12194+
+           7988    8397   12193   11713
CTETRA      5763       1   12487   12488   12417   10547   12536    7713+
+           7987    8343    7714   12124
CTETRA      5764       1    8528    8529   10312    6180    9096    6517+
+           6515    8015    7748    7946
CTETRA      5765       1   12490   10505   12419   10519    8167   12117+
+           8338    8276   11554   12120
CTETRA      5766       1   12306    8848   10695   10696    7667    6580+
+          12162   12163    6570   12060
CTETRA      5767       1    8582    8594   10390   10403    9281    7546+
+           8268    8334    8192   11225
CTETRA      5768       1    8793   10620    8805    6151    6434    6617+
+           9880    6437    6436    6909
CTETRA      5769       1   12481   12482    8796   10644   12542   10085+
+          10084    6838    6866    7346
CTETRA      5770       1    8517    8530    8529   10311    9100    9099+
+           9098    7744    8050    7745
CTETRA      5771       1   12485   12414   10588   10602    8031   12190+
+           7871    7872   12189   11793
CTETRA      5772       1    8571    8572    8584   10374    9217    9253+
+           9252    6439    6412    6440
CTETRA      5773       1   12490   12491    8688   10518   12533   10067+
+          10066    8283    8249    6727
CTETRA      5774       1   12490   12419   10518   10532    8338   12200+
+           8283    8284   12199   11593
CTETRA      5775       1    8688   10504   10517   10518    6659   11551+
+           6662    6727   11553   11552
CTETRA      5776       1    8569   10376    8582   10390    8200    8333+
+           9246    7785   11187    8268
CTETRA      5777       1    8595   10389   10402   10403    8398   11222+
+           7212    8271   11224   11223
CTETRA      5778       1   12486   10561   12415   10575    7716   12125+
+           8021    8342   11714   12128
CTETRA      5779       1   12490   12419   12420   10518    8338   12462+
+           8399    8283   12200   12201
CTETRA      5780       1    8581   10391   10404   10405    7787   11228+
+           7547    7773   11230   11229
CTETRA      5781       1    8582   10390   10389   10403    8268   11186+
+           8045    8334   11225   11224
CTETRA      5782       1    8619   10430    8631   10431    6926    7932+
+           9386    8184   11303    8182
CTETRA      5783       1   12490   12491   12420   10505   12533    8318+
+           8399    8167    8169   12118
CTETRA      5784       1    8613   10396   10409   10410    6939   11241+
+           7314    6941   11243   11242
CTETRA      5785       1    8699    8711   10506   10519    9614    8171+
+           8170    8277    6820   11555
CTETRA      5786       1    8518    8530   10297   10310    9101    8320+
+           7609    8059    7673   10958
CTETRA      5787       1    8610   10412    8623   10426    7869    8354+
+           9363    8353   11289    7861
CTETRA      5788       1    8678    8679    8691   10501    9520    9556+
+           9555    6696    6358    6697
CTETRA      5789       1    8676   10503    8677   10517    8352    7483+
+           9515    6661   11550    7485
CTETRA      5790       1    8602   10381   10394   10395    7197   11198+
+           7200    6205   11200   11199
CTETRA      5791       1    8603    8615   10394   10407    9342    8055+
+           8054    6824    6823   11235
CTETRA      5792       1    8501   10275   10274   10288    7219   10857+
+           8322    6786   10896   10895
CTETRA      5793       1   12331   12303   12332    8850    8414    8416+
+          12342   10108    8282   10107
CTETRA      5794       1    8625   10410   10423   10424    7322   11281+
+           7740    7739   11283   11282
CTETRA      5795       1    8625    8637   10424   10437    9404    8112+
+           7739    7741    6492   11321
CTETRA      5796       1    8648    8661    8660   10466    9471    9470+
+           9469    6419    6420    6421
CTETRA      5797       1    8489   10274    8501   10275    7301    8322+
+           9018    7218   10857    7219
CTETRA      5798       1    8662    8675    8674   10478    9511    9510+
+           9509    8101    8098    8301
CTETRA      5799       1    8601   10396   10395   10409    7207   11202+
+           6762    7313   11241   11240
CTETRA      5800       1    8657    8669   10471   10484    9494    6400+
+           7506    8355    6861   11456
CTETRA      5801       1    8610    8611    8623   10412    9328    9364+
+           9363    7869    7921    8354
CTETRA      5802       1    8839    8851   10678   10691   10010    7830+
+           7834    8073    6723   12047
CTETRA      5803       1    8611    8612    8624   10411    9331    9367+
+           9366    8027    7798    7797
CTETRA      5804       1    8826   10664    8839    6183    7264    7832+
+           9975    8195    8187    8175
CTETRA      5805       1    8631   10445   10444   10458    6889   11343+
+           7523    7525   11382   11381
CTETRA      5806       1    8607   10403   10416   10417    8193   11262+
+           6642    7918   11264   11263
CTETRA      5807       1    8644   10444   10457   10458    7524   11379+
+           7996    7526   11381   11380
CTETRA      5808       1    8817   10634   10647   10648    8007   11921+
+           6641    6636   11923   11922
CTETRA      5809       1    8620    8632   10430   10443    9389    7931+
+           6408    7933    7573   11339
CTETRA      5810       1    8595    8596    8608   10402    9285    9321+
+           9320    7212    7211    6927
CTETRA      5811       1    8805   10633    8818   10647    6619    8008+
+           9916    8357   11920    7118
CTETRA      5812       1    8806   10619   10632   10633    7415   11878+
+           7975    8009   11880   11879
CTETRA      5813       1    8781   10606   10605   10619    6296   11802+
+           6752    7544   11841   11840
CTETRA      5814       1    8549    8550    8562   10357    9155    9191+
+           9190    8121    7940    6461
CTETRA      5815       1   12486   12487    8736   10574   12537   10075+
+          10074    7863    8397    7867
CTETRA      5816       1    8572    8584   10374   10387    9253    6440+
+           6412    8337    6950   11179
CTETRA      5817       1   12489   12418   10532   10546    7990   12198+
+           7806    7807   12197   11633
CTETRA      5818       1    8560    8572   10360   10373    9219    6410+
+           6958    6390    6392   11139
CTETRA      5819       1    8813   10652    8825   10653    7839    8006+
+           9936    7827   11937    7101
CTETRA      5820       1    8812    8824   10654   10667    9933    6212+
+           8258    7102    7097   11979
CTETRA      5821       1    8619    8620    8632   10430    9353    9389+
+           9388    6926    6408    7931
CTETRA      5822       1    8777   10596   10609   10610    8081   11813+
+           8400    8082   11815   11814
CTETRA      5823       1    8709    8722    8721   10535    9644    9643+
+           9642    6342    7288    6343
CTETRA      5824       1    8836   10681    8849    6163    7661    7013+
+          10003    7662    7010    7015
CTETRA      5825       1   12493   12423   12422   10463    6918   12459+
+           7399    6919   12112   12111
CTETRA      5826       1    8753    8766    8765   10595    9768    9767+
+           9766    6666    6668    8147
CTETRA      5827       1    8778   10595   10608   10609    7110   11810+
+           7127    6276   11812   11811
CTETRA      5828       1    8662   10451   10450   10464    8281   11359+
+           6904    8100   11398   11397
CTETRA      5829       1   12493    8663   12494   10463   10151   10152+
+          12530    6919    7120    6920
CTETRA      5830       1    8709   10522   10521   10535    6341   11562+
+           6357    6342   11601   11600
CTETRA      5831       1    8723   10520   10533   10534    7469   11595+
+           8278    7471   11597   11596
CTETRA      5832       1    8836   10682   10681   10695    6578   12020+
+           7661    6579   12059   12058
CTETRA      5833       1    8651   10450   10449   10463    8067   11356+
+           7749    8025   11395   11394
CTETRA      5834       1    8757    8770    8769   10591    9780    9779+
+           9778    8225    6284    6760
CTETRA      5835       1    8663   10450   10463   10464    6903   11395+
+           7120    8103   11397   11396
CTETRA      5836       1   12488   12417   10546   10560    7713   12196+
+           7804    8024   12195   11673
CTETRA      5837       1    8650    8651    8663   10450    9442    9478+
+           9477    6902    8067    6903
CTETRA      5838       1    8631   10431   10430   10444    8182   11303+
+           7932    7523   11342   11341
CTETRA      5839       1   12486   12415   10574   10588    8021   12192+
+           7863    7864   12191   11753
CTETRA      5840       1    8622    8623    8635   10426    9362    9398+
+           9397    8053    7861    7491
CTETRA      5841       1    8716   10542   10541   10555    6681   11620+
+           6687    6682   11659   11658
CTETRA      5842       1    8757    8758    8770   10577    9745    9781+
+           9780    7977    8177    8224
CTETRA      5843       1    8766    8779    8778   10608    9805    9804+
+           9803    7108    6644    7127
CTETRA      5844       1    8755   10579    8768   10593    7114    7672+
+           9774    6448   11766    7844
CTETRA      5845       1    8658   10469   10482   10483    6354   11450+
+           8151    6385   11452   11451
CTETRA      5846       1    8729    8742    8741   10567    9700    9699+
+           9698    8118    6334    6338
CTETRA      5847       1    8694   10497   10510   10511    7298   11530+
+           7300    7294   11532   11531
CTETRA      5848       1    8670    8683    8682   10496    9533    9532+
+           9531    8186    8069    6232
CTETRA      5849       1    8670   10482    8683   10496    8152    8150+
+           9533    8186   11489    8069
CTETRA      5850       1    8726   10572    8738    6175    7847    8116+
+           9689    7848    7850    8117
CTETRA      5851       1    8634   10428   10441   10442    6367   11333+
+           6606    8299   11335   11334
CTETRA      5852       1    8725   10558    8726    6175    8028    6796+
+           9653    7454    7849    7848
CTETRA      5853       1    8678    8691    8690   10515    9555    9554+
+           9553    6370    6698    6371
CTETRA      5854       1    8643    8656    8655   10472    9456    9455+
+           9454    7993    7504    7499
CTETRA      5855       1    8670   10483   10482   10496    6375   11451+
+           8152    8186   11490   11489
CTETRA      5856       1    8715    8727   10543   10556    9658    7563+
+           7556    6405    8089   11662
CTETRA      5857       1    8736   10560   10573   10574    8335   11711+
+           7451    7867   11713   11712
CTETRA      5858       1    8750    8763    8762   10599    9759    9758+
+           9757    6773    6778    7279
CTETRA      5859       1    8665    8666    8678   10488    9483    9519+
+           9518    8325    6705    8376
CTETRA      5860       1    8701    8714    8713    6150    9620    9619+
+           9618    7311    6378    6559
CTETRA      5861       1   12383   12355   12354   10213   12289   12378+
+          12290    7042   12266   12265
CTETRA      5862       1    8706    8718   10525   10538    9633    7151+
+           8374    7982    6593   11610
CTETRA      5863       1    8490   10259   10272   10273    7966   10850+
+           7812    8017   10852   10851
CTETRA      5864       1    8717   10526    8718   10540    7159    7150+
+           9631    6292   11615    7165
CTETRA      5865       1    8678   10488   10501   10502    8376   11505+
+           6696    6369   11507   11506
CTETRA      5866       1    8686   10493   10492   10506    7489   11479+
+           7893    8106   11518   11517
CTETRA      5867       1    8664    8665    8676   10489    9481    9514+
+           9513    8378    8350    8351
CTETRA      5868       1    8665   10488    8678   10502    8325    8376+
+           9518    8401   11507    6369
CTETRA      5869       1    8665   10489   10488   10502    8350   11469+
+           8325    8401   11508   11507
CTETRA      5870       1    8661    8674    8673   10479    9508    9507+
+           9506    7521    8302    7518
CTETRA      5871       1    8697    8709   10508   10521    9608    6348+
+           6925    6921    6357   11561
CTETRA      5872       1    8685    8686    8698   10493    9541    9577+
+           9576    7490    7489    8105
CTETRA      5873       1    8684    8685    8697   10494    9538    9574+
+           9573    7180    7569    7181
CTETRA      5874       1    8664   10489    8676   10490    8378    8351+
+           9513    6230   11472    8380
CTETRA      5875       1   12488    8723   10533   10547   10141    8278+
+           7712    7714    8339   11634
CTETRA      5876       1    8446    8458   10213   10226    8895    7976+
+           7035    6547    6548   10706
CTETRA      5877       1    8683    8695   10496    6145    9568    8356+
+           8069    6289    8058    8068
CTETRA      5878       1    8679   10487   10500   10501    6700   11502+
+           6359    6358   11504   11503
CTETRA      5879       1    8703   10515   10528   10529    8096   11582+
+           8244    8097   11584   11583
CTETRA      5880       1   12388   12361   12360   10219   12275   12372+
+          12276    7076   12254   12253
CTETRA      5881       1    8637    8638    8650   10437    9405    9441+
+           9440    6492    8305    8358
CTETRA      5882       1    8644   10457    8657   10471    7996    8250+
+           9459    7997   11418    7506
CTETRA      5883       1    8644    8657    8656   10471    9459    9458+
+           9457    7997    7506    6399
CTETRA      5884       1    8645   10456    8657   10457    6626    8304+
+           9460    8189   11377    8250
CTETRA      5885       1    8685   10493    8698   10507    7490    8105+
+           9576    7925   11520    8033
CTETRA      5886       1    8648    8660   10453   10466    9469    7906+
+           6871    6419    6421   11404
CTETRA      5887       1    8657   10456   10469   10470    8304   11413+
+           6384    6386   11415   11414
CTETRA      5888       1    8645   10443   10456   10457    7574   11376+
+           6626    8189   11378   11377
CTETRA      5889       1    8732   10551   10550   10564    6485   11645+
+           7532    7889   11684   11683
CTETRA      5890       1    8743    8756    8755   10579    9740    9739+
+           9738    7665    7666    7114
CTETRA      5891       1    8695   10509    8708   10523    8057    8164+
+           9604    7479   11566    7480
CTETRA      5892       1    8745   10577    8757    6174    8013    7977+
+           9744    8014    7422    7979
CTETRA      5893       1   12494    8663    8651   10463   10152    9478+
+          10153    6920    7120    8025
CTETRA      5894       1    8675    8687   10478   10491    9546    7900+
+           8098    7903    7901   11475
CTETRA      5895       1    8624    8637    8636   10438    9403    9402+
+           9401    8113    6491    8110
CTETRA      5896       1    8671   10482   10481   10495    6936   11448+
+           6932    7929   11487   11486
CTETRA      5897       1    8636   10438    8649   10452    8110    8111+
+           9437    8078   11363    6423
CTETRA      5898       1    8695   10510   10509   10523    8346   11528+
+           8057    7479   11567   11566
CTETRA      5899       1    8636   10439   10452   10453    7855   11364+
+           8078    7856   11366   11365
CTETRA      5900       1    8682    8683    8695   10496    9532    9568+
+           9567    6232    8069    8356
CTETRA      5901       1    8703    8704    8716   10528    9591    9627+
+           9626    8244    6685    6684
CTETRA      5902       1    8650   10450    8662   10451    6902    6904+
+           9475    6869   11359    8281
CTETRA      5903       1   12388   12389   12361    8440   12402   12277+
+          12275   10202   10205    7075
CTETRA      5904       1   12387    8441   12360   10218   10200    8022+
+          12278    8286    8023   12256
CTETRA      5905       1    8605    8606    8618   10418    9313    9349+
+           9348    7700    7803    7999
CTETRA      5906       1   12388    8441    8440   10219   10203    8876+
+          10202    7076    7368    7077
CTETRA      5907       1    8729   10567    8741   10568    8118    6338+
+           9698    6785   11694    6669
CTETRA      5908       1    8717   10527   10540   10541    7161   11616+
+           6292    7679   11618   11617
CTETRA      5909       1    8494   10255   10268   10269    7306   10838+
+           7309    7613   10840   10839
CTETRA      5910       1    8703   10528    8716   10542    8244    6684+
+           9626    8245   11621    6681
CTETRA      5911       1    8617   10446    8629   10447    8041    6431+
+           9380    6882   11349    6430
CTETRA      5912       1    8662   10450    8663   10464    6904    6903+
+           9476    8100   11397    8103
CTETRA      5913       1    8628   10447    8629   10461    6883    6430+
+           9379    6894   11390    6709
CTETRA      5914       1    8770   10577   10590   10591    8224   11758+
+           8236    6284   11760   11759
CTETRA      5915       1    8585   10399    8597   10400    7866    6928+
+           9290    8269   11214    6953
CTETRA      5916       1    8737    8738    8750   10572    9687    9723+
+           9722    7845    8116    7846
CTETRA      5917       1    8584   10387    8597   10401    6950    6952+
+           9289    6951   11218    6954
CTETRA      5918       1    8489   10261   10260   10274    6974   10817+
+           7237    7301   10856   10855
CTETRA      5919       1    8673    8674    8686   10479    9507    9543+
+           9542    7518    8302    7570
CTETRA      5920       1    8454   10231   10244   10245    8290   10770+
+           7627    8393   10772   10771
CTETRA      5921       1    8727   10556    8740   10570    8089    6397+
+           9694    8090   11701    8145
CTETRA      5922       1    8733    8745   10550   10563    9710    8296+
+           6827    7782    7784   11681
CTETRA      5923       1    8675   10464   10477   10478    8102   11435+
+           8099    8098   11437   11436
CTETRA      5924       1   12491   12492   12421   10491   12532    8348+
+           8384    8317    7902   12116
CTETRA      5925       1    8610    8622   10413   10426    9361    8256+
+           6346    8353    8053   11290
CTETRA      5926       1    8596   10402   10401   10415    7211   11220+
+           8329    8300   11259   11258
CTETRA      5927       1    8564    8577    8576   10368    9233    9232+
+           9231    8079    8328    6758
CTETRA      5928       1    8563   10355    8576   10369    6216    7226+
+           9230    6217   11126    6458
CTETRA      5929       1    8758   10576    8771   10590    8179    8377+
+           9783    8180   11757    7404
CTETRA      5930       1    8734   10549   10548   10562    6847   11639+
+           7152    7154   11678   11677
CTETRA      5931       1    8551   10341    8564   10355    6774    7215+
+           9196    6775   11086    7225
CTETRA      5932       1    8551    8563   10342   10355    9194    7227+
+           6768    6775    6216   11087
CTETRA      5933       1    8746    8747    8759   10562    9714    9750+
+           9749    7167    7155    6638
CTETRA      5934       1    8672    8685    8684   10494    9539    9538+
+           9537    6937    7569    7180
CTETRA      5935       1   12492   12421   12493   10490    8348    8402+
+          12531    8379   12204    6229
CTETRA      5936       1    8535   10333   10332   10346    7835   11023+
+           8127    7576   11062   11061
CTETRA      5937       1    8746   10549   10562   10563    7166   11678+
+           7167    7783   11680   11679
CTETRA      5938       1    8676   10490   10503   10504    8380   11511+
+           8352    6660   11513   11512
CTETRA      5939       1    8532   10335    8533   10349    7528    7585+
+           9107    8387   11070    7586
CTETRA      5940       1    8556    8557   10363    6181    9175    7591+
+           7780    7778    8383    7781
CTETRA      5941       1    8680   10499    8693   10513    7169    6863+
+           9561    7170   11538    7795
CTETRA      5942       1    8729   10553    8730   10567    7162    6336+
+           9665    8118   11692    6333
CTETRA      5943       1    8557   10349   10363    6181    7589   11110+
+           7591    8383    7790    7781
CTETRA      5944       1    8680   10486   10499   10500    7505   11499+
+           7169    7168   11501   11500
CTETRA      5945       1    8716   10528   10541   10542    6684   11619+
+           6687    6681   11621   11620
CTETRA      5946       1    8449   10237   10236   10250    7074   10748+
+           6804    8260   10788   10787
CTETRA      5947       1    8545    8557   10349   10362    9176    7589+
+           7587    8385    7590   11108
CTETRA      5948       1    8824    8825    8837   10667    9934    9970+
+           9969    7097    7096    6886
CTETRA      5949       1   12502    8544    8556   10364   10042    9173+
+          10045    7908    7776    7775
CTETRA      5950       1    8450   10222   10235   10236    6814   10742+
+           6816    7751   10745   10744
CTETRA      5951       1    8729   10554   10567   10568    6281   11693+
+           8118    6785   11695   11694
CTETRA      5952       1   12492   12493   12421   10477   12531    8402+
+           8348    8215    7121   12113
CTETRA      5953       1    8731   10552   10551   10565    7983   11648+
+           6486    6810   11687   11686
CTETRA      5954       1   12408   10659   10673    6168   12139   11994+
+          12142    7377    7126    8208
CTETRA      5955       1   12499    8591   10379   10393   10163    6860+
+           6612    6616    6859   11194
CTETRA      5956       1   12389    8440    8439   10220   10205    8872+
+          10204    7163    7608    6352
CTETRA      5957       1    8544   10364   10350    6181    7776   11113+
+           7910    7777    7779    7791
CTETRA      5958       1    8548   10332   10345   10346    8160   11059+
+           8120    7577   11061   11060
CTETRA      5959       1    8543    8555   10324   10337    9172    8206+
+           8205    8243    8227   11035
CTETRA      5960       1    8491   10271    8504   10285    7338    6572+
+           9026    7339   10886    6574
CTETRA      5961       1    8523    8524    8536   10318    9081    9117+
+           9116    7886    6224    8314
CTETRA      5962       1    8524    8536   10318   10331    9117    8314+
+           6224    6226    6512   11019
CTETRA      5963       1    8737   10573   10572   10586    7452   11709+
+           7845    6313   11748   11747
CTETRA      5964       1    8525   10303   10316   10317    8349   10976+
+           7725    8309   10978   10977
CTETRA      5965       1    8536   10318   10331   10332    8314   11019+
+           6512    8126   11021   11020
CTETRA      5966       1    8511    8512    8524   10304    9047    9083+
+           9082    6275    6274    6528
CTETRA      5967       1    8527    8528    8540    6182    9093    9129+
+           9128    7881    7884    7892
CTETRA      5968       1    8516    8529    8528    6180    9097    9096+
+           9095    7941    7748    8015
CTETRA      5969       1    8749    8750    8762   10586    9721    9757+
+           9756    6315    6314    6910
CTETRA      5970       1   12493   12422   10476   10490    7399   12206+
+           6227    6229   12205   11473
CTETRA      5971       1   12483    8783   12484   10603   10131   10132+
+          12540    7253    7252    7754
CTETRA      5972       1    8504   10285   10284    6177    6574   10885+
+           6573    7604    7605    8262
CTETRA      5973       1    8785   10615   10628   10629    8365   11868+
+           7692    8367   11870   11869
CTETRA      5974       1    8504   10284    8505    6177    6573    6693+
+           9028    7604    8262    7595
CTETRA      5975       1   12508    8483   12509   10253   10181   10182+
+          12515    8360    7342    8324
CTETRA      5976       1   12509   10239   12438   10253    8323   12079+
+           7407    8324   10794   12082
CTETRA      5977       1   12484    8760    8772   10602   10078    9785+
+          10081    8032    7873    8036
CTETRA      5978       1    8652    8664   10476   10489    9479    6228+
+           6208    6210    8378   11471
CTETRA      5979       1    8482    8495    8494   10268    9001    9000+
+           8999    7308    7017    7309
CTETRA      5980       1   12492    8664    8676   10490   10062    9513+
+          10065    8379    6230    8380
CTETRA      5981       1    8487    8488    8500   10276    8979    9015+
+           9014    6984    6238    6235
CTETRA      5982       1    8453    8466    8465   10245    8918    8917+
+           8916    8203    7632    7969
CTETRA      5983       1   12490   10518    8700   10532    8283    6702+
+          10069    8284   11593    6704
CTETRA      5984       1    8451   10235   10248    6160    6581   10782+
+           7818    8390    6997    6801
CTETRA      5985       1    8463    8464    8476   10248    8911    8947+
+           8946    6797    6792    6791
CTETRA      5986       1    8442    8455    8454   10230    8882    8881+
+           8879    8403    6505    6504
CTETRA      5987       1    8779    8791   10608   10621    9840    8253+
+           6644    6646    8137   11847
CTETRA      5988       1   12390   12391   12363    8438   12404   12285+
+          12281   10206   10209    6729
CTETRA      5989       1    8457   10228   10227   10241    7022   10712+
+           7973    7024   10761   10760
CTETRA      5990       1    8442    8443    8455   10216    8884    8883+
+           8882    8404    7063    8388
CTETRA      5991       1    8791   10622   10621   10635    6527   11848+
+           8137    8138   11887   11886
CTETRA      5992       1    8779    8780    8792   10607    9807    9843+
+           9842    6645    7706    7705
CTETRA      5993       1    8824   10668   10667   10681    6214   11980+
+           7097    7690   12019   12018
CTETRA      5994       1    8486    8487    8499   10277    8976    9012+
+           9011    6980    6985    6981
CTETRA      5995       1   12386    8443    8442   10216   10199    8884+
+          10198    6567    7063    8404
CTETRA      5996       1   12511   10211   12440   10225    6914   12074+
+           7952    6915   10701   12078
CTETRA      5997       1    8802    8803    8815   10636    9872    9908+
+           9907    6561    6266    7259
CTETRA      5998       1    8491    8503   10272   10285    9024    7813+
+           7337    7339    8011   10887
CTETRA      5999       1    8839   10678   10677   10691    7834   12008+
+           7833    8073   12047   12046
CTETRA      6000       1    8776   10611    8789   10625    8086    6582+
+           9833    8141   11858    6584
CTETRA      6001       1    8821    8833    8832   10671    9958    9957+
+           9956    7388    8230    6715
CTETRA      6002       1   12330   12301   12302    8852    8417   12316+
+           8415   10111    7094    6722
CTETRA      6003       1   12354   10212    8446   10213   12268    7036+
+           7041   12265   10707    7035
CTETRA      6004       1    8515    8516    8528   10299    9059    9095+
+           9094    6970    8012    6971
CTETRA      6005       1    8445    8458    8457   10227    8894    8893+
+           8891    7972    7948    7973
CTETRA      6006       1    8786    8798   10628   10641    9859    8279+
+           7438    8370    7820   11905
CTETRA      6007       1   12355   10214    8445    6165   12263    7971+
+           7037    7039    8264    7040
CTETRA      6008       1   12353   10211    8447   10212   12269    6913+
+           7052   12267   10703    7157
CTETRA      6009       1   12382    8446   12354   10212   10190    7041+
+          12291    7156    7036   12268
CTETRA      6010       1   12483    8772    8784   10616   10080    9819+
+          10083    7757    7426    7427
CTETRA      6011       1    8746   10562    8759   10576    7167    6638+
+           9749    8371   11717    6640
CTETRA      6012       1   12485   12415   12414   10575    8340   12467+
+           8031    8341   12128   12127
CTETRA      6013       1    8784   10629    8796   10630    8366    8237+
+           9853    8364   11872    7344
CTETRA      6014       1   12487   10547   12416   10561    8343   12123+
+           7986    7718   11674   12126
CTETRA      6015       1    8804    8817    8816   10648    9913    9912+
+           9911    6556    6636    6557
CTETRA      6016       1   12489    8711   12490   10519   10143   10144+
+          12534    7989    6820    8276
CTETRA      6017       1   12485   12414   12415   10588    8031   12467+
+           8340    7871   12190   12191
CTETRA      6018       1    8725    8737    8736   10559    9686    9685+
+           9684    7453    7450    7449
CTETRA      6019       1   12329   12300   12301   10690    8419   12317+
+           8418    7140   12151   12152
CTETRA      6020       1    8528   10299   10312   10313    6971   10964+
+           6515    6514   10966   10965
CTETRA      6021       1   12486    8736    8748   10574   10074    9717+
+          10077    7863    7867    7144
CTETRA      6022       1    8816   10649   10648   10662    7106   11925+
+           6557    7146   11964   11963
CTETRA      6023       1    8816    8828   10649   10662    9945    8363+
+           7106    7146    7379   11964
CTETRA      6024       1   12486   12416   12487   10574    8020    7986+
+          12537    7863   12193    8397
CTETRA      6025       1   12511    8447   12551   10211   10187   10189+
+          12512    6914    6913    7043
CTETRA      6026       1    8760   10601    8772   10602    7852    7860+
+           9785    7873   11792    8036
CTETRA      6027       1    8838   10679   10678   10692    6884   12011+
+           7829    7430   12050   12049
CTETRA      6028       1   12334   12307    8847   10696    8424    8070+
+          10102    6568   12164    6569
CTETRA      6029       1    8779    8792    8791   10621    9842    9841+
+           9840    6646    6655    8137
CTETRA      6030       1   12301   12302    8852   10691   12316    6722+
+           7094   12153   12154    6713
CTETRA      6031       1   12491    8699    8687   10505   10146    9580+
+          10147    8169    8168    8166
CTETRA      6032       1    8499    8511   10291   10304    9046    7615+
+           6982    6273    6275   10942
CTETRA      6033       1    8815   10649    8828   10663    7261    8363+
+           9944    7267   11966    8075
CTETRA      6034       1    8828   10649   10662   10663    8363   11964+
+           7379    8075   11966   11965
CTETRA      6035       1   12334   12306   12307   10696    8409   12320+
+           8424    6568   12163   12164
CTETRA      6036       1   12483   12484    8772   10616   12540   10081+
+          10080    7757    7758    7426
CTETRA      6037       1   12488    8735    8723   10547   10140    9682+
+          10141    7714    7710    8339
CTETRA      6038       1    8838   10665   10678   10679    7434   12010+
+           7829    6884   12012   12011
CTETRA      6039       1   12333    8848    8849    6163   10104   10002+
+          10105    7049    7128    7015
CTETRA      6040       1    8838   10679    8850   10680    6884    7668+
+          10007    6885   12014    6880
CTETRA      6041       1    8836    8837    8849   10681    9968   10004+
+          10003    7661    6887    7013
CTETRA      6042       1    8520   10308   10321   10322    6254   10991+
+           6988    6256   10993   10992
CTETRA      6043       1   12335    8846    8847   10697   10100    9996+
+          10101    8071    7917    7540
CTETRA      6044       1    8812   10640   10653   10654    8241   11939+
+           7100    8258   11941   11940
CTETRA      6045       1    8809    8821    8820   10657    9924    9923+
+           9922    7961    7825    7641
CTETRA      6046       1   12328    8853    8854    6173   10114   10017+
+          10115    7951    7950    7418
CTETRA      6047       1    8578   10367   10366   10380    6753   11119+
+           7926    7719   11158   11157
CTETRA      6048       1    8787   10627   10626   10640    6898   11863+
+           7272    6899   11902   11901
CTETRA      6049       1    8836   10668   10681   10682    7537   12019+
+           7661    6578   12021   12020
CTETRA      6050       1    8846   10684   10697   10698    7916   12065+
+           7917    7624   12067   12066
CTETRA      6051       1    8764    8776   10598   10611    9797    8083+
+           7843    8369    8086   11819
CTETRA      6052       1    8806   10632    8819   10646    7975    8257+
+           9919    8010   11917    7130
CTETRA      6053       1    8840   10677   10690   10691    7384   12044+
+           6710    6712   12046   12045
CTETRA      6054       1    8784   10616   10615   10629    7427   11832+
+           7425    8366   11871   11870
CTETRA      6055       1    8752   10570   10583   10584    8158   11739+
+           7461    8146   11741   11740
CTETRA      6056       1    8773    8785   10615   10628    9822    8365+
+           8140    7437    7692   11868
CTETRA      6057       1    8777   10596    8778   10609    8081    7109+
+           9801    8400   11813    6276
CTETRA      6058       1    8767    8780    8779   10607    9808    9807+
+           9806    7841    7706    6645
CTETRA      6059       1    8840   10677   10676   10690    7384   12005+
+           7383    6710   12044   12043
CTETRA      6060       1    8738    8739    8751   10571    9690    9726+
+           9725    8246    8093    6328
CTETRA      6061       1    8752   10584   10583   10597    8146   11740+
+           7461    7463   11779   11778
CTETRA      6062       1   12551   12365    8436   10224   12295    7319+
+          10024    7621   12243    7620
CTETRA      6063       1    8727    8739   10557   10570    9692    8091+
+           7564    8090    8092   11702
CTETRA      6064       1    8798    8810   10642    6169    9893    6739+
+           6738    7822    7203    7965
CTETRA      6065       1    8743   10566   10565   10579    6808   11688+
+           7663    7665   11727   11726
CTETRA      6066       1    8742    8743    8755   10566    9702    9738+
+           9737    6332    6808    8347
CTETRA      6067       1   12509   12439   12438   10239    8405   12443+
+           7407    8323   12080   12079
CTETRA      6068       1    8828   10663   10662   10676    8075   11965+
+           7379    7381   12004   12003
CTETRA      6069       1    8702    8714   10530   10543    9621    6377+
+           6381    6383    6818   11625
CTETRA      6070       1    8725   10545   10558   10559    7457   11668+
+           8028    7453   11670   11669
CTETRA      6071       1    8705    8718    8717   10526    9632    9631+
+           9630    7158    7150    7159
CTETRA      6072       1   12484   12485   12414   10589   12539    8031+
+           8030    7752    8233   12130
CTETRA      6073       1    8449    8461    8460   10237    8904    8903+
+           8902    7074    8391    8395
CTETRA      6074       1    8704   10528   10527   10541    6685   11580+
+           7174    6686   11619   11618
CTETRA      6075       1   12510   10225   12439   10239    6544   12077+
+           8406    6545   10754   12080
CTETRA      6076       1    8554   10339   10338   10352    7656   11039+
+           7927    7659   11078   11077
CTETRA      6077       1   12510    8459   12511   10225   10185   10186+
+          12513    6544    6543    6915
CTETRA      6078       1   12510   12439   12440   10238    8406   12442+
+           8291    7351   12240   12241
CTETRA      6079       1    8706   10512   10511   10525    8251   11534+
+           7295    8374   11573   11572
CTETRA      6080       1   10641   10655   10654    6169   11944   11943+
+          11942    7823    7205    7386
CTETRA      6081       1   12490   12420   12491   10518    8399    8318+
+          12533    8283   12201    8249
CTETRA      6082       1    8654    8655    8667   10473    9452    9488+
+           9487    7304    7686    7305
CTETRA      6083       1   12493   12422   12421   10477    7399   12460+
+           8402    7121   12114   12113
CTETRA      6084       1    8713    8725    8724   10545    9652    9651+
+           9650    6362    7457    6363
CTETRA      6085       1    8666    8679    8678   10501    9521    9520+
+           9519    6701    6358    6696
CTETRA      6086       1   10350   10364   10363    6181   11113   11112+
+          11111    7791    7779    7781
CTETRA      6087       1    8798    8811    8810    6169    9895    9894+
+           9893    7822    7204    7203
CTETRA      6088       1    8662    8674   10465   10478    9509    8345+
+           8076    8101    8301   11438
CTETRA      6089       1    8624   10425   10424   10438    8039   11285+
+           7800    8113   11324   11323
CTETRA      6090       1   12493   10463   12422   10477    6919   12111+
+           7399    7121   11434   12114
CTETRA      6091       1    8829   10662   10661   10675    7147   11962+
+           6260    6632   12001   12000
CTETRA      6092       1    8623    8624    8636   10425    9365    9401+
+           9400    7857    8039    7858
CTETRA      6093       1    8845   10685   10698   10699    7623   12068+
+           7088    7412   12070   12069
CTETRA      6094       1    8624   10411   10424   10425    7797   11284+
+           7800    8039   11286   11285
CTETRA      6095       1    8592   10392   10405   10406    6475   11231+
+           7694    6477   11233   11232
CTETRA      6096       1    8773    8785    8784   10615    9822    9821+
+           9820    8140    8365    7425
CTETRA      6097       1    8581    8582    8594   10390    9245    9281+
+           9280    7545    8268    7546
CTETRA      6098       1    8803   10636   10635   10649    6266   11888+
+           6590    7260   11927   11926
CTETRA      6099       1    8569   10377   10390   10391    8197   11188+
+           7785    7786   11190   11189
CTETRA      6100       1    8849   10680    8850   10694    6881    6880+
+          10005    7014   12055    8004
CTETRA      6101       1    8574   10372   10371   10385    8332   11134+
+           8185    6321   11173   11172
CTETRA      6102       1    8738    8751    8750   10585    9725    9724+
+           9723    8247    6330    6772
CTETRA      6103       1    8586   10385   10398   10399    6322   11210+
+           7923    8307   11212   11211
CTETRA      6104       1    8790    8803    8802   10636    9873    9872+
+           9871    6265    6266    6561
CTETRA      6105       1    8586   10398    8598   10399    7923    7870+
+           9293    8307   11211    6929
CTETRA      6106       1   12302    8851   10691   10692    6706    6723+
+          12154   12155    7431   12048
CTETRA      6107       1   12500   12501    8568   10378   12523   10047+
+          10046    7060    7099    6495
CTETRA      6108       1    8853   10676   10689   10690    7634   12041+
+           7138    7141   12043   12042
CTETRA      6109       1    8785    8797    8796   10629    9856    9855+
+           9854    8367    8238    8237
CTETRA      6110       1    8601    8602    8614   10395    9303    9339+
+           9338    6762    6205    6204
CTETRA      6111       1    8761    8773   10601   10614    9788    8139+
+           6906    6907    7435   11828
CTETRA      6112       1   12482    8784    8796   10630   10082    9853+
+          10085    7255    8364    7344
CTETRA      6113       1    8579   10352   10365   10366    7559   11115+
+           6487    7560   11117   11116
CTETRA      6114       1    8580   10392   10391   10405    7558   11192+
+           6497    7772   11231   11230
CTETRA      6115       1    8796   10630   10629   10643    7344   11872+
+           8237    7345   11911   11910
CTETRA      6116       1    8590    8603    8602   10394    9307    9306+
+           9305    7199    8054    7200
CTETRA      6117       1   12334    8848   12306   10696   10103    7667+
+           8409    6568    6570   12163
CTETRA      6118       1    8437    8449   10223    6161    8860    6249+
+           6248    7347    6805    6807
CTETRA      6119       1    8802   10637   10650   10651    6563   11930+
+           7762    7767   11932   11931
CTETRA      6120       1    8833    8834    8846   10684    9959    9995+
+           9994    8231    7816    7916
CTETRA      6121       1   12484   12413   10602   10616    7753   12188+
+           8032    7758   12187   11833
CTETRA      6122       1    8805    8817   10634   10647    9914    8007+
+           6908    8357    6641   11921
CTETRA      6123       1    8783   10604   10603   10617    6305   11796+
+           7252    7070   11835   11834
CTETRA      6124       1    8438   10222   10221   10235    6813   10743+
+           6519    6815   10742   10741
CTETRA      6125       1   10319   10333   10332    6176   11024   11023+
+          11022    7512    7838    8131
CTETRA      6126       1   12484   12414   12413   10589    8030   12468+
+           7753    7752   12130   12129
CTETRA      6127       1   12484   12413   12414   10602    7753   12468+
+           8030    8032   12188   12189
CTETRA      6128       1    8460   10237    8461   10251    8395    8391+
+           8903    8382   10790    8219
CTETRA      6129       1    8747   10562   10561   10575    7155   11676+
+           7717    8375   11715   11714
CTETRA      6130       1    8533   10335   10334   10348    7585   11029+
+           7248    7250   11068   11067
CTETRA      6131       1    8558    8559    8571   10361    9180    9216+
+           9215    7246    6968    6978
CTETRA      6132       1   12501   12431   12502   10364    7529    7911+
+          12522    7531   12223    7908
CTETRA      6133       1   12504    8520    8532   10322   10038    9105+
+          10041    8392    6256    7527
CTETRA      6134       1    8796    8797    8808   10643    9855    9888+
+           9887    7345    8128    7963
CTETRA      6135       1    8511   10305   10304   10318    7617   10943+
+           6275    6529   10982   10981
CTETRA      6136       1    8738   10571    8751   10585    8246    6328+
+           9725    8247   11744    6330
CTETRA      6137       1    8764   10597    8777   10611    8085    8080+
+           9799    8369   11818    8344
CTETRA      6138       1    8490    8503    8502   10286    9023    9022+
+           9021    8061    7286    8062
CTETRA      6139       1    8467    8480    8479   10257    8958    8957+
+           8956    7003    7355    6999
CTETRA      6140       1    8460    8461    8472   10251    8903    8936+
+           8935    8382    8219    8362
CTETRA      6141       1   12504   12433   10322   10336    6664   12228+
+           8392    8389   12227   11033
CTETRA      6142       1    8448    8449    8460   10237    8859    8902+
+           8901    7073    7074    8395
CTETRA      6143       1    8460   10251    8472   10252    8382    8362+
+           8935    7354   10792    8361
CTETRA      6144       1   12503   12433   12504   10336    8407    6664+
+          12520    8312   12227    8389
CTETRA      6145       1    8456   10229   10228   10242    7334   10716+
+           7021    8163   10764   10763
CTETRA      6146       1   12503   12432   10336   10350    7913   12226+
+           8312    8308   12225   11073
CTETRA      6147       1   12509    8471   12510   10239   10183   10184+
+          12514    8323    6542    6545
CTETRA      6148       1    8594   10390   10403   10404    7546   11225+
+           8192    7548   11227   11226
CTETRA      6149       1   12499   12429   12500   10392    6611    7059+
+          12524    6474   12219    7061
CTETRA      6150       1    8486   10264   10277   10278    7957   10865+
+           6980    6243   10867   10866
CTETRA      6151       1    8752    8764   10584   10597    9763    8084+
+           8146    7463    8085   11779
CTETRA      6152       1    8801   10637    8802   10651    6576    6563+
+           9869    7764   11932    7767
CTETRA      6153       1    8473   10265   10264   10278    8143   10829+
+           7956    7958   10868   10867
CTETRA      6154       1   12387   12360   12359   10218   12278   12373+
+          12274    8286   12256   12255
CTETRA      6155       1    8456    8469    8468   10242    8927    8926+
+           8925    8163    7027    7026
CTETRA      6156       1   12387   12359   12358   10217   12274   12374+
+          12273    6566   12258   12257
CTETRA      6157       1    8440    8453    8452   10233    8874    8873+
+           8871    7371    7372    7363
CTETRA      6158       1    8440    8452   10220   10233    8871    7367+
+           7608    7371    7363   10734
CTETRA      6159       1    8442   10216    8455   10230    8404    8388+
+           8882    8403   10721    6505
CTETRA      6160       1    8455   10216   10229   10230    8388   10718+
+           7333    6505   10721   10720
CTETRA      6161       1    8442   10217   10216   10230    6565   10723+
+           8404    8403   10722   10721
CTETRA      6162       1   12386   10216    8442   10217    6567    8404+
+          10198    6564   10723    6565
CTETRA      6163       1   12385    8443   12357   10215   10196    7062+
+          12271    6413    7050   12262
CTETRA      6164       1    8510    8523    8522   10319    9079    9078+
+           9077    8321    7887    7509
CTETRA      6165       1   12357   10215    8443   10216   12262    7050+
+           7062   12259   10719    7063
CTETRA      6166       1    8444    8457    8456   10228    8890    8889+
+           8887    8125    7022    7021
CTETRA      6167       1    8469   10242   10255    6164    7027   10801+
+           7625    7030    7029    7771
CTETRA      6168       1    8777   10597   10610   10611    8080   11816+
+           8082    8344   11818   11817
CTETRA      6169       1    8642    8655    8654   10473    9453    9452+
+           9451    7187    7686    7304
CTETRA      6170       1   12383    8446    8445   10213   10193    8896+
+          10192    7042    7035    7522
CTETRA      6171       1   12387   12388   12360    8441   12401   12276+
+          12278   10200   10203    8022
CTETRA      6172       1    8636   10452    8648   10453    8078    6417+
+           9435    7856   11365    6871
CTETRA      6173       1    8836    8848   10695    6163   10001    6580+
+           6579    7662    7128    7011
CTETRA      6174       1    8456    8468   10229   10242    8925    7033+
+           7334    8163    7026   10764
CTETRA      6175       1   12332    8849   10694    6163   10106    7014+
+           8223    8214    7015    7012
CTETRA      6176       1   12507    8484    8496   10280   10032    9003+
+          10035    8267    7646    8274
CTETRA      6177       1    8838    8850   10679   10692   10007    7668+
+           6884    7430    7432   12050
CTETRA      6178       1   12506    8519    8507   10295   10176    9070+
+          10177    7678    6657    7681
CTETRA      6179       1    8467   10243    8480   10257    7020    7572+
+           8958    7003   10806    7355
CTETRA      6180       1    8442    8454   10217   10230    8879    8288+
+           6565    8403    6504   10722
CTETRA      6181       1    8494    8507    8506   10282    9035    9034+
+           9033    7610    7611    7006
CTETRA      6182       1    8507   10268   10281   10282    7016   10875+
+           7019    7611   10877   10876
CTETRA      6183       1    8469   10242   10241   10255    7027   10762+
+           7025    7625   10801   10800
CTETRA      6184       1    8611   10411    8624   10425    8027    7797+
+           9366    8038   11286    8039
CTETRA      6185       1    8483   10254   10253   10267    7343   10796+
+           7342    8108   10835   10834
CTETRA      6186       1    8513   10302    8525   10303    6789    7724+
+           9086    8331   10937    8349
CTETRA      6187       1    8461   10250    8474   10264    8220    8298+
+           8940    8221   10827    7079
CTETRA      6188       1    8461    8474    8473   10264    8940    8939+
+           8938    8221    7079    7956
CTETRA      6189       1    8518    8519    8531   10296    9068    9104+
+           9103    7009    6656    6680
CTETRA      6190       1   12509    8460    8472   10252   10028    8935+
+          10031    8396    7354    8361
CTETRA      6191       1   12391   12363    8438   10222   12285    6729+
+          10209    7083   12247    6813
CTETRA      6192       1   12510   12511    8448   10238   12513   10027+
+          10026    7351    7954    8311
CTETRA      6193       1    8668    8680   10486   10499    9525    7505+
+           7502    6395    7169   11499
CTETRA      6194       1    8495   10254   10267   10268    8107   10835+
+           8109    7017   10837   10836
CTETRA      6195       1    8482   10254    8495   10268    7370    8107+
+           9001    7308   10837    7017
CTETRA      6196       1   12509   12439   12510   10252    8405    8406+
+          12514    8396   12239    7353
CTETRA      6197       1    8480   10256   10243    6164    7566   10804+
+           7572    7567    7032    7031
CTETRA      6198       1   12509   12438   10252   10266    7407   12238+
+           8396    7409   12237   10833
CTETRA      6199       1   12509   12510   12439   10239   12514    8406+
+           8405    8323    6545   12080
CTETRA      6200       1   12508    8495    8483   10267   10180    9002+
+          10181    8196    8109    8108
CTETRA      6201       1    8513    8526    8525   10302    9088    9087+
+           9086    6789    7222    7724
CTETRA      6202       1    8503   10286   10285   10299    7286   10888+
+           8011    7287   10927   10926
CTETRA      6203       1   12509   12438   12439   10252    7407   12443+
+           8405    8396   12238   12239
CTETRA      6204       1   12509   12510    8460   10252   12514   10029+
+          10028    8396    7353    7354
CTETRA      6205       1    8532   10336   10335   10349    7536   11032+
+           7528    8387   11071   11070
CTETRA      6206       1    8523   10332    8535    6176    7888    8127+
+           9114    8130    8131    7837
CTETRA      6207       1    8546   10348   10347   10361    7251   11066+
+           6965    6967   11105   11104
CTETRA      6208       1    8723    8735   10534   10547    9682    7709+
+           7471    8339    7710   11635
CTETRA      6209       1    8455   10230   10229   10243    6505   10720+
+           7333    8386   10767   10766
CTETRA      6210       1    8802   10636    8815   10650    6561    7259+
+           9907    7762   11929    7266
CTETRA      6211       1    8513    8514    8526   10302    9053    9089+
+           9088    6789    6783    7222
CTETRA      6212       1    8527   10300   10313   10314    6960   10967+
+           7880    6962   10969   10968
CTETRA      6213       1    8529   10311    8542   10325    7745    8319+
+           9134    8047   11000    8048
CTETRA      6214       1    8669   10471   10484   10485    6400   11456+
+           6861    6402   11458   11457
CTETRA      6215       1    8541    8554    8553   10339    9168    9167+
+           9166    8259    7656    6531
CTETRA      6216       1    8541   10325    8554   10339    8049    8213+
+           9168    8259   11040    7656
CTETRA      6217       1    8814    8826   10651   10664    9939    7769+
+           7765    7262    7264   11970
CTETRA      6218       1    8814   10651   10650   10664    7765   11931+
+           7828    7262   11970   11969
CTETRA      6219       1    8832   10685    8844   10686    7998    7622+
+           9989    6609   12032    7056
CTETRA      6220       1    8793   10619    8806   10633    7136    7415+
+           9882    6618   11880    8009
CTETRA      6221       1    8575   10370   10369   10383    7239   11128+
+           6464    8266   11167   11166
CTETRA      6222       1    8795    8807   10618   10631    9886    7072+
+           6302    6304    7071   11875
CTETRA      6223       1    8575   10356   10369   10370    8310   11127+
+           6464    7239   11129   11128
CTETRA      6224       1   12485    8771    8759   10589   10134    9784+
+          10135    8233    7750    8372
CTETRA      6225       1    8810   10642   10655   10656    6739   11945+
+           7202    8132   11947   11946
CTETRA      6226       1    8791    8803   10622   10635    9874    6264+
+           6527    8138    6590   11887
CTETRA      6227       1    8541    8553   10326   10339    9166    6523+
+           6522    8259    6531   11041
CTETRA      6228       1    8573   10358    8574   10372    7875    8124+
+           9223    7335   11135    8332
CTETRA      6229       1    8583    8595   10389   10402    9284    8398+
+           8044    7210    7212   11222
CTETRA      6230       1    8773   10615   10614   10628    8140   11829+
+           7435    7437   11868   11867
CTETRA      6231       1    8535    8547   10333   10346    9148    8088+
+           7835    7576    6955   11062
CTETRA      6232       1    8756    8757    8769   10578    9742    9778+
+           9777    7670    7978    8178
CTETRA      6233       1    8785    8786    8798   10628    9823    9859+
+           9858    7692    7438    8279
CTETRA      6234       1    8582   10389    8595   10403    8045    8398+
+           9283    8334   11224    8271
CTETRA      6235       1    8582    8583    8595   10389    9248    9284+
+           9283    8045    8044    8398
CTETRA      6236       1    8638   10423   10436   10437    7742   11318+
+           7743    8305   11320   11319
CTETRA      6237       1   12502   12431   10350   10364    7911   12224+
+           7909    7908   12223   11113
CTETRA      6238       1    8524   10317    8537   10331    6225    6218+
+           9119    6226   11018    6220
CTETRA      6239       1   12483   10616    8784   10630    7757    7427+
+          10083    7761   11873    8364
CTETRA      6240       1    8765    8766    8778   10595    9767    9803+
+           9802    8147    6668    7110
CTETRA      6241       1    8567   10338   10351   10352    7928   11075+
+           6944    7562   11077   11076
CTETRA      6242       1    8549   10331   10344   10345    6513   11056+
+           6509    6508   11058   11057
CTETRA      6243       1    8763    8764    8776   10598    9761    9797+
+           9796    6779    7843    8083
CTETRA      6244       1    8600    8613    8612   10410    9335    9334+
+           9333    6940    6941    7321
CTETRA      6245       1    8622    8635    8634   10440    9397    9396+
+           9395    8046    7493    6605
CTETRA      6246       1    8634    8647    8646   10454    9431    9430+
+           9429    6942    7862    6603
CTETRA      6247       1    8611   10412   10411   10425    7921   11248+
+           8027    8038   11287   11286
CTETRA      6248       1    8778   10609   10608   10622    6276   11811+
+           7127    6277   11850   11849
CTETRA      6249       1    8657   10457   10456   10470    8250   11377+
+           8304    6386   11416   11415
CTETRA      6250       1    8744    8745    8757    6174    9708    9744+
+           9743    8094    8014    7979
CTETRA      6251       1    8657   10470   10483   10484    6386   11453+
+           6374    8355   11455   11454
CTETRA      6252       1    8727    8728    8740   10556    9659    9695+
+           9694    8089    6387    6397
CTETRA      6253       1    8645   10456   10455    6149    6626   11374+
+           6323    6325    7905    6326
CTETRA      6254       1    8744   10564    8745    6174    7891    7890+
+           9708    8094    7420    8014
CTETRA      6255       1   12493    8675    8663   10477   10150    9512+
+          10151    7121    8099    7122
CTETRA      6256       1    8753   10569   10582   10583    7448   11736+
+           7708    7466   11738   11737
CTETRA      6257       1    8732    8733    8745   10550    9674    9710+
+           9709    7532    6827    8296
CTETRA      6258       1    8745   10563    8758   10577    7784    8181+
+           9746    8013   11720    8177
CTETRA      6259       1    8751    8763   10585   10598    9760    7851+
+           6330    7842    6779   11782
CTETRA      6260       1    8714    8727    8726   10557    9657    9656+
+           9655    6895    7564    6795
CTETRA      6261       1    8698   10493   10506   10507    8105   11518+
+           8034    8033   11520   11519
CTETRA      6262       1    8708   10509   10522   10523    8164   11564+
+           6350    7480   11566   11565
CTETRA      6263       1    8764   10598   10597   10611    7843   11780+
+           8085    8369   11819   11818
CTETRA      6264       1    8725    8726    8738    6175    9653    9689+
+           9688    7454    7848    8117
CTETRA      6265       1    8722    8735    8734   10548    9681    9680+
+           9679    7290    7711    7152
CTETRA      6266       1   12491    8687   12492   10491   10147   10148+
+          12532    8317    7901    7902
CTETRA      6267       1    8738    8750   10572   10585    9723    7846+
+           8116    8247    6772   11745
CTETRA      6268       1    8753    8765   10583   10596    9766    7462+
+           7466    8148    8149   11776
CTETRA      6269       1    8704    8717    8716   10541    9629    9628+
+           9627    6686    7679    6687
CTETRA      6270       1    8786    8799    8798   10641    9861    9860+
+           9859    8370    7821    7820
CTETRA      6271       1    8700   10532   10531   10545    6704   11592+
+           6703    7789   11631   11630
CTETRA      6272       1    8695   10496   10509   10510    8356   11527+
+           8057    8346   11529   11528
CTETRA      6273       1    8699   10492   10505   10506    7895   11515+
+           8168    8170   11517   11516
CTETRA      6274       1    8692   10513    8705   10527    7179    7796+
+           9595    7173   11578    7160
CTETRA      6275       1    8704   10527    8717   10541    7174    7161+
+           9629    6686   11618    7679
CTETRA      6276       1    8704    8705    8717   10527    9594    9630+
+           9629    7174    7160    7161
CTETRA      6277       1    8710    8722   10521   10534    9645    7475+
+           6922    7470    7289   11598
CTETRA      6278       1    8727   10543   10556   10557    7563   11662+
+           8089    7564   11664   11663
CTETRA      6279       1   12487   12417   12488   10560    7987    7713+
+          12536    7988   12195    8024
CTETRA      6280       1    8576    8577    8589   10368    9232    9268+
+           9267    6758    8328    6467
CTETRA      6281       1    8690   10516   10529   10530    6372   11585+
+           6373    6857   11587   11586
CTETRA      6282       1    8702    8703    8715   10529    9588    9624+
+           9623    6382    8097    8359
CTETRA      6283       1   12487   10560    8736   10574    7988    8335+
+          10075    8397   11713    7867
CTETRA      6284       1    8709   10521    8722   10535    6357    7475+
+           9644    6342   11600    7288
CTETRA      6285       1    8662   10451   10464   10465    8281   11398+
+           8100    8076   11400   11399
CTETRA      6286       1    8665    8678    8677   10502    9518    9517+
+           9516    8401    6369    7494
CTETRA      6287       1    8748   10574   10587   10588    7144   11751+
+           7134    7142   11753   11752
CTETRA      6288       1    8715   10543   10542   10556    7556   11623+
+           6403    6405   11662   11661
CTETRA      6289       1    8732    8744   10551   10564    9707    6809+
+           6485    7889    7891   11684
CTETRA      6290       1    8665    8677   10489   10502    9516    8275+
+           8350    8401    7494   11508
CTETRA      6291       1    8677   10516    8689   10517    7484    6856+
+           9550    7485   11549    8095
CTETRA      6292       1    8624    8636   10425   10438    9401    7858+
+           8039    8113    8110   11324
CTETRA      6293       1    8713   10544    8714    6147    6558    6306+
+           9619    7561    6309    6308
CTETRA      6294       1   12488   12417   12489   10546    7713    7992+
+          12535    7804   12196    7807
CTETRA      6295       1    8724    8725    8736   10559    9651    9684+
+           9683    7458    7453    7449
CTETRA      6296       1    8576    8589    8588   10382    9267    9266+
+           9265    6459    6469    6460
CTETRA      6297       1   12491   12420   10504   10518    8318   12202+
+           8248    8249   12201   11553
CTETRA      6298       1    8755   10566   10579   10580    8347   11727+
+           7114    6447   11729   11728
CTETRA      6299       1    8657   10471   10470   10484    7506   11417+
+           6386    8355   11456   11455
CTETRA      6300       1   12493   12421   12422   10490    8402   12460+
+           7399    6229   12204   12205
CTETRA      6301       1    8733   10550   10549   10563    6827   11642+
+           6844    7782   11681   11680
CTETRA      6302       1    8613   10410   10409   10423    6941   11242+
+           7314    7316   11281   11280
CTETRA      6303       1    8717    8718    8730   10540    9631    9667+
+           9666    6292    7165    6293
CTETRA      6304       1    8634    8635    8647   10440    9396    9432+
+           9431    6605    7493    7854
CTETRA      6305       1    8636   10425   10438   10439    7858   11324+
+           8110    7855   11326   11325
CTETRA      6306       1    8617   10433   10446   10447    6483   11348+
+           8041    6882   11350   11349
CTETRA      6307       1    8777   10610   10609   10623    8082   11814+
+           8400    6526   11853   11852
CTETRA      6308       1    8824    8837    8836   10681    9969    9968+
+           9967    7690    6887    7661
CTETRA      6309       1    8754   10581   10580   10594    6676   11731+
+           7148    6677   11770   11769
CTETRA      6310       1    8676   10490   10489   10503    8380   11472+
+           8351    8352   11511   11510
CTETRA      6311       1    8744    8756   10565    6174    9741    7664+
+           6811    8094    8072    8087
CTETRA      6312       1    8694    8695    8707   10510    9566    9602+
+           9601    7300    8346    8373
CTETRA      6313       1   12494    8640    8652   10462   10058    9445+
+          10061    6201    6427    6912
CTETRA      6314       1    8605   10419   10418   10432    7697   11269+
+           7700    7698   11308   11307
CTETRA      6315       1    8777   10609    8778   10623    8400    6276+
+           9801    6526   11852    6278
CTETRA      6316       1    8778    8791    8790   10622    9839    9838+
+           9837    6277    6527    6263
CTETRA      6317       1    8630    8642   10446   10459    9417    7189+
+           7689    7687    7186   11385
CTETRA      6318       1    8664   10476   10489   10490    6228   11471+
+           8378    6230   11473   11472
CTETRA      6319       1    8710    8711    8723   10520    9612    9648+
+           9647    7468    6819    7469
CTETRA      6320       1    8808   10644   10657   10658    7649   11951+
+           7647    7648   11953   11952
CTETRA      6321       1    8798   10628   10641   10642    8279   11905+
+           7820    6738   11907   11906
CTETRA      6322       1    8797   10629   10642   10643    8238   11908+
+           6737    8128   11910   11909
CTETRA      6323       1    8616   10420   10433   10434    7196   11311+
+           7693    6831   11313   11312
CTETRA      6324       1    8797    8809   10643   10656    9890    7964+
+           8128    8129    7962   11948
CTETRA      6325       1    8585   10385    8586   10399    7865    6322+
+           9257    7866   11212    8307
CTETRA      6326       1    8596    8608   10402   10415    9321    6927+
+           7211    8300    6450   11259
CTETRA      6327       1    8805    8818    8817   10647    9916    9915+
+           9914    8357    7118    6641
CTETRA      6328       1    8757    8769   10578   10591    9778    8178+
+           7978    8225    6760   11761
CTETRA      6329       1    8536    8548   10332   10345    9151    8160+
+           8126    6586    8120   11059
CTETRA      6330       1    8783   10590   10603   10604    7403   11795+
+           7252    6305   11797   11796
CTETRA      6331       1    8695    8707   10510   10523    9602    8373+
+           8346    7479    7481   11567
CTETRA      6332       1    8652   10462   10475   10476    6912   11431+
+           6209    6208   11433   11432
CTETRA      6333       1    8777   10610   10623   10624    8082   11853+
+           6526    7401   11855   11854
CTETRA      6334       1    8583   10389   10388   10402    8044   11183+
+           6949    7210   11222   11221
CTETRA      6335       1    8825    8838    8837   10666    9972    9971+
+           9970    6876    6878    7095
CTETRA      6336       1    8547   10347   10346   10360    6969   11063+
+           6955    6957   11102   11101
CTETRA      6337       1    8777    8790    8789   10623    9836    9835+
+           9834    6526    6279    7400
CTETRA      6338       1    8825   10653   10652   10666    7101   11937+
+           8006    6876   11976   11975
CTETRA      6339       1   12492   12421   10490   10504    8348   12204+
+           8379    8381   12203   11513
CTETRA      6340       1    8677    8690    8689   10516    9552    9551+
+           9550    7484    6372    6856
CTETRA      6341       1    8801   10638   10651   10652    7398   11933+
+           7764    7442   11935   11934
CTETRA      6342       1    8706   10525   10524   10538    8374   11571+
+           7297    7982   11610   11609
CTETRA      6343       1    8698    8710   10507   10520    9611    6924+
+           8033    8035    7468   11558
CTETRA      6344       1   12511   12550   12551   10224    8198   12296+
+          12512    7953   12244    7621
CTETRA      6345       1    8583   10388    8596   10402    6949    7213+
+           9286    7210   11221    7211
CTETRA      6346       1    8563    8576    8575   10369    9230    9229+
+           9228    6217    6458    6464
CTETRA      6347       1    8526   10314    8539   10328    7581    7582+
+           9125    7273   11009    7217
CTETRA      6348       1   12510   12440   12439   10225    8291   12442+
+           8406    6544   12078   12077
CTETRA      6349       1   12389   12362   12361   10220   12279   12371+
+          12277    7163   12252   12251
CTETRA      6350       1   12510   12511   12440   10225   12513    7952+
+           8291    6544    6915   12078
CTETRA      6351       1    8706   10524    8719   10538    7297    8294+
+           9635    7982   11609    7878
CTETRA      6352       1    8756   10578   10565    6174    7670   11724+
+           7664    8072    7421    8087
CTETRA      6353       1    8491    8492    8504   10271    8991    9027+
+           9026    7338    8201    6572
CTETRA      6354       1    8601   10382   10395   10396    6759   11201+
+           6762    7207   11203   11202
CTETRA      6355       1    8472   10251    8473   10265    8362    8297+
+           8937    8142   10830    8143
CTETRA      6356       1    8625    8638    8637   10437    9406    9405+
+           9404    7741    8305    6492
CTETRA      6357       1    8436    8437    8448   10223    8858    8857+
+           8856    7619    6248    6250
CTETRA      6358       1    8478    8491    8490   10272    8989    8988+
+           8987    7340    7337    7812
CTETRA      6359       1    8479   10257    8492   10271    6999    7356+
+           8992    7000   10846    8201
CTETRA      6360       1    8460   10238   10237   10251    7352   10752+
+           8395    8382   10791   10790
CTETRA      6361       1    8510    8511    8523   10305    9044    9080+
+           9079    8162    7617    7885
CTETRA      6362       1    8464    8465    8477   10247    8914    8950+
+           8949    7236    7737    7232
CTETRA      6363       1    8652    8653    8664   10489    9447    9480+
+           9479    6210    7930    8378
CTETRA      6364       1    8449   10236    8462   10250    6804    8295+
+           8906    8260   10787    8261
CTETRA      6365       1    8619   10417   10430   10431    8191   11302+
+           6926    8184   11304   11303
CTETRA      6366       1   12497    8627    8615   10421   10158    9376+
+          10159    6829    6193    7243
CTETRA      6367       1    8653   10488    8665   10489    6429    8325+
+           9482    7930   11469    8350
CTETRA      6368       1   12493    8652    8664   10476   10060    9479+
+          10063    6227    6208    6228
CTETRA      6369       1   12492   12493    8664   10490   12531   10063+
+          10062    8379    6229    6230
CTETRA      6370       1    8847   10683   10696   10697    7534   12062+
+           6569    7540   12064   12063
CTETRA      6371       1    8638    8650   10437   10450    9441    8358+
+           8305    8066    6902   11358
CTETRA      6372       1    8726   10571    8738   10572    7853    8246+
+           9689    7847   11706    8116
CTETRA      6373       1    8649   10438   10451   10452    8111   11361+
+           6424    6423   11363   11362
CTETRA      6374       1    8561    8574    8573   10358    9224    9223+
+           9222    7874    8124    7875
CTETRA      6375       1    8834    8835    8847   10683    9962    9998+
+           9997    7538    6272    7534
CTETRA      6376       1    8462    8463    8475    6159    8908    8944+
+           8943    7065    6799    7066
CTETRA      6377       1    8450   10235    8451    6160    6816    6581+
+           8865    6995    6997    8390
CTETRA      6378       1   12485   12486    8748   10588   12538   10077+
+          10076    7871    7864    7142
CTETRA      6379       1   12485    8759   12486   10575   10135   10136+
+          12538    8341    6639    8342
CTETRA      6380       1    8647   10454   10453   10467    7862   11368+
+           6872    7507   11407   11406
CTETRA      6381       1   12484   12485    8760   10602   12539   10079+
+          10078    8032    7872    7873
CTETRA      6382       1    8749   10573   10586   10587    8336   11748+
+           6315    7133   11750   11749
CTETRA      6383       1    8517   10297    8530   10311    7594    8320+
+           9100    7744   10960    8050
CTETRA      6384       1   12503   12433   12432   10323    8407   12449+
+           7913    8242   12092   12091
CTETRA      6385       1   12506   12435   10294   10308    7676   12232+
+           8315    8234   12231   10953
CTETRA      6386       1    8453   10233   10232   10246    7372   10732+
+           6977    8306   10776   10775
CTETRA      6387       1    8549   10343    8550   10357    7445    7444+
+           9155    8121   11092    7940
CTETRA      6388       1    8689   10517   10530   10531    8095   11588+
+           6848    6850   11590   11589
CTETRA      6389       1   12503   12504   12433   10323   12520    6664+
+           8407    8242    6665   12092
CTETRA      6390       1    8518   10296    8531   10310    7009    6680+
+           9103    8059   10957    7674
CTETRA      6391       1    8443   10216   10215   10229    7063   10719+
+           7050    8327   10718   10717
CTETRA      6392       1    8530   10310    8543   10324    7673    7675+
+           9137    8051   10997    8205
CTETRA      6393       1   12504   12434   12505   10322    6689    6688+
+          12519    8392   12229    6255
CTETRA      6394       1   12504   12505    8520   10322   12519   10039+
+          10038    8392    6255    6256
CTETRA      6395       1    8454   10230    8467   10244    6504    6506+
+           8921    7627   10769    7002
CTETRA      6396       1    8456   10215   10228   10229    8326   10714+
+           7021    7334   10717   10716
CTETRA      6397       1    8698    8711    8710   10520    9613    9612+
+           9611    8035    6819    7468
CTETRA      6398       1    8780   10606   10593    6157    6295   11804+
+           7840    8153    7410    8154
CTETRA      6399       1    8490   10260   10273   10274    7967   10853+
+           8017    8063   10855   10854
CTETRA      6400       1   12503   12432   12433   10336    7913   12449+
+           8407    8312   12226   12227
CTETRA      6401       1    8631    8632    8644   10444    9387    9423+
+           9422    7523    8155    7524
CTETRA      6402       1    8450   10236   10235   10249    7751   10744+
+           6816    6994   10785   10784
CTETRA      6403       1    8462   10236   10249   10250    8295   10785+
+           7275    8261   10787   10786
CTETRA      6404       1    8449    8450    8462   10236    8861    8907+
+           8906    6804    7751    8295
CTETRA      6405       1    8461   10237   10250   10251    8391   10788+
+           8220    8219   10790   10789
CTETRA      6406       1    8444   10214    8457   10228    7974    7970+
+           8890    8125   10713    7022
CTETRA      6407       1    8454   10231   10230   10244    8290   10724+
+           6504    7627   10770   10769
CTETRA      6408       1   12505    8531    8519   10309   10174    9104+
+          10175    6679    6671    6658
CTETRA      6409       1    8496   10280   10293   10294    8274   10911+
+           8173    8226   10913   10912
CTETRA      6410       1   12504   10322    8532   10336    8392    7527+
+          10041    8389   11033    7536
CTETRA      6411       1    8525   10303   10302   10316    8349   10937+
+           7724    7725   10976   10975
CTETRA      6412       1    8520    8521    8532   10335    9073    9106+
+           9105    6992    7326    7528
CTETRA      6413       1    8454   10244    8466   10245    7627    7628+
+           8919    8393   10771    7632
CTETRA      6414       1    8574   10371   10370   10384    8185   11131+
+           7238    7550   11170   11169
CTETRA      6415       1    8629    8630    8642   10446    9381    9417+
+           9416    6431    7689    7189
CTETRA      6416       1   12505   12434   10308   10322    6688   12230+
+           6253    6255   12229   10993
CTETRA      6417       1   12301    8852   10690   10691    7094    6711+
+          12152   12153    6713   12045
CTETRA      6418       1    8637   10424   10437   10438    8112   11321+
+           6492    6491   11323   11322
CTETRA      6419       1    8459   10226   10225   10239    6540   10704+
+           6543    6541   10755   10754
CTETRA      6420       1   12505    8519   12506   10295   10175   10176+
+          12518    6678    6657    7678
CTETRA      6421       1   12509    8483    8471   10253   10182    8968+
+          10183    8324    7342    7904
CTETRA      6422       1   12510   12439   10238   10252    8406   12240+
+           7351    7353   12239   10793
CTETRA      6423       1    8474    8486   10264    6166    8975    7957+
+           7079    7080    8199    7081
CTETRA      6424       1    8531   10296   10309   10310    6680   10955+
+           6671    7674   10957   10956
CTETRA      6425       1   12510    8448    8460   10238   10026    8901+
+          10029    7351    8311    7352
CTETRA      6426       1    8479    8492    8491   10271    8992    8991+
+           8990    7000    8201    7338
CTETRA      6427       1    8486    8499    8498   10291    9011    9010+
+           9009    6244    6982    6245
CTETRA      6428       1    8527    8539   10314   10327    9126    7582+
+           6962    6963    6964   11007
CTETRA      6429       1    8618    8619    8631   10431    9350    9386+
+           9385    8000    8184    8182
CTETRA      6430       1   12507   12508    8484   10280   12516   10033+
+          10032    8267    8056    7646
CTETRA      6431       1    8670   10483    8682    6156    6375    6231+
+           9531    8394    6691    6690
CTETRA      6432       1   12490   12420   12419   10505    8399   12462+
+           8338    8167   12118   12117
CTETRA      6433       1    8535    8536    8548   10332    9115    9151+
+           9150    8127    8126    8160
CTETRA      6434       1    8736    8737    8748   10573    9685    9718+
+           9717    7451    7452    7145
CTETRA      6435       1    8531    8543   10310   10323    9138    7675+
+           7674    6672    8240   10995
CTETRA      6436       1   12336   12337    8845    6167   12348   10097+
+          10098    7090    7374    7091
CTETRA      6437       1   10313   10327   10326    6182   11006   11005+
+          11004    7883    7882    7899
CTETRA      6438       1    8530    8542   10311   10324    9135    8319+
+           8050    8051    8204   10998
CTETRA      6439       1    8835    8836    8848   10682    9965   10001+
+          10000    7394    6578    6577
CTETRA      6440       1    8674   10465   10478   10479    8345   11438+
+           8301    8302   11440   11439
CTETRA      6441       1   12307    8847   10696   10697    8070    6569+
+          12164   12165    7540   12063
CTETRA      6442       1    8574   10358   10357   10371    8124   11094+
+           8123    8185   11133   11132
CTETRA      6443       1    8572   10373    8585   10387    6392    7332+
+           9255    8337   11178    8077
CTETRA      6444       1    8549   10344   10357   10358    6509   11093+
+           8121    6510   11095   11094
CTETRA      6445       1    8611    8623   10412   10425    9364    8354+
+           7921    8038    7857   11287
CTETRA      6446       1    8610   10413   10412   10426    6346   11251+
+           7869    8353   11290   11289
CTETRA      6447       1    8775    8788    8787   10612    9830    9829+
+           9828    7278    8144    7282
CTETRA      6448       1    8739    8752    8751   10584    9728    9727+
+           9726    8159    8146    6329
CTETRA      6449       1    8669    8670    8682    6156    9495    9531+
+           9530    8052    8394    6690
CTETRA      6450       1    8574   10357   10370   10371    8123   11130+
+           7238    8185   11132   11131
CTETRA      6451       1    8813    8826    8825   10652    9938    9937+
+           9936    7839    7770    8006
CTETRA      6452       1    8791    8804    8803   10635    9876    9875+
+           9874    8138    6555    6590
CTETRA      6453       1   12495   10448    8640   10462    6905    6628+
+          10059    6426   11393    6427
CTETRA      6454       1    8587    8600    8599   10397    9298    9297+
+           9296    7554    7206    7922
CTETRA      6455       1    8587   10384   10383   10397    7551   11168+
+           6930    7554   11207   11206
CTETRA      6456       1    8594    8606   10404   10417    9315    7802+
+           7548    8194    8003   11265
CTETRA      6457       1    8658   10468    8671   10482    6896    6935+
+           9499    8151   11449    6936
CTETRA      6458       1    8658   10482    8670   10483    8151    8152+
+           9497    6385   11451    6375
CTETRA      6459       1    8832    8833    8844   10685    9957    9990+
+           9989    7998    8232    7622
CTETRA      6460       1    8598   10399   10412   10413    6929   11250+
+           7868    6345   11252   11251
CTETRA      6461       1    8833    8845    8844   10685    9992    9991+
+           9990    8232    7623    7622
CTETRA      6462       1    8765   10596    8777   10597    8149    8081+
+           9800    7464   11777    8080
CTETRA      6463       1    8638   10437   10436   10450    8305   11319+
+           7743    8066   11358   11357
CTETRA      6464       1    8631   10431   10444   10445    8182   11342+
+           7523    6889   11344   11343
CTETRA      6465       1    8562    8574   10357   10370    9225    8123+
+           6461    6463    7238   11130
$*
$* PROPERTY CARDS
$*
$*  Property: Aluminum
PSOLID         1       1       0                           SMECH
$*
$* MATERIAL CARDS
$*
$*  Material: Aluminum_6061::Leg assembly_fem1::[1]
MAT1           16.8980+7        0.3300002.7110-62.2380-5
MATT1          1       1               2               3
TABLEM1        1                       1                                +
+        20.00006.8980+7 21.11006.8980+7 23.89006.8980+7 37.78006.8290+7+
+        51.67006.8290+7 65.56006.7600+7 79.44006.6910+7 93.33006.6221+7+
+       107.22006.5531+7121.11006.4841+7135.00006.4151+7148.89006.3461+7+
+       162.78006.2772+7176.67006.1392+7190.56006.0702+7204.44005.9323+7+
+       218.33005.8633+7232.22005.7253+7246.11005.5874+7260.00005.4494+7+
+       273.89005.3114+7287.78005.1735+7301.67005.0355+7315.56004.8976+7+
+       329.44004.7596+7343.33004.6216+7357.22004.4147+7371.11004.2767+7+
+       385.00004.1388+7398.89003.9318+7412.78003.7939+7426.67003.5869+7+
+           ENDT
TABLEM1        2                       1                                +
+        20.00000.330000 21.11000.330000    ENDT
TABLEM1        3                       1                                +
+        20.00002.2380-5 93.33002.3184-5107.22002.3346-5121.11002.3508-5+
+       135.00002.3670-5148.89002.3832-5162.78002.3994-5176.67002.4138-5+
+       190.56002.4300-5204.44002.4444-5218.33002.4588-5232.22002.4732-5+
+       246.11002.4876-5260.00002.5002-5273.89002.5146-5287.78002.5272-5+
+       301.67002.5398-5315.56002.5524-5    ENDT
$*
$* LOAD AND CONSTRAINT CARDS
$*
$*  Constraint: Fixed(1)
SPC            1    8408  123456  0.0000
SPC            1    8409  123456  0.0000
SPC            1    8410  123456  0.0000
SPC            1    8411  123456  0.0000
SPC            1    8412  123456  0.0000
SPC            1    8413  123456  0.0000
SPC            1    8414  123456  0.0000
SPC            1    8415  123456  0.0000
SPC            1    8416  123456  0.0000
SPC            1    8417  123456  0.0000
SPC            1    8418  123456  0.0000
SPC            1    8419  123456  0.0000
SPC            1    8420  123456  0.0000
SPC            1    8421  123456  0.0000
SPC            1    8422  123456  0.0000
SPC            1    8423  123456  0.0000
SPC            1    8424  123456  0.0000
SPC            1    8425  123456  0.0000
SPC            1    8426  123456  0.0000
SPC            1    8427  123456  0.0000
SPC            1    8428  123456  0.0000
SPC            1    8429  123456  0.0000
SPC            1    8430  123456  0.0000
SPC            1    8431  123456  0.0000
SPC            1    8432  123456  0.0000
SPC            1    8433  123456  0.0000
SPC            1    8434  123456  0.0000
SPC            1    8435  123456  0.0000
SPC            1   12298  123456  0.0000
SPC            1   12299  123456  0.0000
SPC            1   12300  123456  0.0000
SPC            1   12301  123456  0.0000
SPC            1   12302  123456  0.0000
SPC            1   12303  123456  0.0000
SPC            1   12304  123456  0.0000
SPC            1   12305  123456  0.0000
SPC            1   12306  123456  0.0000
SPC            1   12307  123456  0.0000
SPC            1   12308  123456  0.0000
SPC            1   12309  123456  0.0000
SPC            1   12310  123456  0.0000
SPC            1   12311  123456  0.0000
SPC            1   12312  123456  0.0000
SPC            1   12313  123456  0.0000
SPC            1   12314  123456  0.0000
SPC            1   12315  123456  0.0000
SPC            1   12316  123456  0.0000
SPC            1   12317  123456  0.0000
SPC            1   12318  123456  0.0000
SPC            1   12319  123456  0.0000
SPC            1   12320  123456  0.0000
SPC            1   12321  123456  0.0000
SPC            1   12322  123456  0.0000
SPC            1   12323  123456  0.0000
SPC            1   12324  123456  0.0000
SPC            1   12325  123456  0.0000
SPC            1   12326  123456  0.0000
SPC            1   12327  123456  0.0000
SPC            1   12328  123456  0.0000
SPC            1   12329  123456  0.0000
SPC            1   12330  123456  0.0000
SPC            1   12331  123456  0.0000
SPC            1   12332  123456  0.0000
SPC            1   12333  123456  0.0000
SPC            1   12334  123456  0.0000
SPC            1   12335  123456  0.0000
SPC            1   12336  123456  0.0000
SPC            1   12337  123456  0.0000
SPC            1   12338  123456  0.0000
SPC            1   12339  123456  0.0000
SPC            1   12340  123456  0.0000
SPC            1   12341  123456  0.0000
SPC            1   12342  123456  0.0000
SPC            1   12343  123456  0.0000
SPC            1   12344  123456  0.0000
SPC            1   12345  123456  0.0000
SPC            1   12346  123456  0.0000
SPC            1   12347  123456  0.0000
SPC            1   12348  123456  0.0000
SPC            1   12349  123456  0.0000
SPC            1   12350  123456  0.0000
SPC            1   12351  123456  0.0000
SPC            1   12548  123456  0.0000
SPC            1   12549  123456  0.0000
$*  Constraint: UserDefined(1)
SPC            2    2593    1456  0.0000
SPC            2    2594    1456  0.0000
SPC            2    2595    1456  0.0000
SPC            2    2596    1456  0.0000
SPC            2    2597    1456  0.0000
SPC            2    2598    1456  0.0000
SPC            2    2599    1456  0.0000
SPC            2    2600    1456  0.0000
SPC            2    2601    1456  0.0000
SPC            2    2602    1456  0.0000
SPC            2    2603    1456  0.0000
SPC            2    2604    1456  0.0000
SPC            2    2605    1456  0.0000
SPC            2    2606    1456  0.0000
SPC            2    2607    1456  0.0000
SPC            2    2608    1456  0.0000
SPC            2    2609    1456  0.0000
SPC            2    2610    1456  0.0000
SPC            2    2611    1456  0.0000
SPC            2    2612    1456  0.0000
SPC            2    2613    1456  0.0000
SPC            2    2614    1456  0.0000
SPC            2    2615    1456  0.0000
SPC            2    2616    1456  0.0000
SPC            2    5883    1456  0.0000
SPC            2    5884    1456  0.0000
SPC            2    5885    1456  0.0000
SPC            2    5886    1456  0.0000
SPC            2    5887    1456  0.0000
SPC            2    5888    1456  0.0000
SPC            2    5889    1456  0.0000
SPC            2    5890    1456  0.0000
SPC            2    5891    1456  0.0000
SPC            2    5892    1456  0.0000
SPC            2    5893    1456  0.0000
SPC            2    5894    1456  0.0000
SPC            2    5895    1456  0.0000
SPC            2    5896    1456  0.0000
SPC            2    5897    1456  0.0000
SPC            2    5898    1456  0.0000
SPC            2    5899    1456  0.0000
SPC            2    5900    1456  0.0000
SPC            2    5901    1456  0.0000
SPC            2    5902    1456  0.0000
SPC            2    5903    1456  0.0000
SPC            2    5904    1456  0.0000
SPC            2    5905    1456  0.0000
SPC            2    5906    1456  0.0000
SPC            2    5907    1456  0.0000
SPC            2    5908    1456  0.0000
SPC            2    5909    1456  0.0000
SPC            2    5910    1456  0.0000
SPC            2    5911    1456  0.0000
SPC            2    5912    1456  0.0000
SPC            2    5913    1456  0.0000
SPC            2    5914    1456  0.0000
SPC            2    5915    1456  0.0000
SPC            2    5916    1456  0.0000
SPC            2    5917    1456  0.0000
SPC            2    5918    1456  0.0000
SPC            2    5919    1456  0.0000
SPC            2    5920    1456  0.0000
SPC            2    5921    1456  0.0000
SPC            2    5922    1456  0.0000
SPC            2    5923    1456  0.0000
SPC            2    5924    1456  0.0000
SPC            2    5925    1456  0.0000
SPC            2    5926    1456  0.0000
SPC            2    5927    1456  0.0000
SPC            2    5928    1456  0.0000
SPC            2    5929    1456  0.0000
SPC            2    5930    1456  0.0000
SPC            2    5931    1456  0.0000
SPC            2    5932    1456  0.0000
SPC            2    5933    1456  0.0000
SPC            2    5934    1456  0.0000
SPC            2    5935    1456  0.0000
SPC            2    5936    1456  0.0000
SPC            2    5937    1456  0.0000
SPC            2    5938    1456  0.0000
SPC            2    5939    1456  0.0000
SPC            2    5940    1456  0.0000
SPC            2    5941    1456  0.0000
SPC            2    5942    1456  0.0000
SPC            2    5943    1456  0.0000
SPC            2    5944    1456  0.0000
SPC            2    5945    1456  0.0000
SPC            2    5946    1456  0.0000
SPC            2    5947    1456  0.0000
SPC            2    5948    1456  0.0000
SPC            2    5949    1456  0.0000
SPC            2    5950    1456  0.0000
SPC            2    5951    1456  0.0000
SPC            2    5952    1456  0.0000
SPC            2    5953    1456  0.0000
SPC            2    5954    1456  0.0000
SPC            2    5955    1456  0.0000
SPC            2    5956    1456  0.0000
SPC            2    5957    1456  0.0000
SPC            2    5958    1456  0.0000
SPC            2    5959    1456  0.0000
SPC            2    5960    1456  0.0000
SPC            2    5961    1456  0.0000
SPC            2    5962    1456  0.0000
SPC            2    5963    1456  0.0000
SPC            2    5964    1456  0.0000
SPC            2    5965    1456  0.0000
SPC            2    5966    1456  0.0000
SPC            2    5967    1456  0.0000
SPC            2    5968    1456  0.0000
SPC            2    5969    1456  0.0000
SPC            2    5970    1456  0.0000
SPC            2    5971    1456  0.0000
SPC            2    5972    1456  0.0000
SPC            2    5973    1456  0.0000
SPC            2    6116    1456  0.0000
SPC            2    6117    1456  0.0000
SPC            2    6118    1456  0.0000
SPC            2    6119    1456  0.0000
SPC            2    6120    1456  0.0000
SPC            2    6121    1456  0.0000
SPC            2    6122    1456  0.0000
SPC            2    6123    1456  0.0000
SPC            2    6124    1456  0.0000
SPC            2    6125    1456  0.0000
SPC            2    6126    1456  0.0000
SPC            2    6127    1456  0.0000
SPC            2    6128    1456  0.0000
SPC            2    6129    1456  0.0000
SPC            2    6130    1456  0.0000
SPC            2    6131    1456  0.0000
SPC            2    6132    1456  0.0000
SPC            2    6133    1456  0.0000
SPC            2    6134    1456  0.0000
SPC            2    6135    1456  0.0000
SPC            2    6136    1456  0.0000
SPC            2    6137    1456  0.0000
SPC            2    6138    1456  0.0000
SPC            2    6139    1456  0.0000
SPC            2    6140    1456  0.0000
SPC            2    6141    1456  0.0000
SPC            2    6142    1456  0.0000
SPC            2    6143    1456  0.0000
SPC            2    6144    1456  0.0000
SPC            2   12270    1456  0.0000
SPC            2   12271    1456  0.0000
SPC            2   12272    1456  0.0000
SPC            2   12273    1456  0.0000
SPC            2   12274    1456  0.0000
SPC            2   12275    1456  0.0000
SPC            2   12276    1456  0.0000
SPC            2   12277    1456  0.0000
SPC            2   12278    1456  0.0000
SPC            2   12279    1456  0.0000
SPC            2   12280    1456  0.0000
SPC            2   12281    1456  0.0000
SPC            2   12282    1456  0.0000
SPC            2   12283    1456  0.0000
SPC            2   12284    1456  0.0000
SPC            2   12285    1456  0.0000
SPC            2   12286    1456  0.0000
SPC            2   12287    1456  0.0000
SPC            2   12288    1456  0.0000
SPC            2   12289    1456  0.0000
SPC            2   12290    1456  0.0000
SPC            2   12291    1456  0.0000
SPC            2   12292    1456  0.0000
SPC            2   12293    1456  0.0000
SPC            2   12294    1456  0.0000
SPC            2   12295    1456  0.0000
SPC            2   12296    1456  0.0000
SPC            2   12297    1456  0.0000
SPC            2   12352    1456  0.0000
SPC            2   12353    1456  0.0000
SPC            2   12354    1456  0.0000
SPC            2   12355    1456  0.0000
SPC            2   12356    1456  0.0000
SPC            2   12357    1456  0.0000
SPC            2   12358    1456  0.0000
SPC            2   12359    1456  0.0000
SPC            2   12360    1456  0.0000
SPC            2   12361    1456  0.0000
SPC            2   12362    1456  0.0000
SPC            2   12363    1456  0.0000
SPC            2   12364    1456  0.0000
SPC            2   12365    1456  0.0000
SPC            2   12366    1456  0.0000
SPC            2   12367    1456  0.0000
SPC            2   12368    1456  0.0000
SPC            2   12369    1456  0.0000
SPC            2   12370    1456  0.0000
SPC            2   12371    1456  0.0000
SPC            2   12372    1456  0.0000
SPC            2   12373    1456  0.0000
SPC            2   12374    1456  0.0000
SPC            2   12375    1456  0.0000
SPC            2   12376    1456  0.0000
SPC            2   12377    1456  0.0000
SPC            2   12378    1456  0.0000
SPC            2   12379    1456  0.0000
SPC            2   12380    1456  0.0000
SPC            2   12381    1456  0.0000
SPC            2   12382    1456  0.0000
SPC            2   12383    1456  0.0000
SPC            2   12384    1456  0.0000
SPC            2   12385    1456  0.0000
SPC            2   12386    1456  0.0000
SPC            2   12387    1456  0.0000
SPC            2   12388    1456  0.0000
SPC            2   12389    1456  0.0000
SPC            2   12390    1456  0.0000
SPC            2   12391    1456  0.0000
SPC            2   12392    1456  0.0000
SPC            2   12393    1456  0.0000
SPC            2   12394    1456  0.0000
SPC            2   12395    1456  0.0000
SPC            2   12396    1456  0.0000
SPC            2   12397    1456  0.0000
SPC            2   12398    1456  0.0000
SPC            2   12399    1456  0.0000
SPC            2   12400    1456  0.0000
SPC            2   12401    1456  0.0000
SPC            2   12402    1456  0.0000
SPC            2   12403    1456  0.0000
SPC            2   12404    1456  0.0000
SPC            2   12405    1456  0.0000
SPC            2   12550    1456  0.0000
SPC            2   12551    1456  0.0000
SPCADD       100       1       2
$*  Load: Force(1)
FORCE          3    8408       01.6879+61.000000  0.0000  0.0000
FORCE          3    8409       01.6471+61.000000  0.0000  0.0000
FORCE          3    8410       01.8991+61.000000  0.0000  0.0000
FORCE          3    8411       01.7508+61.000000  0.0000  0.0000
FORCE          3    8412       01.6920+61.000000  0.0000  0.0000
FORCE          3    8413       01.6838+61.000000  0.0000  0.0000
FORCE          3    8414       01.6471+61.000000  0.0000  0.0000
FORCE          3    8415       01.6610+61.000000  0.0000  0.0000
FORCE          3    8416       01.6879+61.000000  0.0000  0.0000
FORCE          3    8417       01.6768+61.000000  0.0000  0.0000
FORCE          3    8418       01.6722+61.000000  0.0000  0.0000
FORCE          3    8419       01.6670+61.000000  0.0000  0.0000
FORCE          3    8420       01.6862+61.000000  0.0000  0.0000
FORCE          3    8421       01.6392+61.000000  0.0000  0.0000
FORCE          3    8422       01.6544+61.000000  0.0000  0.0000
FORCE          3    8423       01.6806+61.000000  0.0000  0.0000
FORCE          3    8424       01.6838+61.000000  0.0000  0.0000
FORCE          3    8425       01.6610+61.000000  0.0000  0.0000
FORCE          3    8426       01.6768+61.000000  0.0000  0.0000
FORCE          3    8427       01.6722+61.000000  0.0000  0.0000
FORCE          3    8428       01.6670+61.000000  0.0000  0.0000
FORCE          3    8429       01.6806+61.000000  0.0000  0.0000
FORCE          3    8430       01.6544+61.000000  0.0000  0.0000
FORCE          3    8431       01.6862+61.000000  0.0000  0.0000
FORCE          3    8432       01.6392+61.000000  0.0000  0.0000
FORCE          3    8433       01.6890+61.000000  0.0000  0.0000
FORCE          3    8434       01.8946+61.000000  0.0000  0.0000
FORCE          3    8435       01.6890+61.000000  0.0000  0.0000
FORCE          3   12312       09.2016+51.000000  0.0000  0.0000
FORCE          3   12313       09.7894+51.000000  0.0000  0.0000
FORCE          3   12314       08.7933+51.000000  0.0000  0.0000
FORCE          3   12315       09.2016+51.000000  0.0000  0.0000
FORCE          3   12316       08.5660+51.000000  0.0000  0.0000
FORCE          3   12317       08.5205+51.000000  0.0000  0.0000
FORCE          3   12318       08.9749+51.000000  0.0000  0.0000
FORCE          3   12319       08.6569+51.000000  0.0000  0.0000
FORCE          3   12320       08.7933+51.000000  0.0000  0.0000
FORCE          3   12321       08.5660+51.000000  0.0000  0.0000
FORCE          3   12322       08.5205+51.000000  0.0000  0.0000
FORCE          3   12323       08.6569+51.000000  0.0000  0.0000
FORCE          3   12324       08.9749+51.000000  0.0000  0.0000
FORCE          3   12325       09.4732+51.000000  0.0000  0.0000
FORCE          3   12326       09.4732+51.000000  0.0000  0.0000
FORCE          3   12339       07.6779+51.000000  0.0000  0.0000
FORCE          3   12340       07.7186+51.000000  0.0000  0.0000
FORCE          3   12341       08.0443+51.000000  0.0000  0.0000
FORCE          3   12342       07.6779+51.000000  0.0000  0.0000
FORCE          3   12343       08.2016+51.000000  0.0000  0.0000
FORCE          3   12344       07.8872+51.000000  0.0000  0.0000
FORCE          3   12345       08.1492+51.000000  0.0000  0.0000
FORCE          3   12346       08.0443+51.000000  0.0000  0.0000
FORCE          3   12347       08.2016+51.000000  0.0000  0.0000
FORCE          3   12348       08.1492+51.000000  0.0000  0.0000
FORCE          3   12349       07.8872+51.000000  0.0000  0.0000
FORCE          3   12350       07.4168+51.000000  0.0000  0.0000
FORCE          3   12351       07.4168+51.000000  0.0000  0.0000
ENDDATA f444bd7a
