$*$$$$$$$$$$$$$$$$$$$$$$$$$$$$$$$$$$$$$$$$$$$$$$$$$$$$$$$$$$$$$$$$$
$*
$*                    Simcenter v12.0.0.27 Translator
$*                    for NX Nastran version 12.0
$*
$*             FEM FILE: C:\Users\jabbo\OneDrive\Documents\GitHub\Capstone2018\Structures\CAD\Upper Leg_fem1.fem
$*             SIM FILE: C:\Users\jabbo\OneDrive\Documents\GitHub\Capstone2018\Structures\CAD\Upper Leg_sim1.sim
$*        ANALYSIS TYPE: Structural
$*        SOLUTION NAME: Fixed Free leg with buckling
$*        SOLUTION TYPE: SOL 105 Linear Buckling
$*
$*    SOLVER INPUT FILE: upper_leg_sim1-fixed_free_leg_with_buckling.dat
$*        CREATION DATE: 21-Feb-2019
$*        CREATION TIME: 11:40:30
$*             HOSTNAME: Lenovo
$*      NASTRAN LICENSE: Desktop Bundle
$*
$*                UNITS: mm (milli-newton)
$*                      ... LENGTH : mm
$*                      ... TIME   : sec
$*                      ... MASS   : kilogram (kg)
$*                      ... TEMPERATURE : deg Celsius
$*                      ... FORCE  : milli-newton
$*                      ... THERMAL ENERGY : mN-mm (micro-joule)
$*
$* IMPORTANT NOTE:
$*     This banner was generated by Simcenter and altering this 
$*     information may compromise the pre and post processing of results
$*
$*$$$$$$$$$$$$$$$$$$$$$$$$$$$$$$$$$$$$$$$$$$$$$$$$$$$$$$$$$$$$$$$$$
$*
$*$$$$$$$$$$$$$$$$$$$$$$$$$$$$$$$$$$$
$*
$* FILE MANAGEMENT
$*
$*$$$$$$$$$$$$$$$$$$$$$$$$$$$$$$$$$$$
$*
$*
$*$$$$$$$$$$$$$$$$$$$$$$$$$$$$$$$$$$$
$*
$* EXECUTIVE CONTROL
$*
$*$$$$$$$$$$$$$$$$$$$$$$$$$$$$$$$$$$$
$*
ID,NASTRAN,upper_leg_sim1-fixed_free_leg_with_buckling
SOL 105
CEND
$*
$*$$$$$$$$$$$$$$$$$$$$$$$$$$$$$$$$$$$
$*
$* CASE CONTROL
$*
$*$$$$$$$$$$$$$$$$$$$$$$$$$$$$$$$$$$$
$*
ECHO = NONE
SPC = 1
OUTPUT
DISPLACEMENT(PLOT,REAL) = ALL
SPCFORCES(PLOT,REAL) = ALL
STRESS(PLOT,REAL,VONMISES,CENTER) = ALL
$*  Step: Subcase - Buckling Loads
SUBCASE 1
  LABEL = Subcase - Buckling Loads
  LOAD = 2
$*  Step: Subcase - Buckling Method
SUBCASE 2
  LABEL = Subcase - Buckling Method
  METHOD = 102
$*
$*$$$$$$$$$$$$$$$$$$$$$$$$$$$$$$$$$$$
$*
$* BULK DATA
$*
$*$$$$$$$$$$$$$$$$$$$$$$$$$$$$$$$$$$$
$*
BEGIN BULK
$*
$* SOLUTION CARDS
$*
$*  Modeling Object: Real Eigenvalue - Lanczos1
EIGRL        102                      10       0       7            MASS
$*
$* PARAM CARDS
$*
PARAM      K6ROT100.0000
PARAM     OIBULK     YES
PARAM    OMACHPR     YES
PARAM       POST      -2
PARAM    POSTEXT     YES
PARAM    UNITSYS   MN-MM
$*
$* GRID CARDS
$*
GRID*                  1               04.4454026035E+02-1.515786724E+01+
*       -4.010849626E+01               0
GRID*                  2               06.4884076475E+022.9898035980E+01+
*       -3.377827408E+01               0
GRID*                  3               06.4837025817E+021.2324178041E+01+
*       -4.027431798E+01               0
GRID*                  4               06.3736391162E+021.7150110298E+01+
*       -3.726787206E+01               0
GRID*                  5               02.1427466729E+02-2.100998532E+01+
*       -3.625121955E+01               0
GRID*                  6               04.4515524688E+021.2243806696E+01+
*       -3.991115563E+01               0
GRID*                  7               01.4731522082E+021.5092984290E+01+
*       -3.830809364E+01               0
GRID*                  8               03.3518453984E+021.6123876026E+01+
*       -3.785511530E+01               0
GRID*                  9               03.2186678539E+021.8443015087E+00+
*       -4.406289611E+01               0
GRID*                 10               01.1038461538E+03-4.165296029E+01+
*       1.2494177346E+01               0
GRID*                 11               01.0871794872E+03-4.165296029E+01+
*       1.2494177346E+01               0
GRID*                 12               01.0865384524E+03-4.462022374E+01+
*       -4.341099110E+00               0
GRID*                 13               01.0698717858E+03-4.462022374E+01+
*       -4.341099110E+00               0
GRID*                 14               01.0698717858E+03-3.875918741E+01+
*       -1.848461233E+01               0
GRID*                 15               01.0532051191E+03-3.875918741E+01+
*       -1.848461233E+01               0
GRID*                 16               01.1884615415E+033.0210080936E+01+
*       -3.329502134E+01               0
GRID*                 17               01.1717948748E+033.0210080936E+01+
*       -3.329502134E+01               0
GRID*                 18               01.1884615494E+033.8759214966E+01+
*       -1.848440309E+01               0
GRID*                 19               01.1717948827E+033.8759214965E+01+
*       -1.848440309E+01               0
GRID*                 20               01.1717948827E+034.4620251286E+01+
*       -4.340889874E+00               0
GRID*                 21               01.1544871910E+034.4620263363E+01+
*       -4.340798139E+00               0
GRID*                 22               01.1544871795E+034.1652960296E+01+
*       1.2494177344E+01               0
GRID*                 23               01.2057692410E+034.4620238297E+01+
*       -4.340988531E+00               0
GRID*                 24               01.1884615494E+034.4620251286E+01+
*       -4.340889874E+00               0
GRID*                 25               01.1884615385E+034.1652960296E+01+
*       1.2494177344E+01               0
GRID*                 26               01.2737179487E+03-3.579699684E+01+
*       2.6636205583E+01               0
GRID*                 27               01.2737179485E+03-2.269787649E+01+
*       3.7631329347E+01               0
GRID*                 28               01.2564102564E+03-3.579699684E+01+
*       2.6636205583E+01               0
GRID*                 29               01.3756410344E+03-4.461990667E+01+
*       -4.343507491E+00               0
GRID*                 30               01.3756410256E+03-4.165296029E+01+
*       1.2494177347E+01               0
GRID*                 31               01.3583333417E+03-4.461991265E+01+
*       -4.343462076E+00               0
GRID*                 32               01.3756410344E+03-3.875887034E+01+
*       -1.848702071E+01               0
GRID*                 33               01.3583333417E+03-3.875887632E+01+
*       -1.848697530E+01               0
GRID*                 34               01.3583333381E+03-3.020911916E+01+
*       -3.329578320E+01               0
GRID*                 35               01.4775641028E+032.2697927043E+01+
*       3.7631312828E+01               0
GRID*                 36               01.4775641026E+033.5796996840E+01+
*       2.6636205577E+01               0
GRID*                 37               01.4602564105E+032.2697924413E+01+
*       3.7631313687E+01               0
GRID*                 38               01.5115384649E+034.4620113984E+01+
*       -4.341932791E+00               0
GRID*                 39               01.4942307733E+034.4620126288E+01+
*       -4.341839332E+00               0
GRID*                 40               01.4942307692E+034.1652960297E+01+
*       1.2494177342E+01               0
GRID*                 41               01.0358974356E+03-8.553828367E+00+
*       4.3491098636E+01               0
GRID*                 42               01.0358974362E+038.5538481332E+00+
*       4.3491092176E+01               0
GRID*                 43               01.0185897433E+03-8.553829684E+00+
*       4.3491098205E+01               0
GRID*                 44               01.5961538463E+03-2.269797036E+01+
*       3.7631298672E+01               0
GRID*                 45               01.5961538463E+03-8.553933890E+00+
*       4.3491064153E+01               0
GRID*                 46               01.5794871796E+03-2.269797036E+01+
*       3.7631298672E+01               0
GRID*                 47               01.5455128206E+03-2.269797067E+01+
*       3.7631298570E+01               0
GRID*                 48               01.5282051283E+03-2.269796595E+01+
*       3.7631300110E+01               0
GRID*                 49               01.5282051282E+03-3.579699684E+01+
*       2.6636205583E+01               0
GRID*                 50               01.6134615386E+03-2.269796641E+01+
*       3.7631299961E+01               0
GRID*                 51               01.5961538462E+03-3.579699684E+01+
*       2.6636205583E+01               0
GRID*                 52               01.0019230772E+038.5538448564E+00+
*       4.3491093247E+01               0
GRID*                 53               01.0019230772E+032.2697881320E+01+
*       3.7631327768E+01               0
GRID*                 54               09.8525641057E+028.5538448564E+00+
*       4.3491093247E+01               0
GRID*                 55               01.6301282087E+03-3.875896530E+01+
*       -1.848629937E+01               0
GRID*                 56               01.6134615420E+03-3.875896530E+01+
*       -1.848629937E+01               0
GRID*                 57               01.6301282060E+03-3.020959720E+01+
*       -3.329540452E+01               0
GRID*                 58               01.6134615394E+03-3.020959720E+01+
*       -3.329540452E+01               0
GRID*                 59               01.6474358980E+03-1.607067273E+01+
*       -3.915006660E+01               0
GRID*                 60               01.6474358980E+03-3.020963631E+01+
*       -3.329537355E+01               0
GRID*                 61               01.6301282060E+03-1.607063363E+01+
*       -3.915009758E+01               0
GRID*                 62               01.5455128205E+032.4985760239E-15+
*       -4.500000000E+01               0
GRID*                 63               01.5621794872E+032.5439333128E-15+
*       -4.500000000E+01               0
GRID*                 64               01.5455128222E+03-1.607053655E+01+
*       -3.915017448E+01               0
GRID*                 65               01.5621794889E+03-1.607053655E+01+
*       -3.915017448E+01               0
GRID*                 66               08.6602564103E+024.1652960294E+01+
*       1.2494177345E+01               0
GRID*                 67               08.6602565409E+024.4620293734E+01+
*       -4.340567443E+00               0
GRID*                 68               08.4871794872E+024.1652960294E+01+
*       1.2494177346E+01               0
GRID*                 69               01.7153846154E+033.5796996841E+01+
*       2.6636205576E+01               0
GRID*                 70               01.6980769231E+033.5796996841E+01+
*       2.6636205576E+01               0
GRID*                 71               01.6980769232E+032.2697937948E+01+
*       3.7631309264E+01               0
GRID*                 72               09.8525639858E+02-3.875923306E+01+
*       -1.848426559E+01               0
GRID*                 73               01.0019230653E+03-4.462026939E+01+
*       -4.340752376E+00               0
GRID*                 74               09.8461537212E+02-4.462028388E+01+
*       -4.340642317E+00               0
GRID*                 75               09.6794870545E+02-3.875924755E+01+
*       -1.848415554E+01               0
GRID*                 76               09.1666668007E+023.8759263215E+01+
*       -1.848403656E+01               0
GRID*                 77               09.0000001340E+023.8759263214E+01+
*       -1.848403656E+01               0
GRID*                 78               09.0000001340E+024.4620299540E+01+
*       -4.340523345E+00               0
GRID*                 79               01.7147435897E+034.1652960298E+01+
*       1.2494177341E+01               0
GRID*                 80               01.6980769231E+034.1652960298E+01+
*       1.2494177341E+01               0
GRID*                 81               09.6794870545E+02-4.462028388E+01+
*       -4.340642317E+00               0
GRID*                 82               01.7320512825E+034.4620064505E+01+
*       -4.342308623E+00               0
GRID*                 83               01.7153846158E+034.4620064505E+01+
*       -4.342308623E+00               0
GRID*                 84               08.9999999221E+023.0208755731E+01+
*       -3.329607109E+01               0
GRID*                 85               08.8269232075E+023.8759257409E+01+
*       -1.848408066E+01               0
GRID*                 86               03.0576922315E+023.8758891879E+01+
*       -1.848685707E+01               0
GRID*                 87               03.0576922815E+023.0209383397E+01+
*       -3.329557389E+01               0
GRID*                 88               02.8846153632E+023.0209443795E+01+
*       -3.329552604E+01               0
GRID*                 89               01.7320512824E+031.6070791409E+01+
*       -3.914997259E+01               0
GRID*                 90               01.7153846158E+033.0209755014E+01+
*       -3.329527951E+01               0
GRID*                 91               01.7320512824E+033.0209755014E+01+
*       -3.329527951E+01               0
GRID*                 92               01.6980769231E+032.4898534765E-15+
*       -4.500000000E+01               0
GRID*                 93               01.6814102564E+032.4444961876E-15+
*       -4.500000000E+01               0
GRID*                 94               01.6814102564E+031.4138963605E+01+
*       -3.914530692E+01               0
GRID*                 95               09.5128206481E+024.4620300976E+01+
*       -4.340512433E+00               0
GRID*                 96               09.6794873148E+023.8759264652E+01+
*       -1.848402565E+01               0
GRID*                 97               09.5064103919E+023.8759265479E+01+
*       -1.848401937E+01               0
GRID*                 98               09.3397437253E+024.4620301803E+01+
*       -4.340506153E+00               0
GRID*                 99               01.7153846156E+03-1.607072809E+01+
*       -3.915002275E+01               0
GRID*                100               01.6980769234E+03-1.607070447E+01+
*       -3.915004146E+01               0
GRID*                101               04.5833332718E+02-1.607149466E+01+
*       -3.914941552E+01               0
GRID*                102               04.5833332718E+02-3.021045826E+01+
*       -3.329472244E+01               0
GRID*                103               04.5560346351E+02-7.578933618E+00+
*       -4.005424813E+01               0
GRID*                104               04.4727012402E+02-2.365042828E+01+
*       -3.920366365E+01               0
GRID*                105               04.5560346351E+02-2.171789722E+01+
*       -3.419955505E+01               0
GRID*                106               09.3397437253E+023.8759265478E+01+
*       -1.848401937E+01               0
GRID*                107               04.5833333333E+022.9312147142E-15+
*       -4.500000000E+01               0
GRID*                108               04.4727013018E+02-7.578933618E+00+
*       -4.505424813E+01               0
GRID*                109               04.7564102564E+022.8723374662E-15+
*       -4.500000000E+01               0
GRID*                110               04.9230769231E+022.9176947551E-15+
*       -4.500000000E+01               0
GRID*                111               04.7564101953E+02-1.607148983E+01+
*       -3.914941934E+01               0
GRID*                112               04.9230768620E+02-1.607148983E+01+
*       -3.914941934E+01               0
GRID*                113               05.2628205128E+022.9041747960E-15+
*       -4.500000000E+01               0
GRID*                114               05.0961538462E+022.8588175072E-15+
*       -4.500000000E+01               0
GRID*                115               05.0961537878E+021.6070023398E+01+
*       -3.915058097E+01               0
GRID*                116               05.2628204545E+021.6070023398E+01+
*       -3.915058097E+01               0
GRID*                117               05.7756410256E+022.8317775890E-15+
*       -4.500000000E+01               0
GRID*                118               05.9423076923E+022.8771348779E-15+
*       -4.500000000E+01               0
GRID*                119               05.7756409825E+02-1.607127394E+01+
*       -3.914959036E+01               0
GRID*                120               05.9423076491E+02-1.607127394E+01+
*       -3.914959036E+01               0
GRID*                121               05.7756409574E+021.6069902518E+01+
*       -3.915067672E+01               0
GRID*                122               05.6025641026E+022.8906548370E-15+
*       -4.500000000E+01               0
GRID*                123               05.6025640391E+021.6069960969E+01+
*       -3.915063042E+01               0
GRID*                124               01.1544871910E+033.8759227042E+01+
*       -1.848431135E+01               0
GRID*                125               01.1378205244E+034.4620263362E+01+
*       -4.340798139E+00               0
GRID*                126               01.1884615363E+03-4.462009976E+01+
*       -4.342040820E+00               0
GRID*                127               01.1717948696E+03-3.875906343E+01+
*       -1.848555404E+01               0
GRID*                128               01.1884615457E+03-3.606984920E+01+
*       -1.915251261E+01               0
GRID*                129               01.1717948791E+03-3.020881287E+01+
*       -3.329602583E+01               0
GRID*                130               01.1544871808E+033.0209872475E+01+
*       -3.329518647E+01               0
GRID*                131               01.1378205141E+033.0209872475E+01+
*       -3.329518647E+01               0
GRID*                132               01.1378205244E+033.8759227041E+01+
*       -1.848431135E+01               0
GRID*                133               01.2224358986E+03-4.462004020E+01+
*       -4.342493255E+00               0
GRID*                134               01.2057692319E+03-3.875900387E+01+
*       -1.848600648E+01               0
GRID*                135               01.2224359043E+03-3.606990244E+01+
*       -1.915247044E+01               0
GRID*                136               01.2057692376E+03-3.020886611E+01+
*       -3.329598366E+01               0
GRID*                137               01.2057692319E+03-4.462004020E+01+
*       -4.342493255E+00               0
GRID*                138               01.0192307532E+024.4620036227E+01+
*       -4.342523426E+00               0
GRID*                139               01.0192307532E+023.8758999885E+01+
*       -1.848603665E+01               0
GRID*                140               08.4615383784E+014.4620049092E+01+
*       -4.342425705E+00               0
GRID*                141               08.4615383784E+013.8759012750E+01+
*       -1.848593893E+01               0
GRID*                142               05.0641025364E+014.4620057578E+01+
*       -4.342361247E+00               0
GRID*                143               05.0641025364E+013.8759021236E+01+
*       -1.848587448E+01               0
GRID*                144               03.3974358697E+014.4620057578E+01+
*       -4.342361247E+00               0
GRID*                145               01.5256410196E+023.0209636306E+01+
*       -3.329537355E+01               0
GRID*                146               01.3589743529E+023.0209636305E+01+
*       -3.329537355E+01               0
GRID*                147               01.5256410002E+023.8758983707E+01+
*       -1.848615954E+01               0
GRID*                148               01.3589743335E+023.8758983706E+01+
*       -1.848615955E+01               0
GRID*                149               01.7660256411E+03-2.269794143E+01+
*       3.7631308126E+01               0
GRID*                150               01.7660256411E+03-8.553904960E+00+
*       4.3491073607E+01               0
GRID*                151               01.7493589744E+03-2.269794143E+01+
*       3.7631308126E+01               0
GRID*                152               08.4615384536E+018.5539099281E+00+
*       4.3491071983E+01               0
GRID*                153               08.4615384536E+012.2697946393E+01+
*       3.7631306502E+01               0
GRID*                154               06.7948717869E+018.5539099281E+00+
*       4.3491071983E+01               0
GRID*                155               01.3589743335E+024.4620020048E+01+
*       -4.342646317E+00               0
GRID*                156               01.1858974198E+024.4620036227E+01+
*       -4.342523426E+00               0
GRID*                157               01.1858974198E+023.8758999885E+01+
*       -1.848603665E+01               0
GRID*                158               01.3589743590E+024.1652960292E+01+
*       1.2494177347E+01               0
GRID*                159               01.1858974359E+024.1652960292E+01+
*       1.2494177347E+01               0
GRID*                160               01.4096153846E+032.5526558602E-15+
*       -4.500000000E+01               0
GRID*                161               01.4262820513E+03-1.413896358E+01+
*       -3.914530694E+01               0
GRID*                162               01.4096153883E+03-1.607029036E+01+
*       -3.915036949E+01               0
GRID*                163               01.4262820549E+03-3.020925395E+01+
*       -3.329567643E+01               0
GRID*                164               03.5641025642E+022.2697935933E+01+
*       3.7631309921E+01               0
GRID*                165               03.3974358975E+022.2697935933E+01+
*       3.7631309921E+01               0
GRID*                166               03.3974358975E+028.5538994679E+00+
*       4.3491075401E+01               0
GRID*                167               06.4108704904E+022.9087981578E+01+
*       -3.103444398E+01               0
GRID*                168               06.4860551146E+022.1111107010E+01+
*       -3.702629603E+01               0
GRID*                169               06.4085179575E+022.0301052609E+01+
*       -3.428246593E+01               0
GRID*                170               06.3534862248E+022.2714018737E+01+
*       -3.277924297E+01               0
GRID*                171               06.4310233819E+022.3524073139E+01+
*       -3.552307307E+01               0
GRID*                172               06.4286708490E+021.4737144169E+01+
*       -3.877109502E+01               0
GRID*                173               03.2243589738E+028.5539183276E+00+
*       4.3491069238E+01               0
GRID*                174               03.2243589738E+022.2697954793E+01+
*       3.7631303758E+01               0
GRID*                175               03.0576923072E+028.5539183276E+00+
*       4.3491069238E+01               0
GRID*                176               03.2243589721E+02-8.553890580E+00+
*       4.3491078306E+01               0
GRID*                177               03.0576923054E+02-8.553890580E+00+
*       4.3491078306E+01               0
GRID*                178               01.4262820513E+032.5980131491E-15+
*       -4.500000000E+01               0
GRID*                179               03.9038461546E+028.5538808900E+00+
*       4.3491081472E+01               0
GRID*                180               03.9038461546E+022.2697917355E+01+
*       3.7631315992E+01               0
GRID*                181               03.7371794879E+028.5538808900E+00+
*       4.3491081472E+01               0
GRID*                182               05.6025641026E+023.5796996838E+01+
*       2.6636205583E+01               0
GRID*                183               05.4358974359E+023.5796996838E+01+
*       2.6636205583E+01               0
GRID*                184               05.6025641049E+022.2697871580E+01+
*       3.7631330951E+01               0
GRID*                185               05.4358974382E+022.2697871580E+01+
*       3.7631330951E+01               0
GRID*                186               05.2628205149E+028.5538400210E+00+
*       4.3491094827E+01               0
GRID*                187               05.0961538483E+028.5538400210E+00+
*       4.3491094827E+01               0
GRID*                188               05.2628205100E+02-8.553872446E+00+
*       4.3491084231E+01               0
GRID*                189               05.0961538433E+02-8.553872446E+00+
*       4.3491084231E+01               0
GRID*                190               05.4358974330E+02-2.269790548E+01+
*       3.7631319873E+01               0
GRID*                191               05.4358974330E+02-8.553869019E+00+
*       4.3491085352E+01               0
GRID*                192               05.2628205100E+02-2.269790891E+01+
*       3.7631318753E+01               0
GRID*                193               05.6025641049E+028.5538351154E+00+
*       4.3491096430E+01               0
GRID*                194               05.4358974382E+028.5538351154E+00+
*       4.3491096430E+01               0
GRID*                195               05.6025640996E+02-8.553869019E+00+
*       4.3491085352E+01               0
GRID*                196               07.4743589744E+02-3.579699684E+01+
*       2.6636205580E+01               0
GRID*                197               07.4743589712E+02-2.269788460E+01+
*       3.7631326698E+01               0
GRID*                198               07.3012820513E+02-3.579699684E+01+
*       2.6636205580E+01               0
GRID*                199               01.2224358972E+03-2.269786807E+01+
*       3.7631332098E+01               0
GRID*                200               01.2224358972E+03-8.553831605E+00+
*       4.3491097577E+01               0
GRID*                201               01.2057692305E+03-2.269786807E+01+
*       3.7631332098E+01               0
GRID*                202               01.2057692305E+03-8.553831605E+00+
*       4.3491097577E+01               0
GRID*                203               07.4743589712E+02-8.553848133E+00+
*       4.3491092176E+01               0
GRID*                204               07.3012820482E+02-2.269788798E+01+
*       3.7631325591E+01               0
GRID*                205               07.3012820482E+02-8.553851519E+00+
*       4.3491091070E+01               0
GRID*                206               07.4743589744E+02-4.165296030E+01+
*       1.2494177344E+01               0
GRID*                207               07.3012820513E+02-4.165296030E+01+
*       1.2494177344E+01               0
GRID*                208               07.3012819249E+02-4.462028380E+01+
*       -4.340642883E+00               0
GRID*                209               09.5128205160E+028.5538417231E+00+
*       4.3491094271E+01               0
GRID*                210               09.6794871827E+022.2697878187E+01+
*       3.7631328792E+01               0
GRID*                211               09.5064102596E+022.2697875235E+01+
*       3.7631329757E+01               0
GRID*                212               09.3397435929E+028.5538387714E+00+
*       4.3491095236E+01               0
GRID*                213               09.3397434591E+02-3.875925741E+01+
*       -1.848408066E+01               0
GRID*                214               09.3397434591E+02-4.462029373E+01+
*       -4.340567443E+00               0
GRID*                215               09.1730767925E+02-3.875925741E+01+
*       -1.848408066E+01               0
GRID*                216               09.3397435897E+02-4.165296029E+01+
*       1.2494177345E+01               0
GRID*                217               09.1730769231E+02-4.165296029E+01+
*       1.2494177345E+01               0
GRID*                218               09.1666665326E+02-4.462029954E+01+
*       -4.340523345E+00               0
GRID*                219               08.9999998660E+02-4.462029954E+01+
*       -4.340523345E+00               0
GRID*                220               01.1211538459E+03-2.269786437E+01+
*       3.7631333307E+01               0
GRID*                221               01.1378205125E+03-8.553827905E+00+
*       4.3491098787E+01               0
GRID*                222               01.1205128202E+03-8.553827382E+00+
*       4.3491098958E+01               0
GRID*                223               01.1038461536E+03-2.269786385E+01+
*       3.7631333478E+01               0
GRID*                224               09.0000000000E+02-4.165296029E+01+
*       1.2494177345E+01               0
GRID*                225               01.1038461536E+03-8.553827382E+00+
*       4.3491098958E+01               0
GRID*                226               09.5064101258E+02-4.462029373E+01+
*       -4.340567443E+00               0
GRID*                227               08.8333333333E+02-4.165296029E+01+
*       1.2494177345E+01               0
GRID*                228               09.0000000000E+02-3.579699684E+01+
*       2.6636205581E+01               0
GRID*                229               08.8269230769E+02-3.579699684E+01+
*       2.6636205581E+01               0
GRID*                230               08.6602564103E+02-4.165296029E+01+
*       1.2494177345E+01               0
GRID*                231               01.0019230769E+032.7148953690E-15+
*       -4.500000000E+01               0
GRID*                232               01.0185897436E+03-1.413896359E+01+
*       -3.914530693E+01               0
GRID*                233               01.0019230854E+03-1.606971080E+01+
*       -3.915082858E+01               0
GRID*                234               01.0185897520E+03-3.020867440E+01+
*       -3.329613552E+01               0
GRID*                235               01.0358974253E+03-3.875921327E+01+
*       -1.848441590E+01               0
GRID*                236               01.0358974443E+03-3.020867980E+01+
*       -3.329613123E+01               0
GRID*                237               07.1346153815E+02-2.269788798E+01+
*       3.7631325592E+01               0
GRID*                238               07.1346153815E+02-8.553851519E+00+
*       4.3491091070E+01               0
GRID*                239               01.0358974443E+03-1.606971621E+01+
*       -3.915082430E+01               0
GRID*                240               01.0525641109E+03-3.020867980E+01+
*       -3.329613123E+01               0
GRID*                241               01.0698718031E+03-3.020869806E+01+
*       -3.329611677E+01               0
GRID*                242               01.2057692308E+031.4138963600E+01+
*       -3.914530693E+01               0
GRID*                243               01.2057692308E+032.6337756146E-15+
*       -4.500000000E+01               0
GRID*                244               01.1884615415E+031.6071117337E+01+
*       -3.914971441E+01               0
GRID*                245               01.1544871808E+031.6070908876E+01+
*       -3.914987954E+01               0
GRID*                246               01.3583333333E+032.6250530672E-15+
*       -4.500000000E+01               0
GRID*                247               01.3416666667E+032.5796957783E-15+
*       -4.500000000E+01               0
GRID*                248               01.3416666667E+031.4138963602E+01+
*       -3.914530693E+01               0
GRID*                249               01.2903846241E+033.8759174157E+01+
*       -1.848471307E+01               0
GRID*                250               01.2737179574E+033.8759174156E+01+
*       -1.848471307E+01               0
GRID*                251               01.2737179574E+034.4620210475E+01+
*       -4.341199861E+00               0
GRID*                252               01.3243589744E+032.6385730263E-15+
*       -4.500000000E+01               0
GRID*                253               01.3243589805E+031.6071489831E+01+
*       -3.914941934E+01               0
GRID*                254               01.3243589805E+033.0210453433E+01+
*       -3.329472627E+01               0
GRID*                255               01.3076923138E+033.0210453433E+01+
*       -3.329472627E+01               0
GRID*                256               01.3243589823E+033.8759159738E+01+
*       -1.848482260E+01               0
GRID*                257               01.3076923156E+033.8759159737E+01+
*       -1.848482260E+01               0
GRID*                258               01.3923076923E+034.1652960297E+01+
*       1.2494177342E+01               0
GRID*                259               01.3756410256E+034.1652960297E+01+
*       1.2494177342E+01               0
GRID*                260               01.3756410256E+033.5796996840E+01+
*       2.6636205578E+01               0
GRID*                261               01.5282051284E+038.5538930085E+00+
*       4.3491077512E+01               0
GRID*                262               01.5282051284E+032.2697929471E+01+
*       3.7631312034E+01               0
GRID*                263               01.5115384618E+038.5538930085E+00+
*       4.3491077512E+01               0
GRID*                264               08.4615384537E+01-2.269793879E+01+
*       3.7631308989E+01               0
GRID*                265               08.4615384537E+01-8.553902327E+00+
*       4.3491074467E+01               0
GRID*                266               06.7948717870E+01-2.269793879E+01+
*       3.7631308989E+01               0
GRID*                267               01.3756410316E+033.0210437623E+01+
*       -3.329473879E+01               0
GRID*                268               01.3583333395E+033.0210458260E+01+
*       -3.329472244E+01               0
GRID*                269               01.3583333405E+033.8759145237E+01+
*       -1.848493275E+01               0
GRID*                270               09.8461539814E+023.8759264653E+01+
*       -1.848402565E+01               0
GRID*                271               09.6794873148E+024.4620300976E+01+
*       -4.340512433E+00               0
GRID*                272               08.3205128173E+02-2.269787819E+01+
*       3.7631328792E+01               0
GRID*                273               08.1538461507E+02-2.269787819E+01+
*       3.7631328792E+01               0
GRID*                274               08.1474358974E+02-3.579699684E+01+
*       2.6636205580E+01               0
GRID*                275               07.9807692308E+02-3.579699684E+01+
*       2.6636205580E+01               0
GRID*                276               06.7948717871E+01-8.553902327E+00+
*       4.3491074467E+01               0
GRID*                277               01.5621794874E+032.2697931679E+01+
*       3.7631311313E+01               0
GRID*                278               01.5621794872E+033.5796996841E+01+
*       2.6636205577E+01               0
GRID*                279               01.5448717951E+032.2697929471E+01+
*       3.7631312034E+01               0
GRID*                280               01.5455128205E+033.5796996841E+01+
*       2.6636205577E+01               0
GRID*                281               01.5282051282E+033.5796996840E+01+
*       2.6636205577E+01               0
GRID*                282               01.5621794874E+038.5538952161E+00+
*       4.3491076791E+01               0
GRID*                283               01.5455128207E+038.5538952161E+00+
*       4.3491076791E+01               0
GRID*                284               01.5794871797E+038.5538971852E+00+
*       4.3491076147E+01               0
GRID*                285               01.5961538463E+032.2697933648E+01+
*       3.7631310669E+01               0
GRID*                286               01.5788461540E+032.2697931679E+01+
*       3.7631311313E+01               0
GRID*                287               01.6666666667E+013.5796996838E+01+
*       2.6636205583E+01               0
GRID*                288               01.6666666667E+014.1652960292E+01+
*       1.2494177347E+01               0
GRID*                289               03.3974358974E+013.5796996838E+01+
*       2.6636205584E+01               0
GRID*                290               03.3974358974E+014.1652960292E+01+
*       1.2494177347E+01               0
GRID*                291               01.6134615385E+033.5796996841E+01+
*       2.6636205576E+01               0
GRID*                292               01.6301282051E+034.1652960298E+01+
*       1.2494177341E+01               0
GRID*                293               01.6128205128E+034.1652960298E+01+
*       1.2494177341E+01               0
GRID*                294               01.5961538462E+033.5796996841E+01+
*       2.6636205577E+01               0
GRID*                295               01.6666666667E+011.6070745486E+01+
*       -3.915001195E+01               0
GRID*                296               01.6666666667E+013.0209709064E+01+
*       -3.329531889E+01               0
GRID*                297               01.7833333333E+038.5539028562E+00+
*       4.3491074310E+01               0
GRID*                298               01.7826923077E+03-8.553904960E+00+
*       4.3491073607E+01               0
GRID*                299               01.7660256411E+031.6070759312E+01+
*       -3.914999802E+01               0
GRID*                300               01.7660256411E+033.0209722917E+01+
*       -3.329530494E+01               0
GRID*                301               01.7826923078E+031.6070759312E+01+
*       -3.914999802E+01               0
GRID*                302               01.5621794889E+03-3.020950013E+01+
*       -3.329548142E+01               0
GRID*                303               01.5455128222E+03-3.020950013E+01+
*       -3.329548142E+01               0
GRID*                304               01.5282051350E+03-3.875890789E+01+
*       -1.848673546E+01               0
GRID*                305               01.5115384683E+03-3.875890789E+01+
*       -1.848673546E+01               0
GRID*                306               01.5282051303E+03-3.020944379E+01+
*       -3.329552604E+01               0
GRID*                307               01.5115384637E+03-3.020944380E+01+
*       -3.329552604E+01               0
GRID*                308               01.6641025641E+033.5796996841E+01+
*       2.6636205576E+01               0
GRID*                309               01.6641025641E+034.1652960298E+01+
*       1.2494177341E+01               0
GRID*                310               01.6474358974E+033.5796996841E+01+
*       2.6636205576E+01               0
GRID*                311               07.4743589774E+028.5538283670E+00+
*       4.3491098636E+01               0
GRID*                312               07.4743589774E+022.2697864831E+01+
*       3.7631333156E+01               0
GRID*                313               07.3012820542E+028.5538275705E+00+
*       4.3491098896E+01               0
GRID*                314               07.3012820542E+022.2697864035E+01+
*       3.7631333417E+01               0
GRID*                315               01.4942307769E+03-3.875889188E+01+
*       -1.848685707E+01               0
GRID*                316               01.4775641102E+03-3.875889188E+01+
*       -1.848685707E+01               0
GRID*                317               01.4942307719E+03-3.020938340E+01+
*       -3.329557389E+01               0
GRID*                318               01.4775641052E+03-3.020938340E+01+
*       -3.329557389E+01               0
GRID*                319               01.4435897467E+03-3.020931981E+01+
*       -3.329562426E+01               0
GRID*                320               01.6467948718E+034.1652960298E+01+
*       1.2494177341E+01               0
GRID*                321               01.6301282051E+033.5796996841E+01+
*       2.6636205576E+01               0
GRID*                322               01.5282051283E+03-8.553929489E+00+
*       4.3491065591E+01               0
GRID*                323               01.5115384616E+03-8.553929489E+00+
*       4.3491065591E+01               0
GRID*                324               01.5115384616E+03-2.269796595E+01+
*       3.7631300110E+01               0
GRID*                325               02.3782051008E+02-4.462010260E+01+
*       -4.342019279E+00               0
GRID*                326               02.3782051282E+02-4.165296030E+01+
*       1.2494177341E+01               0
GRID*                327               02.2051282051E+02-4.165296030E+01+
*       1.2494177341E+01               0
GRID*                328               02.7179486841E+02-3.875907767E+01+
*       -1.848544600E+01               0
GRID*                329               02.7179486841E+02-4.462011398E+01+
*       -4.341932791E+00               0
GRID*                330               02.5448717674E+02-3.875906628E+01+
*       -1.848553249E+01               0
GRID*                331               02.5448717674E+02-4.462010260E+01+
*       -4.342019279E+00               0
GRID*                332               01.6987179487E+024.1652960292E+01+
*       1.2494177347E+01               0
GRID*                333               01.6987179128E+024.4620001640E+01+
*       -4.342786139E+00               0
GRID*                334               01.5256410002E+024.4620020048E+01+
*       -4.342646317E+00               0
GRID*                335               01.1884615385E+03-1.413896359E+01+
*       -3.914530694E+01               0
GRID*                336               01.1884615457E+03-3.020881287E+01+
*       -3.329602583E+01               0
GRID*                337               03.0576923077E+02-3.579699684E+01+
*       2.6636205577E+01               0
GRID*                338               03.0576923054E+02-2.269792704E+01+
*       3.7631312828E+01               0
GRID*                339               02.8846153825E+02-2.269792947E+01+
*       3.7631312034E+01               0
GRID*                340               06.4551281919E+02-3.020987248E+01+
*       -3.329518647E+01               0
GRID*                341               06.4551280896E+02-3.875922704E+01+
*       -1.848431135E+01               0
GRID*                342               06.2820512518E+02-3.021008094E+01+
*       -3.329502134E+01               0
GRID*                343               06.9615384615E+02-4.165296030E+01+
*       1.2494177344E+01               0
GRID*                344               06.9615384615E+02-3.579699684E+01+
*       2.6636205580E+01               0
GRID*                345               06.7948717949E+02-4.165296030E+01+
*       1.2494177344E+01               0
GRID*                346               03.7371794316E+02-4.462015303E+01+
*       -4.341636176E+00               0
GRID*                347               03.5641025641E+02-4.165296030E+01+
*       1.2494177342E+01               0
GRID*                348               03.5641025160E+02-4.462013936E+01+
*       -4.341740063E+00               0
GRID*                349               06.7948717949E+02-3.579699684E+01+
*       2.6636205580E+01               0
GRID*                350               06.2820512821E+02-1.413896360E+01+
*       -3.914530693E+01               0
GRID*                351               06.2820512821E+022.8636149188E-15+
*       -4.500000000E+01               0
GRID*                352               06.4551281919E+02-1.607090888E+01+
*       -3.914987954E+01               0
GRID*                353               03.7371794316E+02-3.875911672E+01+
*       -1.848514939E+01               0
GRID*                354               03.5641025160E+02-3.875910304E+01+
*       -1.848525327E+01               0
GRID*                355               03.7371794305E+02-3.021039606E+01+
*       -3.329477171E+01               0
GRID*                356               04.4166666682E+028.5538552616E+00+
*       4.3491089847E+01               0
GRID*                357               04.4166666682E+022.2697891726E+01+
*       3.7631324367E+01               0
GRID*                358               04.2435897448E+028.5538664648E+00+
*       4.3491086186E+01               0
GRID*                359               04.2435897448E+022.2697902929E+01+
*       3.7631320706E+01               0
GRID*                360               05.0961538433E+02-2.269790891E+01+
*       3.7631318753E+01               0
GRID*                361               05.2628205128E+02-3.579699684E+01+
*       2.6636205579E+01               0
GRID*                362               05.0961538462E+02-3.579699684E+01+
*       2.6636205579E+01               0
GRID*                363               06.1153845851E+02-1.607111734E+01+
*       -3.914971441E+01               0
GRID*                364               06.1153845851E+02-3.021008094E+01+
*       -3.329502134E+01               0
GRID*                365               05.9423076491E+02-3.021023754E+01+
*       -3.329489728E+01               0
GRID*                366               06.7948718029E+02-3.020961360E+01+
*       -3.329539153E+01               0
GRID*                367               06.7948716735E+02-3.875923797E+01+
*       -1.848422837E+01               0
GRID*                368               06.6217948586E+02-3.020987247E+01+
*       -3.329518647E+01               0
GRID*                369               06.1153845063E+02-3.875921497E+01+
*       -1.848440309E+01               0
GRID*                370               05.6025641026E+02-4.165296030E+01+
*       1.2494177343E+01               0
GRID*                371               05.4358974359E+02-4.165296030E+01+
*       1.2494177343E+01               0
GRID*                372               05.6025640079E+02-4.462022462E+01+
*       -4.341092399E+00               0
GRID*                373               05.4358973412E+02-4.462022462E+01+
*       -4.341092398E+00               0
GRID*                374               09.3397435897E+023.5796996839E+01+
*       2.6636205581E+01               0
GRID*                375               09.3397435897E+024.1652960295E+01+
*       1.2494177345E+01               0
GRID*                376               09.1730769231E+023.5796996839E+01+
*       2.6636205581E+01               0
GRID*                377               01.4602564103E+032.5844931900E-15+
*       -4.500000000E+01               0
GRID*                378               01.4435897436E+032.5391359011E-15+
*       -4.500000000E+01               0
GRID*                379               01.4435897436E+031.4138963603E+01+
*       -3.914530692E+01               0
GRID*                380               04.2435897436E+023.5796996838E+01+
*       2.6636205583E+01               0
GRID*                381               04.2435897436E+024.1652960293E+01+
*       1.2494177347E+01               0
GRID*                382               04.0769230769E+023.5796996838E+01+
*       2.6636205583E+01               0
GRID*                383               04.0769230769E+024.1652960293E+01+
*       1.2494177347E+01               0
GRID*                384               06.9615384615E+024.1652960294E+01+
*       1.2494177346E+01               0
GRID*                385               06.7948717949E+024.1652960294E+01+
*       1.2494177346E+01               0
GRID*                386               06.7948717949E+023.5796996838E+01+
*       2.6636205582E+01               0
GRID*                387               05.6025641026E+02-3.579699684E+01+
*       2.6636205579E+01               0
GRID*                388               05.4358974359E+02-3.579699684E+01+
*       2.6636205579E+01               0
GRID*                389               02.2051281791E+02-3.021002183E+01+
*       -3.329506816E+01               0
GRID*                390               02.0384615124E+02-3.021002183E+01+
*       -3.329506816E+01               0
GRID*                391               02.2380400031E+02-2.464395627E+01+
*       -3.227091670E+01               0
GRID*                392               02.1098348489E+02-2.657605089E+01+
*       -3.727537101E+01               0
GRID*                393               02.0713733365E+02-2.464395627E+01+
*       -3.227091670E+01               0
GRID*                394               07.1346153846E+023.5796996839E+01+
*       2.6636205582E+01               0
GRID*                395               07.1346153846E+024.1652960294E+01+
*       1.2494177346E+01               0
GRID*                396               06.9615384615E+023.5796996838E+01+
*       2.6636205582E+01               0
GRID*                397               05.2628205128E+02-4.165296030E+01+
*       1.2494177343E+01               0
GRID*                398               05.2628204258E+02-4.462021048E+01+
*       -4.341199861E+00               0
GRID*                399               06.7948717977E+028.5538273819E+00+
*       4.3491098958E+01               0
GRID*                400               06.7948717977E+022.2697863846E+01+
*       3.7631333478E+01               0
GRID*                401               06.6217948746E+028.5538279049E+00+
*       4.3491098787E+01               0
GRID*                402               06.6217948746E+022.2697864369E+01+
*       3.7631333307E+01               0
GRID*                403               06.9615384644E+022.2697863846E+01+
*       3.7631333478E+01               0
GRID*                404               08.6602564071E+02-2.269787523E+01+
*       3.7631329757E+01               0
GRID*                405               08.4935897404E+02-2.269787523E+01+
*       3.7631329757E+01               0
GRID*                406               08.4871794872E+02-3.579699684E+01+
*       2.6636205581E+01               0
GRID*                407               08.3205128205E+02-3.579699684E+01+
*       2.6636205581E+01               0
GRID*                408               08.8333333302E+02-2.269787251E+01+
*       3.7631330648E+01               0
GRID*                409               08.6602564103E+02-3.579699684E+01+
*       2.6636205581E+01               0
GRID*                410               09.5128205964E+02-1.606972019E+01+
*       -3.915082115E+01               0
GRID*                411               09.6794872631E+02-1.606972019E+01+
*       -3.915082115E+01               0
GRID*                412               09.6794872631E+02-3.020868378E+01+
*       -3.329612808E+01               0
GRID*                413               09.0000000000E+022.7554552463E-15+
*       -4.500000000E+01               0
GRID*                414               09.1666666667E+022.8008125351E-15+
*       -4.500000000E+01               0
GRID*                415               09.1730770046E+02-1.606974650E+01+
*       -3.915080030E+01               0
GRID*                416               09.3397436713E+02-1.606974650E+01+
*       -3.915080030E+01               0
GRID*                417               04.0769230781E+028.5538664648E+00+
*       4.3491086186E+01               0
GRID*                418               01.0185897436E+033.5796996839E+01+
*       2.6636205580E+01               0
GRID*                419               01.0019230769E+033.5796996839E+01+
*       2.6636205580E+01               0
GRID*                420               01.0185897439E+032.2697881320E+01+
*       3.7631327769E+01               0
GRID*                421               01.0358974362E+032.2697884597E+01+
*       3.7631326698E+01               0
GRID*                422               01.0358974359E+033.5796996839E+01+
*       2.6636205580E+01               0
GRID*                423               01.6980769239E+031.6070840805E+01+
*       -3.914993346E+01               0
GRID*                424               01.6814102572E+033.0209804409E+01+
*       -3.329524038E+01               0
GRID*                425               01.6980769239E+033.0209804410E+01+
*       -3.329524038E+01               0
GRID*                426               09.6794871827E+028.5538417231E+00+
*       4.3491094271E+01               0
GRID*                427               09.5064102533E+02-8.553833583E+00+
*       4.3491096931E+01               0
GRID*                428               09.3397435866E+02-8.553833583E+00+
*       4.3491096931E+01               0
GRID*                429               04.4166666667E+023.5796996838E+01+
*       2.6636205583E+01               0
GRID*                430               01.1205128326E+033.8759237966E+01+
*       -1.848422837E+01               0
GRID*                431               01.2057692351E+033.0210237540E+01+
*       -3.329489728E+01               0
GRID*                432               01.2057692308E+034.1652960296E+01+
*       1.2494177343E+01               0
GRID*                433               03.9038461513E+02-8.553885137E+00+
*       4.3491080084E+01               0
GRID*                434               03.7371794847E+02-8.553885137E+00+
*       4.3491080084E+01               0
GRID*                435               01.5961538488E+031.6071058226E+01+
*       -3.914976123E+01               0
GRID*                436               01.5794871821E+033.0210021830E+01+
*       -3.329506816E+01               0
GRID*                437               01.5961538488E+033.0210021830E+01+
*       -3.329506816E+01               0
GRID*                438               01.1038461538E+034.1652960296E+01+
*       1.2494177344E+01               0
GRID*                439               01.1038461660E+034.4620274287E+01+
*       -4.340715156E+00               0
GRID*                440               01.0865384615E+034.1652960295E+01+
*       1.2494177344E+01               0
GRID*                441               01.1884615385E+032.6926528626E-15+
*       -4.500000000E+01               0
GRID*                442               01.1717948718E+031.4138963599E+01+
*       -3.914530693E+01               0
GRID*                443               01.1378205128E+031.4138963598E+01+
*       -3.914530693E+01               0
GRID*                444               01.1205128197E+033.0209613600E+01+
*       -3.329539153E+01               0
GRID*                445               01.1038461660E+033.8759237966E+01+
*       -1.848422837E+01               0
GRID*                446               01.2737179487E+032.6067356965E-15+
*       -4.500000000E+01               0
GRID*                447               01.2903846154E+032.6520929854E-15+
*       -4.500000000E+01               0
GRID*                448               01.2903846154E+03-1.413896359E+01+
*       -3.914530694E+01               0
GRID*                449               01.1717948718E+032.6472955737E-15+
*       -4.500000000E+01               0
GRID*                450               01.4262820569E+031.6071432458E+01+
*       -3.914946479E+01               0
GRID*                451               01.4096153903E+033.0210396060E+01+
*       -3.329477171E+01               0
GRID*                452               01.4262820569E+033.0210396061E+01+
*       -3.329477171E+01               0
GRID*                453               03.3974358974E+022.9264173025E-15+
*       -4.500000000E+01               0
GRID*                454               03.5641025641E+022.9717745914E-15+
*       -4.500000000E+01               0
GRID*                455               03.3974358455E+02-1.607137433E+01+
*       -3.914951083E+01               0
GRID*                456               03.5641025122E+02-1.607137433E+01+
*       -3.914951083E+01               0
GRID*                457               03.9038460982E+02-3.875911672E+01+
*       -1.848514939E+01               0
GRID*                458               03.9038460972E+02-3.021039606E+01+
*       -3.329477171E+01               0
GRID*                459               01.2737179490E+038.5538724462E+00+
*       4.3491084231E+01               0
GRID*                460               01.2737179490E+032.2697908909E+01+
*       3.7631318753E+01               0
GRID*                461               01.2564102567E+038.5538690187E+00+
*       4.3491085352E+01               0
GRID*                462               01.2564102567E+032.2697905482E+01+
*       3.7631319873E+01               0
GRID*                463               01.2737179487E+033.5796996840E+01+
*       2.6636205579E+01               0
GRID*                464               02.7179487179E+02-3.579699684E+01+
*       2.6636205577E+01               0
GRID*                465               02.7179487158E+02-2.269792947E+01+
*       3.7631312034E+01               0
GRID*                466               02.5448717929E+02-2.269793168E+01+
*       3.7631311313E+01               0
GRID*                467               01.3416666750E+03-3.875887632E+01+
*       -1.848697530E+01               0
GRID*                468               01.3243589818E+03-3.875889116E+01+
*       -1.848686252E+01               0
GRID*                469               01.3243589797E+03-3.020905222E+01+
*       -3.329583623E+01               0
GRID*                470               01.3583333395E+031.6071494658E+01+
*       -3.914941552E+01               0
GRID*                471               01.3416666728E+033.0210458260E+01+
*       -3.329472244E+01               0
GRID*                472               08.4935898160E+02-1.606985975E+01+
*       -3.915071060E+01               0
GRID*                473               08.6602564827E+02-3.020882335E+01+
*       -3.329601753E+01               0
GRID*                474               08.4935898160E+02-3.020882335E+01+
*       -3.329601753E+01               0
GRID*                475               08.6602564827E+02-1.606985975E+01+
*       -3.915071060E+01               0
GRID*                476               01.4262820599E+03-3.875887183E+01+
*       -1.848700940E+01               0
GRID*                477               01.4262820599E+03-4.461990816E+01+
*       -4.343496170E+00               0
GRID*                478               01.4096153933E+03-3.875887183E+01+
*       -1.848700939E+01               0
GRID*                479               01.4435897484E+034.4620139357E+01+
*       -4.341740063E+00               0
GRID*                480               01.4435897488E+033.6071374251E+01+
*       -1.915130455E+01               0
GRID*                481               01.4262820568E+034.4620153034E+01+
*       -4.341636176E+00               0
GRID*                482               01.4942307738E+031.6071303844E+01+
*       -3.914956667E+01               0
GRID*                483               01.4775641072E+033.0210267447E+01+
*       -3.329487359E+01               0
GRID*                484               01.4942307738E+033.0210267447E+01+
*       -3.329487359E+01               0
GRID*                485               01.4602564154E+033.0210337935E+01+
*       -3.329481776E+01               0
GRID*                486               01.4435897488E+033.0210337934E+01+
*       -3.329481776E+01               0
GRID*                487               02.3782051262E+02-8.553895216E+00+
*       4.3491076791E+01               0
GRID*                488               02.3782051270E+028.5539342030E+00+
*       4.3491064051E+01               0
GRID*                489               02.2051282038E+028.5539338904E+00+
*       4.3491064153E+01               0
GRID*                490               07.6410255573E+021.6069716214E+01+
*       -3.915082430E+01               0
GRID*                491               07.4743588906E+023.0208679804E+01+
*       -3.329613123E+01               0
GRID*                492               07.6410255573E+023.0208679805E+01+
*       -3.329613123E+01               0
GRID*                493               01.5256410256E+024.1652960292E+01+
*       1.2494177347E+01               0
GRID*                494               01.4942307693E+03-8.553918328E+00+
*       4.3491069238E+01               0
GRID*                495               01.5115384615E+03-3.579699684E+01+
*       2.6636205583E+01               0
GRID*                496               01.4942307692E+03-3.579699684E+01+
*       2.6636205583E+01               0
GRID*                497               01.5256410256E+023.5796996838E+01+
*       2.6636205583E+01               0
GRID*                498               01.3589743590E+023.5796996838E+01+
*       2.6636205583E+01               0
GRID*                499               01.5256410244E+022.2697960207E+01+
*       3.7631301988E+01               0
GRID*                500               01.3589743577E+022.2697960207E+01+
*       3.7631301988E+01               0
GRID*                501               01.6814102580E+03-3.875899989E+01+
*       -1.848603665E+01               0
GRID*                502               01.6641025666E+03-3.875898371E+01+
*       -1.848615955E+01               0
GRID*                503               01.6641025647E+03-3.020963631E+01+
*       -3.329537355E+01               0
GRID*                504               01.6474359000E+03-3.875898371E+01+
*       -1.848615954E+01               0
GRID*                505               01.7153846154E+03-4.165296029E+01+
*       1.2494177347E+01               0
GRID*                506               01.6980769231E+03-4.165296029E+01+
*       1.2494177347E+01               0
GRID*                507               01.6980769247E+03-4.462003623E+01+
*       -4.342523426E+00               0
GRID*                508               06.6217947953E+021.6069802575E+01+
*       -3.915075589E+01               0
GRID*                509               06.5303127528E+022.2231891596E+01+
*       -3.928791488E+01               0
GRID*                510               06.5751846242E+026.1620890205E+00+
*       -4.013715899E+01               0
GRID*                511               06.5775371571E+021.4949017990E+01+
*       -3.688913704E+01               0
GRID*                512               06.5326652857E+023.1018820565E+01+
*       -3.603989293E+01               0
GRID*                513               04.4166666191E+023.0209119158E+01+
*       -3.329578320E+01               0
GRID*                514               04.5833332858E+021.6070155575E+01+
*       -3.915047626E+01               0
GRID*                515               04.5591095677E+026.1219033480E+00+
*       -3.995557781E+01               0
GRID*                516               04.3924429011E+022.0260866932E+01+
*       -3.410088475E+01               0
GRID*                517               04.4757761869E+022.2192058923E+01+
*       -3.910605408E+01               0
GRID*                518               04.3924429011E+026.1219033480E+00+
*       -3.995557781E+01               0
GRID*                519               01.6980769238E+034.4620069145E+01+
*       -4.342273381E+00               0
GRID*                520               01.6807692308E+034.1652960298E+01+
*       1.2494177341E+01               0
GRID*                521               01.0192307613E+02-3.020980441E+01+
*       -3.329524038E+01               0
GRID*                522               01.0192307618E+02-3.875903283E+01+
*       -1.848578659E+01               0
GRID*                523               08.4615384204E+01-3.875902819E+01+
*       -1.848582183E+01               0
GRID*                524               01.0525640983E+031.6070226839E+01+
*       -3.915041981E+01               0
GRID*                525               01.0358974316E+033.0209190436E+01+
*       -3.329572674E+01               0
GRID*                526               01.0525640983E+033.0209190437E+01+
*       -3.329572674E+01               0
GRID*                527               01.0192307618E+02-4.462006914E+01+
*       -4.342273381E+00               0
GRID*                528               08.4615384204E+01-4.462006451E+01+
*       -4.342308623E+00               0
GRID*                529               01.0698717922E+031.6070417239E+01+
*       -3.915026899E+01               0
GRID*                530               01.0698717949E+032.6878554509E-15+
*       -4.500000000E+01               0
GRID*                531               01.4435897467E+03-1.607035623E+01+
*       -3.915031731E+01               0
GRID*                532               01.4602564134E+03-3.020931981E+01+
*       -3.329562426E+01               0
GRID*                533               01.4602564103E+03-1.413896358E+01+
*       -3.914530694E+01               0
GRID*                534               01.0865384615E+03-1.413896359E+01+
*       -3.914530694E+01               0
GRID*                535               01.0865384615E+032.7332127398E-15+
*       -4.500000000E+01               0
GRID*                536               01.1038461618E+03-1.606976380E+01+
*       -3.915078660E+01               0
GRID*                537               01.1038461618E+03-3.020872739E+01+
*       -3.329609354E+01               0
GRID*                538               06.2820512821E+02-3.579699684E+01+
*       2.6636205579E+01               0
GRID*                539               06.1153846154E+02-3.579699684E+01+
*       2.6636205579E+01               0
GRID*                540               06.1153846154E+02-4.165296030E+01+
*       1.2494177344E+01               0
GRID*                541               06.2820511730E+02-3.875921497E+01+
*       -1.848440309E+01               0
GRID*                542               06.2820511730E+02-4.462025129E+01+
*       -4.340889874E+00               0
GRID*                543               05.7756409825E+02-3.021023754E+01+
*       -3.329489728E+01               0
GRID*                544               01.8653846154E+023.0393743868E-15+
*       -4.500000000E+01               0
GRID*                545               01.6987179487E+022.9940170979E-15+
*       -4.500000000E+01               0
GRID*                546               01.6987179395E+021.6070633625E+01+
*       -3.915009758E+01               0
GRID*                547               01.8653846062E+021.6070633625E+01+
*       -3.915009758E+01               0
GRID*                548               01.2397435897E+031.4138963600E+01+
*       -3.914530693E+01               0
GRID*                549               01.2397435950E+033.0210348179E+01+
*       -3.329480964E+01               0
GRID*                550               01.2224359018E+033.0210237540E+01+
*       -3.329489728E+01               0
GRID*                551               01.6987179395E+023.0209597204E+01+
*       -3.329540452E+01               0
GRID*                552               01.2397435897E+032.6202556556E-15+
*       -4.500000000E+01               0
GRID*                553               01.2224359018E+031.6071273940E+01+
*       -3.914959036E+01               0
GRID*                554               01.0185897436E+032.7602526579E-15+
*       -4.500000000E+01               0
GRID*                555               01.0358974359E+032.7013754100E-15+
*       -4.500000000E+01               0
GRID*                556               06.7948717948E+014.1652960292E+01+
*       1.2494177347E+01               0
GRID*                557               06.7948717118E+014.4620049092E+01+
*       -4.342425705E+00               0
GRID*                558               03.3974358926E+013.0209706381E+01+
*       -3.329531804E+01               0
GRID*                559               03.3974358697E+013.8759021236E+01+
*       -1.848587448E+01               0
GRID*                560               01.6666666667E+013.8759030490E+01+
*       -1.848584010E+01               0
GRID*                561               05.0641025593E+011.6070742804E+01+
*       -3.915001109E+01               0
GRID*                562               05.0641025593E+013.0209706381E+01+
*       -3.329531804E+01               0
GRID*                563               02.5448717949E+023.5796996838E+01+
*       2.6636205583E+01               0
GRID*                564               02.3782051282E+023.5796996838E+01+
*       2.6636205583E+01               0
GRID*                565               02.5448717936E+022.2697970668E+01+
*       3.7631298570E+01               0
GRID*                566               02.3782051270E+022.2697970668E+01+
*       3.7631298570E+01               0
GRID*                567               02.3782051282E+024.1652960292E+01+
*       1.2494177347E+01               0
GRID*                568               02.3782050706E+024.4619962586E+01+
*       -4.343082782E+00               0
GRID*                569               02.2051281583E+024.4619982110E+01+
*       -4.342934488E+00               0
GRID*                570               02.2051282038E+022.2697970356E+01+
*       3.7631298672E+01               0
GRID*                571               04.9230768483E+024.4619927499E+01+
*       -4.343349299E+00               0
GRID*                572               04.7564101816E+024.4619927499E+01+
*       -4.343349299E+00               0
GRID*                573               04.9230769231E+024.1652960293E+01+
*       1.2494177347E+01               0
GRID*                574               04.7564102564E+024.1652960293E+01+
*       1.2494177347E+01               0
GRID*                575               04.5833333349E+028.5538552616E+00+
*       4.3491089847E+01               0
GRID*                576               04.5833333306E+02-8.553879038E+00+
*       4.3491082077E+01               0
GRID*                577               04.4166666640E+02-8.553879038E+00+
*       4.3491082077E+01               0
GRID*                578               03.9038461538E+023.5796996838E+01+
*       2.6636205583E+01               0
GRID*                579               03.9038461538E+024.1652960293E+01+
*       1.2494177347E+01               0
GRID*                580               04.4166666667E+024.1652960293E+01+
*       1.2494177347E+01               0
GRID*                581               04.2435896565E+024.4619906673E+01+
*       -4.343507490E+00               0
GRID*                582               04.4166666640E+02-2.269791550E+01+
*       3.7631316599E+01               0
GRID*                583               04.2435897410E+02-2.269791862E+01+
*       3.7631315579E+01               0
GRID*                584               04.2435897410E+02-8.553882159E+00+
*       4.3491081057E+01               0
GRID*                585               05.7756410256E+02-3.579699684E+01+
*       2.6636205579E+01               0
GRID*                586               05.7756410227E+02-2.269790200E+01+
*       3.7631321012E+01               0
GRID*                587               05.6025640996E+02-2.269790548E+01+
*       3.7631319873E+01               0
GRID*                588               06.6217948687E+02-2.269789495E+01+
*       3.7631323314E+01               0
GRID*                589               06.6217948687E+02-8.553858489E+00+
*       4.3491088792E+01               0
GRID*                590               06.4551282021E+02-2.269789495E+01+
*       3.7631323314E+01               0
GRID*                591               06.6217948718E+02-3.579699684E+01+
*       2.6636205579E+01               0
GRID*                592               06.4551282051E+02-3.579699684E+01+
*       2.6636205580E+01               0
GRID*                593               06.1153846124E+02-2.269789848E+01+
*       3.7631322162E+01               0
GRID*                594               05.9423076893E+02-2.269790200E+01+
*       3.7631321012E+01               0
GRID*                595               04.2435897015E+021.6070223155E+01+
*       -3.915042273E+01               0
GRID*                596               04.2435897015E+023.0209186739E+01+
*       -3.329572967E+01               0
GRID*                597               04.3026992693E+022.2192126503E+01+
*       -3.910600054E+01               0
GRID*                598               01.3589743529E+021.6070672727E+01+
*       -3.915006660E+01               0
GRID*                599               01.4032427708E+027.5464921448E+00+
*       -3.915404682E+01               0
GRID*                600               01.4288837903E+022.3617164872E+01+
*       -3.830411343E+01               0
GRID*                601               01.4032427708E+022.1685455723E+01+
*       -3.329935377E+01               0
GRID*                602               01.3589743590E+023.0075370570E-15+
*       -4.500000000E+01               0
GRID*                603               01.4288837964E+027.5464921448E+00+
*       -4.415404682E+01               0
GRID*                604               06.6217948718E+02-4.165296030E+01+
*       1.2494177344E+01               0
GRID*                605               06.4551282051E+02-4.165296030E+01+
*       1.2494177344E+01               0
GRID*                606               07.8141025641E+02-3.579699684E+01+
*       2.6636205580E+01               0
GRID*                607               07.8141025609E+02-2.269788132E+01+
*       3.7631327769E+01               0
GRID*                608               07.6410256410E+02-3.579699684E+01+
*       2.6636205580E+01               0
GRID*                609               02.2051282051E+023.0258544277E-15+
*       -4.500000000E+01               0
GRID*                610               02.0384615385E+022.9804971388E-15+
*       -4.500000000E+01               0
GRID*                611               02.0384615257E+021.6070587961E+01+
*       -3.915013375E+01               0
GRID*                612               02.2051281923E+021.6070587961E+01+
*       -3.915013375E+01               0
GRID*                613               08.4935897436E+02-4.165296029E+01+
*       1.2494177345E+01               0
GRID*                614               08.4871793519E+02-4.462030098E+01+
*       -4.340512433E+00               0
GRID*                615               08.3205126852E+02-4.462030098E+01+
*       -4.340512433E+00               0
GRID*                616               08.3205128854E+02-3.020891596E+01+
*       -3.329594416E+01               0
GRID*                617               08.3205126852E+02-3.875926465E+01+
*       -1.848402565E+01               0
GRID*                618               08.1474359525E+02-3.020903701E+01+
*       -3.329584828E+01               0
GRID*                619               08.4935896081E+02-3.875926548E+01+
*       -1.848401937E+01               0
GRID*                620               07.8141025641E+02-4.165296030E+01+
*       1.2494177345E+01               0
GRID*                621               07.6410256410E+02-4.165296030E+01+
*       1.2494177344E+01               0
GRID*                622               07.6410255105E+02-4.462029163E+01+
*       -4.340583437E+00               0
GRID*                623               09.1666667446E+02-3.020875573E+01+
*       -3.329607109E+01               0
GRID*                624               09.0000000779E+02-3.020875573E+01+
*       -3.329607109E+01               0
GRID*                625               09.5128203879E+02-3.875924755E+01+
*       -1.848415553E+01               0
GRID*                626               09.3397436713E+02-3.020871010E+01+
*       -3.329610724E+01               0
GRID*                627               05.2628204524E+024.4619952674E+01+
*       -4.343158076E+00               0
GRID*                628               05.2628204524E+023.8758916340E+01+
*       -1.848667130E+01               0
GRID*                629               05.0961537857E+024.4619952674E+01+
*       -4.343158077E+00               0
GRID*                630               09.5064103379E+02-3.020871010E+01+
*       -3.329610724E+01               0
GRID*                631               01.0019230854E+03-3.020867440E+01+
*       -3.329613552E+01               0
GRID*                632               01.0019230653E+03-3.875923306E+01+
*       -1.848426559E+01               0
GRID*                633               09.8461539298E+02-3.020868378E+01+
*       -3.329612809E+01               0
GRID*                634               09.8525641868E+02-1.606971080E+01+
*       -3.915082858E+01               0
GRID*                635               01.0865384742E+033.8759247481E+01+
*       -1.848415610E+01               0
GRID*                636               01.0698718075E+033.8759247480E+01+
*       -1.848415610E+01               0
GRID*                637               01.0698718075E+034.4620283802E+01+
*       -4.340642883E+00               0
GRID*                638               01.1038461530E+033.0209613600E+01+
*       -3.329539153E+01               0
GRID*                639               01.0865384588E+033.0209380837E+01+
*       -3.329557592E+01               0
GRID*                640               01.0525641026E+032.7467326989E-15+
*       -4.500000000E+01               0
GRID*                641               01.0525641026E+03-1.413896359E+01+
*       -3.914530693E+01               0
GRID*                642               08.9999998660E+02-3.875926321E+01+
*       -1.848403656E+01               0
GRID*                643               08.8333331993E+02-3.875926321E+01+
*       -1.848403656E+01               0
GRID*                644               01.0525641156E+034.4620291628E+01+
*       -4.340583437E+00               0
GRID*                645               01.0525641156E+033.8759255306E+01+
*       -1.848409665E+01               0
GRID*                646               01.0358974490E+034.4620291628E+01+
*       -4.340583437E+00               0
GRID*                647               01.2737179487E+034.1652960296E+01+
*       1.2494177343E+01               0
GRID*                648               01.2564102564E+034.1652960296E+01+
*       1.2494177343E+01               0
GRID*                649               01.0358974490E+033.8759255305E+01+
*       -1.848409665E+01               0
GRID*                650               01.2564102564E+033.5796996840E+01+
*       2.6636205579E+01               0
GRID*                651               01.2397435897E+033.5796996840E+01+
*       2.6636205579E+01               0
GRID*                652               01.2564102564E+032.6656129444E-15+
*       -4.500000000E+01               0
GRID*                653               01.2564102616E+031.6071384579E+01+
*       -3.914950271E+01               0
GRID*                654               01.2903846241E+034.4620210475E+01+
*       -4.341199861E+00               0
GRID*                655               01.2903846154E+034.1652960296E+01+
*       1.2494177343E+01               0
GRID*                656               01.2737179545E+033.0210418397E+01+
*       -3.329475402E+01               0
GRID*                657               01.2564102659E+033.8759188304E+01+
*       -1.848460561E+01               0
GRID*                658               01.4775641026E+034.1652960297E+01+
*       1.2494177342E+01               0
GRID*                659               01.2564102659E+034.4620224623E+01+
*       -4.341092398E+00               0
GRID*                660               01.2397435992E+034.4620224623E+01+
*       -4.341092399E+00               0
GRID*                661               01.4942307692E+033.5796996840E+01+
*       2.6636205577E+01               0
GRID*                662               01.4942307695E+032.2697927043E+01+
*       3.7631312828E+01               0
GRID*                663               01.6301282053E+032.2697935361E+01+
*       3.7631310110E+01               0
GRID*                664               01.6467948719E+03-8.553929947E+00+
*       4.3491065442E+01               0
GRID*                665               01.6301282053E+03-8.553929947E+00+
*       4.3491065442E+01               0
GRID*                666               01.6301282053E+03-2.269796641E+01+
*       3.7631299961E+01               0
GRID*                667               01.6641025642E+03-8.553923742E+00+
*       4.3491067469E+01               0
GRID*                668               01.6641025642E+038.5539003373E+00+
*       4.3491075117E+01               0
GRID*                669               01.6666666667E+014.4620066832E+01+
*       -4.342326868E+00               0
GRID*                670               02.8846153837E+028.5539294894E+00+
*       4.3491065591E+01               0
GRID*                671               02.8846153837E+022.2697965954E+01+
*       3.7631300110E+01               0
GRID*                672               02.7179487170E+028.5539294894E+00+
*       4.3491065591E+01               0
GRID*                673               02.7179487170E+022.2697965954E+01+
*       3.7631300110E+01               0
GRID*                674               01.7660256411E+038.5539028431E+00+
*       4.3491074298E+01               0
GRID*                675               01.7660256411E+032.2697939306E+01+
*       3.7631308821E+01               0
GRID*                676               01.7493589744E+038.5539028431E+00+
*       4.3491074298E+01               0
GRID*                677               01.7833333333E+033.5796996835E+01+
*       2.6636205586E+01               0
GRID*                678               01.7826923077E+034.1652960298E+01+
*       1.2494177340E+01               0
GRID*                679               01.7660256410E+033.5796996840E+01+
*       2.6636205577E+01               0
GRID*                680               01.7826923077E+032.2697939306E+01+
*       3.7631308821E+01               0
GRID*                681               01.6666666667E+01-4.165296029E+01+
*       1.2494177351E+01               0
GRID*                682               01.6666666666E+01-3.579699684E+01+
*       2.6636205586E+01               0
GRID*                683               03.3974358974E+01-4.165296030E+01+
*       1.2494177341E+01               0
GRID*                684               03.3974358974E+01-3.579699684E+01+
*       2.6636205577E+01               0
GRID*                685               01.6814102564E+033.5796996841E+01+
*       2.6636205576E+01               0
GRID*                686               01.0192307692E+02-4.165296030E+01+
*       1.2494177341E+01               0
GRID*                687               01.0192307692E+02-3.579699684E+01+
*       2.6636205576E+01               0
GRID*                688               08.4615384615E+01-4.165296030E+01+
*       1.2494177341E+01               0
GRID*                689               08.4615384615E+01-3.579699684E+01+
*       2.6636205576E+01               0
GRID*                690               01.3243589742E+03-2.269788308E+01+
*       3.7631327194E+01               0
GRID*                691               01.3243589742E+03-8.553846612E+00+
*       4.3491092674E+01               0
GRID*                692               01.3076923075E+03-2.269788308E+01+
*       3.7631327194E+01               0
GRID*                693               01.6666666667E+01-4.462006683E+01+
*       -4.342326864E+00               0
GRID*                694               03.3974358810E+01-4.462006163E+01+
*       -4.342330498E+00               0
GRID*                695               01.3076923075E+03-8.553846612E+00+
*       4.3491092674E+01               0
GRID*                696               01.1858974359E+023.5796996838E+01+
*       2.6636205583E+01               0
GRID*                697               01.6641025642E+032.2697936800E+01+
*       3.7631309639E+01               0
GRID*                698               01.1858974323E+023.0209668051E+01+
*       -3.329534840E+01               0
GRID*                699               01.0192307692E+023.0210570160E-15+
*       -4.500000000E+01               0
GRID*                700               08.4615384615E+013.0799342640E-15+
*       -4.500000000E+01               0
GRID*                701               01.0192307657E+021.6070704474E+01+
*       -3.915004146E+01               0
GRID*                702               01.6807692309E+032.2697936800E+01+
*       3.7631309639E+01               0
GRID*                703               02.0384614917E+023.8758945769E+01+
*       -1.848644772E+01               0
GRID*                704               02.0384615257E+023.0209551540E+01+
*       -3.329544069E+01               0
GRID*                705               01.8653846062E+023.0209597204E+01+
*       -3.329540452E+01               0
GRID*                706               02.5448717936E+028.5539342030E+00+
*       4.3491064051E+01               0
GRID*                707               08.3205127369E+021.6069720187E+01+
*       -3.915082115E+01               0
GRID*                708               08.3205127369E+023.0208683780E+01+
*       -3.329612808E+01               0
GRID*                709               08.4871794036E+021.6069720187E+01+
*       -3.915082115E+01               0
GRID*                710               02.7179487158E+02-8.553893009E+00+
*       4.3491077512E+01               0
GRID*                711               02.5448717929E+02-8.553895216E+00+
*       4.3491076791E+01               0
GRID*                712               03.3974358494E+02-3.875910304E+01+
*       -1.848525327E+01               0
GRID*                713               03.5641025122E+02-3.021033793E+01+
*       -3.329481776E+01               0
GRID*                714               03.3974358455E+02-3.021033793E+01+
*       -3.329481776E+01               0
GRID*                715               06.2820512847E+028.5538292630E+00+
*       4.3491098343E+01               0
GRID*                716               06.2820512847E+022.2697865727E+01+
*       3.7631332863E+01               0
GRID*                717               06.1153846180E+028.5538292630E+00+
*       4.3491098343E+01               0
GRID*                718               01.0192307689E+03-2.269786483E+01+
*       3.7631333156E+01               0
GRID*                719               01.0019230766E+03-2.269786615E+01+
*       3.7631332726E+01               0
GRID*                720               01.0019230766E+03-8.553829684E+00+
*       4.3491098205E+01               0
GRID*                721               04.4166666051E+02-3.021045826E+01+
*       -3.329472244E+01               0
GRID*                722               04.4166665954E+02-3.875914524E+01+
*       -1.848493275E+01               0
GRID*                723               04.2435896802E+02-3.875913084E+01+
*       -1.848504212E+01               0
GRID*                724               01.6641025652E+034.4620075411E+01+
*       -4.342225784E+00               0
GRID*                725               01.6641025652E+033.8759039097E+01+
*       -1.848573899E+01               0
GRID*                726               01.6474358986E+034.4620075411E+01+
*       -4.342225784E+00               0
GRID*                727               04.2435896565E+023.8758870337E+01+
*       -1.848702071E+01               0
GRID*                728               04.0769229898E+024.4619906673E+01+
*       -4.343507491E+00               0
GRID*                729               04.0769229898E+023.8758870337E+01+
*       -1.848702072E+01               0
GRID*                730               05.9423076893E+02-8.553865534E+00+
*       4.3491086490E+01               0
GRID*                731               03.9038461172E+023.0209253948E+01+
*       -3.329567643E+01               0
GRID*                732               03.9038460672E+023.8758871827E+01+
*       -1.848700939E+01               0
GRID*                733               05.7756410227E+02-8.553865534E+00+
*       4.3491086490E+01               0
GRID*                734               01.4602564103E+033.5796996840E+01+
*       2.6636205577E+01               0
GRID*                735               01.4775641072E+033.6071303763E+01+
*       -1.915136038E+01               0
GRID*                736               01.4942307733E+033.8759089972E+01+
*       -1.848535254E+01               0
GRID*                737               01.4775641066E+034.4620126288E+01+
*       -4.341839332E+00               0
GRID*                738               01.6301282053E+038.5538988981E+00+
*       4.3491075588E+01               0
GRID*                739               01.6134615386E+038.5538988981E+00+
*       4.3491075588E+01               0
GRID*                740               01.6128205130E+032.2697933648E+01+
*       3.7631310669E+01               0
GRID*                741               01.5961538463E+038.5538971852E+00+
*       4.3491076147E+01               0
GRID*                742               06.4551282051E+022.8047376709E-15+
*       -4.500000000E+01               0
GRID*                743               06.6217948718E+02-1.413896360E+01+
*       -3.914530693E+01               0
GRID*                744               06.4551280896E+02-4.462026336E+01+
*       -4.340798139E+00               0
GRID*                745               06.2820512821E+02-4.165296030E+01+
*       1.2494177344E+01               0
GRID*                746               07.8141025672E+028.5538296835E+00+
*       4.3491098205E+01               0
GRID*                747               07.8141025672E+022.2697866147E+01+
*       3.7631332726E+01               0
GRID*                748               07.6410256440E+028.5538283670E+00+
*       4.3491098636E+01               0
GRID*                749               07.6410256440E+022.2697864831E+01+
*       3.7631333156E+01               0
GRID*                750               07.3012820513E+023.5796996838E+01+
*       2.6636205582E+01               0
GRID*                751               07.1346154757E+024.4620223739E+01+
*       -4.341099110E+00               0
GRID*                752               06.9615385342E+024.4620190900E+01+
*       -4.341348553E+00               0
GRID*                753               08.6602564134E+028.5538335832E+00+
*       4.3491096931E+01               0
GRID*                754               08.4935897467E+028.5538335832E+00+
*       4.3491096931E+01               0
GRID*                755               08.4871794840E+02-8.553841723E+00+
*       4.3491094271E+01               0
GRID*                756               08.3205128173E+02-8.553841723E+00+
*       4.3491094271E+01               0
GRID*                757               08.8269230769E+022.8143324942E-15+
*       -4.500000000E+01               0
GRID*                758               09.0000000779E+02-1.606979214E+01+
*       -3.915076416E+01               0
GRID*                759               01.5621794899E+034.4620102598E+01+
*       -4.342019279E+00               0
GRID*                760               01.5455128233E+034.4620102598E+01+
*       -4.342019279E+00               0
GRID*                761               01.5448717949E+034.1652960297E+01+
*       1.2494177341E+01               0
GRID*                762               01.5282051282E+034.1652960297E+01+
*       1.2494177341E+01               0
GRID*                763               01.0358974359E+034.1652960295E+01+
*       1.2494177344E+01               0
GRID*                764               01.0185897436E+034.1652960295E+01+
*       1.2494177345E+01               0
GRID*                765               01.0185897569E+034.4620297463E+01+
*       -4.340539117E+00               0
GRID*                766               01.0019230903E+034.4620297463E+01+
*       -4.340539117E+00               0
GRID*                767               01.0019230769E+034.1652960295E+01+
*       1.2494177345E+01               0
GRID*                768               01.0698717949E+034.1652960295E+01+
*       1.2494177344E+01               0
GRID*                769               01.0525641026E+034.1652960295E+01+
*       1.2494177344E+01               0
GRID*                770               08.3205128205E+022.7824951644E-15+
*       -4.500000000E+01               0
GRID*                771               08.1538461538E+022.7371378755E-15+
*       -4.500000000E+01               0
GRID*                772               07.9807691465E+021.6069710805E+01+
*       -3.915082858E+01               0
GRID*                773               08.1474358132E+021.6069710805E+01+
*       -3.915082858E+01               0
GRID*                774               09.8461538493E+022.2697878187E+01+
*       3.7631328792E+01               0
GRID*                775               04.9230769231E+02-4.165296030E+01+
*       1.2494177343E+01               0
GRID*                776               04.9230769231E+02-3.579699684E+01+
*       2.6636205578E+01               0
GRID*                777               04.7564102564E+02-4.165296030E+01+
*       1.2494177343E+01               0
GRID*                778               09.8525641026E+023.5796996839E+01+
*       2.6636205580E+01               0
GRID*                779               01.0525640920E+03-4.462024960E+01+
*       -4.340902682E+00               0
GRID*                780               01.0358974253E+03-4.462024960E+01+
*       -4.340902682E+00               0
GRID*                781               04.7564102564E+02-3.579699684E+01+
*       2.6636205578E+01               0
GRID*                782               01.0192307692E+03-4.165296029E+01+
*       1.2494177346E+01               0
GRID*                783               01.0019230769E+03-4.165296029E+01+
*       1.2494177346E+01               0
GRID*                784               01.0698717949E+03-4.165296029E+01+
*       1.2494177346E+01               0
GRID*                785               01.1038461538E+03-3.579699684E+01+
*       2.6636205582E+01               0
GRID*                786               01.0865384615E+03-3.579699684E+01+
*       2.6636205582E+01               0
GRID*                787               01.0358974359E+03-3.579699684E+01+
*       2.6636205582E+01               0
GRID*                788               01.0185897436E+03-3.579699684E+01+
*       2.6636205582E+01               0
GRID*                789               07.9807692308E+02-4.165296030E+01+
*       1.2494177345E+01               0
GRID*                790               01.2057692376E+03-1.606990252E+01+
*       -3.915067672E+01               0
GRID*                791               01.2397435937E+03-4.461998970E+01+
*       -4.342876798E+00               0
GRID*                792               01.2397435961E+03-3.020892456E+01+
*       -3.329593736E+01               0
GRID*                793               01.2224358974E+03-1.413896359E+01+
*       -3.914530694E+01               0
GRID*                794               01.2224359043E+03-3.020886610E+01+
*       -3.329598366E+01               0
GRID*                795               01.0192307587E+03-3.875921327E+01+
*       -1.848441590E+01               0
GRID*                796               01.2737179545E+03-3.020898698E+01+
*       -3.329588790E+01               0
GRID*                797               01.2564102564E+03-1.413896359E+01+
*       -3.914530694E+01               0
GRID*                798               01.2564102628E+03-3.020892455E+01+
*       -3.329593736E+01               0
GRID*                799               01.2903846157E+038.5538724462E+00+
*       4.3491084231E+01               0
GRID*                800               01.2903846152E+03-8.553840021E+00+
*       4.3491094827E+01               0
GRID*                801               01.2737179485E+03-8.553840021E+00+
*       4.3491094827E+01               0
GRID*                802               01.3756410256E+03-3.579699684E+01+
*       2.6636205583E+01               0
GRID*                803               01.3583333333E+03-4.165296029E+01+
*       1.2494177347E+01               0
GRID*                804               01.3583333333E+03-3.579699684E+01+
*       2.6636205583E+01               0
GRID*                805               01.0525641023E+03-8.553828367E+00+
*       4.3491098636E+01               0
GRID*                806               01.0358974356E+03-2.269786483E+01+
*       3.7631333156E+01               0
GRID*                807               01.3756410255E+03-2.269790293E+01+
*       3.7631320706E+01               0
GRID*                808               01.4096153845E+03-2.269791735E+01+
*       3.7631315992E+01               0
GRID*                809               01.3923076922E+03-2.269790293E+01+
*       3.7631320706E+01               0
GRID*                810               01.3923076923E+03-3.579699684E+01+
*       2.6636205583E+01               0
GRID*                811               01.7320512821E+03-4.165296029E+01+
*       1.2494177347E+01               0
GRID*                812               01.7320512821E+03-3.579699684E+01+
*       2.6636205583E+01               0
GRID*                813               08.3205128205E+02-4.165296029E+01+
*       1.2494177345E+01               0
GRID*                814               01.3923076986E+034.4620167156E+01+
*       -4.341528908E+00               0
GRID*                815               01.3923076986E+033.8759130839E+01+
*       -1.848504212E+01               0
GRID*                816               01.3756410320E+034.4620167156E+01+
*       -4.341528908E+00               0
GRID*                817               08.1538462188E+02-1.606995237E+01+
*       -3.915063723E+01               0
GRID*                818               08.3205128854E+02-1.606995237E+01+
*       -3.915063723E+01               0
GRID*                819               01.4096153846E+033.5796996840E+01+
*       2.6636205578E+01               0
GRID*                820               01.3923076923E+033.5796996840E+01+
*       2.6636205578E+01               0
GRID*                821               01.3923076926E+032.2697918622E+01+
*       3.7631315579E+01               0
GRID*                822               01.4096153902E+034.4620153034E+01+
*       -4.341636176E+00               0
GRID*                823               01.4096153903E+033.6071432377E+01+
*       -1.915125850E+01               0
GRID*                824               07.9807692276E+02-2.269788132E+01+
*       3.7631327768E+01               0
GRID*                825               03.2243589744E+023.5796996838E+01+
*       2.6636205583E+01               0
GRID*                826               03.2243589744E+024.1652960292E+01+
*       1.2494177347E+01               0
GRID*                827               03.0576923077E+023.5796996838E+01+
*       2.6636205583E+01               0
GRID*                828               02.0384615124E+02-1.607105823E+01+
*       -3.914976123E+01               0
GRID*                829               01.8653845960E+02-1.607097774E+01+
*       -3.914982499E+01               0
GRID*                830               01.8653845960E+02-3.020994134E+01+
*       -3.329513192E+01               0
GRID*                831               01.4096153846E+031.4138963603E+01+
*       -3.914530692E+01               0
GRID*                832               01.4435897436E+033.5796996840E+01+
*       2.6636205577E+01               0
GRID*                833               01.4262820513E+033.5796996840E+01+
*       2.6636205578E+01               0
GRID*                834               01.4262820515E+032.2697921599E+01+
*       3.7631314606E+01               0
GRID*                835               01.4775641028E+038.5538905804E+00+
*       4.3491078306E+01               0
GRID*                836               01.4775641026E+032.5256159421E-15+
*       -4.500000000E+01               0
GRID*                837               01.4602564154E+031.6071374331E+01+
*       -3.914951083E+01               0
GRID*                838               01.4262820568E+033.8759116717E+01+
*       -1.848514939E+01               0
GRID*                839               06.4752810201E+022.4644857724E+01+
*       -3.778469192E+01               0
GRID*                840               06.2820512094E+023.0208812871E+01+
*       -3.329602583E+01               0
GRID*                841               06.3595883665E+023.1018867272E+01+
*       -3.603985593E+01               0
GRID*                842               06.3022041009E+022.4644904431E+01+
*       -3.778465492E+01               0
GRID*                843               02.3782051282E+022.9669771797E-15+
*       -4.500000000E+01               0
GRID*                844               02.2380400031E+02-1.050499266E+01+
*       -3.812560978E+01               0
GRID*                845               02.1098348749E+02-1.050499266E+01+
*       -4.312560978E+01               0
GRID*                846               02.2829117980E+02-1.050499266E+01+
*       -4.312560978E+01               0
GRID*                847               06.4551282021E+02-8.553858489E+00+
*       4.3491088792E+01               0
GRID*                848               01.4602564103E+034.1652960297E+01+
*       1.2494177342E+01               0
GRID*                849               02.0713733365E+02-1.050499266E+01+
*       -3.812560978E+01               0
GRID*                850               02.3782050953E+02-1.607114191E+01+
*       -3.914969494E+01               0
GRID*                851               02.5448717620E+02-3.021010551E+01+
*       -3.329500187E+01               0
GRID*                852               02.3782050953E+02-3.021010551E+01+
*       -3.329500187E+01               0
GRID*                853               02.5448717620E+02-1.607114191E+01+
*       -3.914969494E+01               0
GRID*                854               01.5115384655E+033.0210188660E+01+
*       -3.329493600E+01               0
GRID*                855               01.5794871795E+033.5796996841E+01+
*       2.6636205577E+01               0
GRID*                856               06.4551282079E+028.5538279049E+00+
*       4.3491098787E+01               0
GRID*                857               01.5961538474E+03-3.020955154E+01+
*       -3.329544069E+01               0
GRID*                858               06.4551282079E+022.2697864369E+01+
*       3.7631333307E+01               0
GRID*                859               01.6641025654E+033.0209867680E+01+
*       -3.329519027E+01               0
GRID*                860               01.7147435905E+031.6070840805E+01+
*       -3.914993346E+01               0
GRID*                861               01.6641025641E+032.5033734356E-15+
*       -4.500000000E+01               0
GRID*                862               01.6814102568E+03-1.607070447E+01+
*       -3.915004146E+01               0
GRID*                863               01.6641025647E+03-1.607067273E+01+
*       -3.915006660E+01               0
GRID*                864               01.3923076983E+031.6071474020E+01+
*       -3.914943186E+01               0
GRID*                865               01.3923076983E+033.0210437623E+01+
*       -3.329473879E+01               0
GRID*                866               01.7320512825E+033.8759028191E+01+
*       -1.848582183E+01               0
GRID*                867               01.7147435905E+033.8759032830E+01+
*       -1.848578659E+01               0
GRID*                868               01.2903846212E+031.6071454797E+01+
*       -3.914944709E+01               0
GRID*                869               01.2903846212E+033.0210418398E+01+
*       -3.329475402E+01               0
GRID*                870               01.2737179487E+031.4138963601E+01+
*       -3.914530693E+01               0
GRID*                871               01.6467948734E+033.8759046854E+01+
*       -1.848568007E+01               0
GRID*                872               01.6301282067E+033.8759046853E+01+
*       -1.848568007E+01               0
GRID*                873               01.6301282067E+034.4620083168E+01+
*       -4.342166863E+00               0
GRID*                874               01.6980769238E+033.8759032830E+01+
*       -1.848578659E+01               0
GRID*                875               01.6807692319E+033.8759039097E+01+
*       -1.848573899E+01               0
GRID*                876               03.9038461538E+022.9582546323E-15+
*       -4.500000000E+01               0
GRID*                877               03.7371794872E+022.9128973435E-15+
*       -4.500000000E+01               0
GRID*                878               03.7371794506E+021.6070290365E+01+
*       -3.915036949E+01               0
GRID*                879               03.9038461172E+021.6070290365E+01+
*       -3.915036949E+01               0
GRID*                880               04.0769230349E+023.0209186738E+01+
*       -3.329572967E+01               0
GRID*                881               05.4358973836E+02-1.607138458E+01+
*       -3.914950271E+01               0
GRID*                882               05.6025640503E+02-3.021034818E+01+
*       -3.329480964E+01               0
GRID*                883               05.4358973836E+02-3.021034818E+01+
*       -3.329480964E+01               0
GRID*                884               04.2435897436E+022.9447346733E-15+
*       -4.500000000E+01               0
GRID*                885               04.3026993113E+026.1219033480E+00+
*       -4.495557781E+01               0
GRID*                886               06.3572359062E+026.1620890205E+00+
*       -4.513715899E+01               0
GRID*                887               06.3022041735E+028.5750551489E+00+
*       -4.363393603E+01               0
GRID*                888               06.1153846154E+022.8182576300E-15+
*       -4.500000000E+01               0
GRID*                889               06.1153845428E+021.6069849282E+01+
*       -3.915071889E+01               0
GRID*                890               08.1538460702E+023.0208683779E+01+
*       -3.329612809E+01               0
GRID*                891               04.5833333333E+023.5796996838E+01+
*       2.6636205583E+01               0
GRID*                892               04.5833333349E+022.2697891726E+01+
*       3.7631324367E+01               0
GRID*                893               01.2397435937E+03-3.875895337E+01+
*       -1.848639002E+01               0
GRID*                894               01.2564102604E+03-4.461998970E+01+
*       -4.342876798E+00               0
GRID*                895               01.2224358974E+032.6791329035E-15+
*       -4.500000000E+01               0
GRID*                896               01.0192307692E+023.5796996838E+01+
*       2.6636205583E+01               0
GRID*                897               01.0192307692E+024.1652960292E+01+
*       1.2494177347E+01               0
GRID*                898               08.4615384615E+013.5796996838E+01+
*       2.6636205583E+01               0
GRID*                899               08.4615384615E+014.1652960292E+01+
*       1.2494177347E+01               0
GRID*                900               01.0698718031E+03-1.606973447E+01+
*       -3.915080984E+01               0
GRID*                901               01.0865384698E+03-3.020869806E+01+
*       -3.329611677E+01               0
GRID*                902               01.0192307657E+023.0209668051E+01+
*       -3.329534840E+01               0
GRID*                903               06.7948717948E+013.5796996838E+01+
*       2.6636205583E+01               0
GRID*                904               05.0641025641E+013.5796996838E+01+
*       2.6636205584E+01               0
GRID*                905               05.0641025641E+014.1652960292E+01+
*       1.2494177347E+01               0
GRID*                906               06.7948717780E+013.0209691664E+01+
*       -3.329532970E+01               0
GRID*                907               06.7948717780E+011.6070728087E+01+
*       -3.915002275E+01               0
GRID*                908               01.1858974348E+028.5539166260E+00+
*       4.3491069794E+01               0
GRID*                909               01.1858974348E+022.2697953091E+01+
*       3.7631304314E+01               0
GRID*                910               01.0192307682E+028.5539166260E+00+
*       4.3491069794E+01               0
GRID*                911               01.3589743577E+028.5539237420E+00+
*       4.3491067469E+01               0
GRID*                912               01.1717948791E+03-1.606984928E+01+
*       -3.915071889E+01               0
GRID*                913               02.8846153846E+023.5796996838E+01+
*       2.6636205583E+01               0
GRID*                914               02.8846153846E+024.1652960292E+01+
*       1.2494177347E+01               0
GRID*                915               02.7179487179E+023.5796996838E+01+
*       2.6636205583E+01               0
GRID*                916               03.5641025641E+023.5796996838E+01+
*       2.6636205583E+01               0
GRID*                917               03.3974358974E+023.5796996838E+01+
*       2.6636205583E+01               0
GRID*                918               02.8846153825E+02-8.553893009E+00+
*       4.3491077512E+01               0
GRID*                919               03.3974358974E+024.1652960293E+01+
*       1.2494177347E+01               0
GRID*                920               03.2243588981E+024.4619928218E+01+
*       -4.343343840E+00               0
GRID*                921               03.3974358661E+023.0209319812E+01+
*       -3.329562426E+01               0
GRID*                922               03.5641025328E+021.6070356231E+01+
*       -3.915031731E+01               0
GRID*                923               03.5092560325E+028.0619380130E+00+
*       -3.892755765E+01               0
GRID*                924               03.3425893659E+022.2200901595E+01+
*       -3.307286459E+01               0
GRID*                925               03.4066918987E+022.4132294244E+01+
*       -3.807787497E+01               0
GRID*                926               03.5641025642E+028.5538994679E+00+
*       4.3491075401E+01               0
GRID*                927               03.5641025617E+02-8.553887950E+00+
*       4.3491079165E+01               0
GRID*                928               03.3974358950E+02-8.553887950E+00+
*       4.3491079165E+01               0
GRID*                929               04.5833333306E+02-2.269791550E+01+
*       3.7631316599E+01               0
GRID*                930               04.9230769249E+022.2697883076E+01+
*       3.7631327194E+01               0
GRID*                931               04.7564102583E+022.2697883076E+01+
*       3.7631327194E+01               0
GRID*                932               04.7564102583E+028.5538466117E+00+
*       4.3491092674E+01               0
GRID*                933               04.7564102536E+02-2.269791226E+01+
*       3.7631317660E+01               0
GRID*                934               04.7564102536E+02-8.553875793E+00+
*       4.3491083138E+01               0
GRID*                935               03.3425893659E+028.0619380130E+00+
*       -3.892755765E+01               0
GRID*                936               05.2628205149E+022.2697876486E+01+
*       3.7631329347E+01               0
GRID*                937               05.0961538483E+022.2697876486E+01+
*       3.7631329347E+01               0
GRID*                938               07.1346153846E+02-4.165296030E+01+
*       1.2494177344E+01               0
GRID*                939               07.4743588438E+02-4.462029163E+01+
*       -4.340583437E+00               0
GRID*                940               06.9615383402E+02-4.462027429E+01+
*       -4.340715156E+00               0
GRID*                941               06.7948716735E+02-4.462027429E+01+
*       -4.340715155E+00               0
GRID*                942               07.4743588438E+02-3.875925531E+01+
*       -1.848409665E+01               0
GRID*                943               07.3012819249E+02-3.875924748E+01+
*       -1.848415610E+01               0
GRID*                944               07.3012820783E+02-3.020938084E+01+
*       -3.329557592E+01               0
GRID*                945               01.4775641052E+03-1.607041982E+01+
*       -3.915026695E+01               0
GRID*                946               01.5256410256E+023.0528943458E-15+
*       -4.500000000E+01               0
GRID*                947               08.6602562747E+02-4.462030180E+01+
*       -4.340506153E+00               0
GRID*                948               01.5699094375E+027.5464921448E+00+
*       -3.915404682E+01               0
GRID*                949               01.6019607103E+022.3617125770E+01+
*       -3.830414440E+01               0
GRID*                950               01.5699094375E+022.1685455723E+01+
*       -3.329935377E+01               0
GRID*                951               08.8269229414E+02-4.462030180E+01+
*       -4.340506153E+00               0
GRID*                952               07.9807692308E+022.7960151235E-15+
*       -4.500000000E+01               0
GRID*                953               04.0769230781E+022.2697902930E+01+
*       3.7631320706E+01               0
GRID*                954               08.4935896621E+023.0208710097E+01+
*       -3.329610724E+01               0
GRID*                955               08.6602563287E+021.6069746504E+01+
*       -3.915080030E+01               0
GRID*                956               01.1858974323E+021.6070704474E+01+
*       -3.915004146E+01               0
GRID*                957               08.6602562747E+02-3.875926548E+01+
*       -1.848401937E+01               0
GRID*                958               08.8269231494E+02-3.020882335E+01+
*       -3.329601753E+01               0
GRID*                959               01.0865384742E+034.4620283802E+01+
*       -4.340642883E+00               0
GRID*                960               06.4085179575E+026.1620890205E+00+
*       -4.013715899E+01               0
GRID*                961               06.3534862248E+028.5750551489E+00+
*       -3.863393603E+01               0
GRID*                962               01.7493589744E+03-4.165296029E+01+
*       1.2494177347E+01               0
GRID*                963               01.7660256410E+03-3.579699684E+01+
*       2.6636205584E+01               0
GRID*                964               01.7487179487E+03-3.579699684E+01+
*       2.6636205584E+01               0
GRID*                965               01.0865384588E+031.6070417239E+01+
*       -3.915026899E+01               0
GRID*                966               01.0698717922E+033.0209380837E+01+
*       -3.329557592E+01               0
GRID*                967               04.4166665833E+024.4619912652E+01+
*       -4.343462075E+00               0
GRID*                968               01.1717948718E+034.1652960296E+01+
*       1.2494177344E+01               0
GRID*                969               01.1717948718E+033.5796996839E+01+
*       2.6636205579E+01               0
GRID*                970               06.7948717949E+013.0345769751E-15+
*       -4.500000000E+01               0
GRID*                971               06.7948717568E+01-1.607079141E+01+
*       -3.914997259E+01               0
GRID*                972               08.4615384235E+01-1.607079141E+01+
*       -3.914997259E+01               0
GRID*                973               01.8653845993E+02-3.875904685E+01+
*       -1.848568007E+01               0
GRID*                974               01.8653845993E+02-4.462008317E+01+
*       -4.342166863E+00               0
GRID*                975               01.6987179326E+02-3.875904685E+01+
*       -1.848568007E+01               0
GRID*                976               02.2051282051E+023.5796996838E+01+
*       2.6636205583E+01               0
GRID*                977               02.2051282051E+024.1652960292E+01+
*       1.2494177347E+01               0
GRID*                978               01.5115384618E+032.2697929471E+01+
*       3.7631312034E+01               0
GRID*                979               03.7371794005E+023.8758871826E+01+
*       -1.848700940E+01               0
GRID*                980               03.5641025328E+023.0209319813E+01+
*       -3.329562426E+01               0
GRID*                981               03.5641024813E+023.8758879441E+01+
*       -1.848695156E+01               0
GRID*                982               03.3974358146E+023.8758879440E+01+
*       -1.848695156E+01               0
GRID*                983               03.5641024813E+024.4619915778E+01+
*       -4.343438332E+00               0
GRID*                984               03.3974358146E+024.4619915778E+01+
*       -4.343438332E+00               0
GRID*                985               03.7371794506E+023.0209253947E+01+
*       -3.329567643E+01               0
GRID*                986               04.5833332858E+023.0209119159E+01+
*       -3.329578320E+01               0
GRID*                987               04.5833332499E+023.8758876317E+01+
*       -1.848697530E+01               0
GRID*                988               04.4166665833E+023.8758876316E+01+
*       -1.848697530E+01               0
GRID*                989               01.3416666665E+03-8.553855262E+00+
*       4.3491089847E+01               0
GRID*                990               01.3416666669E+038.5538790381E+00+
*       4.3491082077E+01               0
GRID*                991               02.5448717949E+024.1652960292E+01+
*       1.2494177347E+01               0
GRID*                992               01.3756410259E+032.2697918622E+01+
*       3.7631315579E+01               0
GRID*                993               01.3756410259E+038.5538821594E+00+
*       4.3491081057E+01               0
GRID*                994               01.3583333336E+038.5538790381E+00+
*       4.3491082077E+01               0
GRID*                995               01.3583333336E+032.2697915501E+01+
*       3.7631316599E+01               0
GRID*                996               02.2051281836E+02-3.875905596E+01+
*       -1.848561088E+01               0
GRID*                997               06.7948718675E+023.8759154569E+01+
*       -1.848486177E+01               0
GRID*                998               06.7948717152E+023.0208727391E+01+
*       -3.329609354E+01               0
GRID*                999               06.6217947953E+023.0208766164E+01+
*       -3.329606282E+01               0
GRID*               1000               06.9615385342E+023.8759154570E+01+
*       -1.848486177E+01               0
GRID*               1001               06.7948718675E+024.4620190900E+01+
*       -4.341348553E+00               0
GRID*               1002               06.6217949216E+023.8759113674E+01+
*       -1.848517241E+01               0
GRID*               1003               06.5775371571E+022.9087981579E+01+
*       -3.103444398E+01               0
GRID*               1004               06.5326654120E+023.9569168075E+01+
*       -2.122900251E+01               0
GRID*               1005               01.1038461538E+031.4138963598E+01+
*       -3.914530693E+01               0
GRID*               1006               08.6602563287E+023.0208710097E+01+
*       -3.329610724E+01               0
GRID*               1007               08.4871796121E+023.8759247551E+01+
*       -1.848415553E+01               0
GRID*               1008               08.3205129455E+023.8759247550E+01+
*       -1.848415554E+01               0
GRID*               1009               02.3782050706E+023.8758926247E+01+
*       -1.848659601E+01               0
GRID*               1010               02.3782051113E+023.0209500127E+01+
*       -3.329548142E+01               0
GRID*               1011               02.2051281923E+023.0209551541E+01+
*       -3.329544069E+01               0
GRID*               1012               05.4358973412E+02-3.875918830E+01+
*       -1.848460561E+01               0
GRID*               1013               05.2628204258E+02-3.875917416E+01+
*       -1.848471307E+01               0
GRID*               1014               01.4602564105E+038.5538879502E+00+
*       4.3491079165E+01               0
GRID*               1015               02.3782051008E+02-3.875906628E+01+
*       -1.848553249E+01               0
GRID*               1016               02.0384615170E+02-3.875905596E+01+
*       -1.848561088E+01               0
GRID*               1017               01.4942307695E+038.5538905804E+00+
*       4.3491078306E+01               0
GRID*               1018               02.2051281836E+02-4.462009228E+01+
*       -4.342097670E+00               0
GRID*               1019               02.0384615170E+02-4.462009228E+01+
*       -4.342097670E+00               0
GRID*               1020               02.2829117651E+02-2.657613457E+01+
*       -3.727530472E+01               0
GRID*               1021               01.5621794873E+03-8.553934203E+00+
*       4.3491064051E+01               0
GRID*               1022               01.5455128206E+03-8.553934203E+00+
*       4.3491064051E+01               0
GRID*               1023               01.6980769232E+03-2.269795309E+01+
*       3.7631304314E+01               0
GRID*               1024               01.6980769232E+03-8.553916626E+00+
*       4.3491069794E+01               0
GRID*               1025               01.6814102565E+03-2.269795309E+01+
*       3.7631304314E+01               0
GRID*               1026               01.7320512821E+038.5539023265E+00+
*       4.3491074467E+01               0
GRID*               1027               01.7320512821E+032.2697938789E+01+
*       3.7631308989E+01               0
GRID*               1028               01.7153846155E+038.5539023265E+00+
*       4.3491074467E+01               0
GRID*               1029               01.7153846155E+03-2.269794639E+01+
*       3.7631306502E+01               0
GRID*               1030               01.7320512821E+03-8.553909928E+00+
*       4.3491071983E+01               0
GRID*               1031               01.7147435899E+03-8.553916626E+00+
*       4.3491069794E+01               0
GRID*               1032               02.0384615371E+022.2697970356E+01+
*       3.7631298672E+01               0
GRID*               1033               02.0384615385E+023.5796996838E+01+
*       2.6636205583E+01               0
GRID*               1034               01.8653846154E+023.5796996838E+01+
*       2.6636205583E+01               0
GRID*               1035               04.5833333333E+024.1652960293E+01+
*       1.2494177347E+01               0
GRID*               1036               08.8333334674E+024.4620299540E+01+
*       -4.340523345E+00               0
GRID*               1037               08.8269230769E+024.1652960294E+01+
*       1.2494177345E+01               0
GRID*               1038               09.0000000000E+023.5796996839E+01+
*       2.6636205581E+01               0
GRID*               1039               09.0000000000E+024.1652960295E+01+
*       1.2494177345E+01               0
GRID*               1040               08.8333333333E+023.5796996839E+01+
*       2.6636205581E+01               0
GRID*               1041               06.6217947563E+02-4.462026336E+01+
*       -4.340798139E+00               0
GRID*               1042               02.0384615385E+024.1652960292E+01+
*       1.2494177347E+01               0
GRID*               1043               02.0384614917E+024.4619982110E+01+
*       -4.342934488E+00               0
GRID*               1044               01.8653845795E+024.4620001640E+01+
*       -4.342786138E+00               0
GRID*               1045               01.8653845795E+023.8758965300E+01+
*       -1.848629937E+01               0
GRID*               1046               01.6987179128E+023.8758965299E+01+
*       -1.848629937E+01               0
GRID*               1047               02.2051281583E+023.8758945770E+01+
*       -1.848644772E+01               0
GRID*               1048               06.2820512790E+02-2.269789848E+01+
*       3.7631322162E+01               0
GRID*               1049               06.2820512790E+02-8.553862016E+00+
*       4.3491087640E+01               0
GRID*               1050               08.4935897436E+022.7236179165E-15+
*       -4.500000000E+01               0
GRID*               1051               08.6602564103E+022.7689752053E-15+
*       -4.500000000E+01               0
GRID*               1052               01.8653846154E+024.1652960292E+01+
*       1.2494177347E+01               0
GRID*               1053               07.4743589744E+024.1652960294E+01+
*       1.2494177346E+01               0
GRID*               1054               07.3012821423E+024.4620223739E+01+
*       -4.341099110E+00               0
GRID*               1055               07.3012820513E+024.1652960294E+01+
*       1.2494177346E+01               0
GRID*               1056               07.4743589744E+023.5796996839E+01+
*       2.6636205582E+01               0
GRID*               1057               06.7948717949E+01-4.165296030E+01+
*       1.2494177341E+01               0
GRID*               1058               03.7371794872E+024.1652960293E+01+
*       1.2494177347E+01               0
GRID*               1059               03.5641025641E+024.1652960293E+01+
*       1.2494177347E+01               0
GRID*               1060               01.6987179326E+02-4.462008317E+01+
*       -4.342166863E+00               0
GRID*               1061               01.5256410256E+02-4.165296030E+01+
*       1.2494177341E+01               0
GRID*               1062               01.5256410142E+02-4.462007541E+01+
*       -4.342225784E+00               0
GRID*               1063               05.0641025641E+013.0934542230E-15+
*       -4.500000000E+01               0
GRID*               1064               03.3974358974E+013.0480969342E-15+
*       -4.500000000E+01               0
GRID*               1065               03.3974358926E+011.6070742804E+01+
*       -3.915001109E+01               0
GRID*               1066               01.1205128205E+034.1652960296E+01+
*       1.2494177344E+01               0
GRID*               1067               01.1038461538E+033.5796996839E+01+
*       2.6636205580E+01               0
GRID*               1068               01.1205128326E+034.4620274287E+01+
*       -4.340715155E+00               0
GRID*               1069               01.0358974316E+031.6070226839E+01+
*       -3.915041981E+01               0
GRID*               1070               01.0185897381E+031.6070073412E+01+
*       -3.915054135E+01               0
GRID*               1071               09.6794871795E+02-4.165296029E+01+
*       1.2494177346E+01               0
GRID*               1072               09.6794871795E+02-3.579699684E+01+
*       2.6636205581E+01               0
GRID*               1073               09.5128205128E+02-4.165296029E+01+
*       1.2494177346E+01               0
GRID*               1074               09.5064102564E+02-3.579699684E+01+
*       2.6636205581E+01               0
GRID*               1075               09.8525641026E+02-4.165296029E+01+
*       1.2494177346E+01               0
GRID*               1076               03.0576923077E+024.1652960292E+01+
*       1.2494177347E+01               0
GRID*               1077               03.0576922315E+024.4619928218E+01+
*       -4.343343840E+00               0
GRID*               1078               02.8846153170E+024.4619944227E+01+
*       -4.343222236E+00               0
GRID*               1079               02.3782051262E+02-2.269793168E+01+
*       3.7631311313E+01               0
GRID*               1080               05.6025640391E+023.0208924555E+01+
*       -3.329593736E+01               0
GRID*               1081               05.4358973725E+023.0208924555E+01+
*       -3.329593736E+01               0
GRID*               1082               05.6025640629E+023.8758953372E+01+
*       -1.848639002E+01               0
GRID*               1083               05.4358973963E+023.8758953371E+01+
*       -1.848639002E+01               0
GRID*               1084               05.0961537878E+023.0208986983E+01+
*       -3.329588790E+01               0
GRID*               1085               05.2628204545E+023.0208986984E+01+
*       -3.329588790E+01               0
GRID*               1086               05.0961537857E+023.8758916340E+01+
*       -1.848667130E+01               0
GRID*               1087               02.7179487179E+02-4.165296030E+01+
*       1.2494177341E+01               0
GRID*               1088               02.5448717949E+02-4.165296030E+01+
*       1.2494177341E+01               0
GRID*               1089               03.7371794872E+023.5796996838E+01+
*       2.6636205583E+01               0
GRID*               1090               03.7371794872E+02-4.165296030E+01+
*       1.2494177342E+01               0
GRID*               1091               01.3243589744E+03-3.579699684E+01+
*       2.6636205583E+01               0
GRID*               1092               01.3076923077E+03-3.579699684E+01+
*       2.6636205583E+01               0
GRID*               1093               06.1153846124E+02-8.553862016E+00+
*       4.3491087640E+01               0
GRID*               1094               03.7371794872E+02-3.579699684E+01+
*       2.6636205578E+01               0
GRID*               1095               03.5641025617E+02-2.269792441E+01+
*       3.7631313687E+01               0
GRID*               1096               03.5641025641E+02-3.579699684E+01+
*       2.6636205577E+01               0
GRID*               1097               06.7948717118E+013.8759012750E+01+
*       -1.848593893E+01               0
GRID*               1098               03.9038460672E+024.4619908163E+01+
*       -4.343496170E+00               0
GRID*               1099               03.7371794305E+02-1.607143246E+01+
*       -3.914946479E+01               0
GRID*               1100               01.6301282051E+03-3.579699684E+01+
*       2.6636205583E+01               0
GRID*               1101               01.6134615385E+03-3.579699684E+01+
*       2.6636205583E+01               0
GRID*               1102               01.6134615385E+03-4.165296029E+01+
*       1.2494177347E+01               0
GRID*               1103               05.9423075903E+02-3.875920198E+01+
*       -1.848450174E+01               0
GRID*               1104               07.1346152582E+02-4.462028380E+01+
*       -4.340642883E+00               0
GRID*               1105               04.2435896836E+02-1.607147402E+01+
*       -3.914943186E+01               0
GRID*               1106               04.4166666667E+022.8858574253E-15+
*       -4.500000000E+01               0
GRID*               1107               04.3893679684E+02-7.578933618E+00+
*       -4.005424813E+01               0
GRID*               1108               04.2996243187E+02-2.365040764E+01+
*       -3.920367999E+01               0
GRID*               1109               07.1346152582E+02-3.875924748E+01+
*       -1.848415610E+01               0
GRID*               1110               06.1153845063E+02-4.462025129E+01+
*       -4.340889874E+00               0
GRID*               1111               05.9423076923E+02-4.165296030E+01+
*       1.2494177343E+01               0
GRID*               1112               07.1346153846E+02-3.579699684E+01+
*       2.6636205580E+01               0
GRID*               1113               07.9807692276E+02-8.553844856E+00+
*       4.3491093247E+01               0
GRID*               1114               08.1538461538E+02-4.165296029E+01+
*       1.2494177345E+01               0
GRID*               1115               08.6602564103E+023.5796996839E+01+
*       2.6636205581E+01               0
GRID*               1116               07.9807692338E+028.5538296835E+00+
*       4.3491098205E+01               0
GRID*               1117               07.8141025609E+02-8.553844856E+00+
*       4.3491093247E+01               0
GRID*               1118               04.5833332499E+024.4619912652E+01+
*       -4.343462075E+00               0
GRID*               1119               01.3756410320E+033.8759130838E+01+
*       -1.848504212E+01               0
GRID*               1120               01.3583333405E+034.4620181555E+01+
*       -4.341419536E+00               0
GRID*               1121               01.3416666738E+033.8759145237E+01+
*       -1.848493275E+01               0
GRID*               1122               09.3397435897E+022.7419352872E-15+
*       -4.500000000E+01               0
GRID*               1123               01.3076923077E+032.5932157374E-15+
*       -4.500000000E+01               0
GRID*               1124               01.3076923130E+03-1.607008864E+01+
*       -3.915052929E+01               0
GRID*               1125               01.3076923156E+034.4620196055E+01+
*       -4.341309392E+00               0
GRID*               1126               01.2903846214E+03-4.461995267E+01+
*       -4.343158077E+00               0
GRID*               1127               01.2737179548E+03-3.875891634E+01+
*       -1.848667130E+01               0
GRID*               1128               01.2903846212E+03-3.607002332E+01+
*       -1.915237468E+01               0
GRID*               1129               04.2435896836E+02-3.021043762E+01+
*       -3.329473879E+01               0
GRID*               1130               04.3893679684E+02-2.171789722E+01+
*       -3.419955505E+01               0
GRID*               1131               09.8461538462E+024.1652960295E+01+
*       1.2494177345E+01               0
GRID*               1132               09.6794871795E+023.5796996839E+01+
*       2.6636205581E+01               0
GRID*               1133               01.2903846212E+03-3.020898698E+01+
*       -3.329588790E+01               0
GRID*               1134               05.9423076923E+02-3.579699684E+01+
*       2.6636205579E+01               0
GRID*               1135               05.7756410256E+02-4.165296030E+01+
*       1.2494177343E+01               0
GRID*               1136               01.0698717949E+033.5796996839E+01+
*       2.6636205580E+01               0
GRID*               1137               01.0525641026E+033.5796996839E+01+
*       2.6636205580E+01               0
GRID*               1138               01.0525641029E+032.2697884596E+01+
*       3.7631326698E+01               0
GRID*               1139               01.0871794869E+03-2.269786385E+01+
*       3.7631333478E+01               0
GRID*               1140               01.7493589744E+033.5796996840E+01+
*       2.6636205577E+01               0
GRID*               1141               01.7487179488E+032.2697938789E+01+
*       3.7631308989E+01               0
GRID*               1142               01.1544871871E+03-3.020876616E+01+
*       -3.329606283E+01               0
GRID*               1143               01.1038461466E+03-3.875915457E+01+
*       -1.848486177E+01               0
GRID*               1144               01.1038461466E+03-4.462019090E+01+
*       -4.341348553E+00               0
GRID*               1145               01.0871794799E+03-3.875915457E+01+
*       -1.848486177E+01               0
GRID*               1146               01.3076923130E+03-3.020905222E+01+
*       -3.329583623E+01               0
GRID*               1147               01.2903846157E+032.2697908909E+01+
*       3.7631318753E+01               0
GRID*               1148               01.2903846154E+033.5796996840E+01+
*       2.6636205579E+01               0
GRID*               1149               06.6217949216E+024.4620150005E+01+
*       -4.341659185E+00               0
GRID*               1150               06.4551282550E+024.4620150005E+01+
*       -4.341659185E+00               0
GRID*               1151               01.4096153846E+03-4.165296029E+01+
*       1.2494177347E+01               0
GRID*               1152               01.3923076923E+03-4.165296029E+01+
*       1.2494177347E+01               0
GRID*               1153               01.3923077010E+03-4.461990667E+01+
*       -4.343507491E+00               0
GRID*               1154               01.3583333332E+03-2.269789173E+01+
*       3.7631324367E+01               0
GRID*               1155               01.3416666665E+03-2.269789173E+01+
*       3.7631324367E+01               0
GRID*               1156               01.3416666667E+03-3.579699684E+01+
*       2.6636205583E+01               0
GRID*               1157               01.1544871871E+03-3.606980249E+01+
*       -1.915254960E+01               0
GRID*               1158               01.1378205205E+03-3.020876616E+01+
*       -3.329606282E+01               0
GRID*               1159               04.7564101816E+023.8758891164E+01+
*       -1.848686252E+01               0
GRID*               1160               07.8141024798E+023.0208674396E+01+
*       -3.329613552E+01               0
GRID*               1161               07.9807691465E+023.0208674397E+01+
*       -3.329613552E+01               0
GRID*               1162               01.7153846162E+03-3.875901275E+01+
*       -1.848593893E+01               0
GRID*               1163               01.6980769247E+03-3.875899988E+01+
*       -1.848603665E+01               0
GRID*               1164               01.6980769234E+03-3.020966805E+01+
*       -3.329534840E+01               0
GRID*               1165               07.9807692859E+02-1.607007341E+01+
*       -3.915054135E+01               0
GRID*               1166               04.7564102034E+023.0209052221E+01+
*       -3.329583623E+01               0
GRID*               1167               01.6814102580E+03-4.462003623E+01+
*       -4.342523426E+00               0
GRID*               1168               01.6814102564E+03-4.165296029E+01+
*       1.2494177347E+01               0
GRID*               1169               01.6641025666E+03-4.462002005E+01+
*       -4.342646317E+00               0
GRID*               1170               01.6980769231E+03-3.579699684E+01+
*       2.6636205583E+01               0
GRID*               1171               01.6814102564E+03-3.579699684E+01+
*       2.6636205583E+01               0
GRID*               1172               01.6641025641E+03-3.579699684E+01+
*       2.6636205583E+01               0
GRID*               1173               01.4942307692E+032.5709732309E-15+
*       -4.500000000E+01               0
GRID*               1174               01.4775641026E+031.4138963603E+01+
*       -3.914530692E+01               0
GRID*               1175               04.2435897436E+02-4.165296030E+01+
*       1.2494177342E+01               0
GRID*               1176               04.0769230769E+02-4.165296030E+01+
*       1.2494177342E+01               0
GRID*               1177               04.2435896802E+02-4.462016716E+01+
*       -4.341528908E+00               0
GRID*               1178               04.0769230136E+02-4.462016716E+01+
*       -4.341528908E+00               0
GRID*               1179               01.5256410142E+02-3.875903910E+01+
*       -1.848573899E+01               0
GRID*               1180               01.3589743476E+02-3.875903910E+01+
*       -1.848573899E+01               0
GRID*               1181               08.4615384447E+013.0209691664E+01+
*       -3.329532970E+01               0
GRID*               1182               01.7147435901E+03-3.020966805E+01+
*       -3.329534840E+01               0
GRID*               1183               01.5282051282E+032.5574532719E-15+
*       -4.500000000E+01               0
GRID*               1184               01.5115384615E+032.5120959830E-15+
*       -4.500000000E+01               0
GRID*               1185               01.5115384615E+031.4138963604E+01+
*       -3.914530692E+01               0
GRID*               1186               04.9230768701E+023.0209052221E+01+
*       -3.329583623E+01               0
GRID*               1187               04.9230768483E+023.8758891165E+01+
*       -1.848686252E+01               0
GRID*               1188               07.9807692859E+02-3.020903701E+01+
*       -3.329584828E+01               0
GRID*               1189               05.4358974359E+024.1652960293E+01+
*       1.2494177347E+01               0
GRID*               1190               05.2628205128E+023.5796996838E+01+
*       2.6636205583E+01               0
GRID*               1191               05.2628205128E+024.1652960293E+01+
*       1.2494177347E+01               0
GRID*               1192               01.6474358974E+031.4138963605E+01+
*       -3.914530692E+01               0
GRID*               1193               01.6474358988E+033.0209867680E+01+
*       -3.329519027E+01               0
GRID*               1194               01.6301282071E+033.0209941340E+01+
*       -3.329513192E+01               0
GRID*               1195               01.2397435992E+033.8759188304E+01+
*       -1.848460561E+01               0
GRID*               1196               01.2224359076E+034.4620238297E+01+
*       -4.340988531E+00               0
GRID*               1197               01.2224359076E+033.8759201978E+01+
*       -1.848450174E+01               0
GRID*               1198               01.7320512821E+032.4763335174E-15+
*       -4.500000000E+01               0
GRID*               1199               01.6641025654E+031.6070904075E+01+
*       -3.914988334E+01               0
GRID*               1200               01.5115384615E+033.5796996840E+01+
*       2.6636205577E+01               0
GRID*               1201               01.3923076923E+032.6115331081E-15+
*       -4.500000000E+01               0
GRID*               1202               01.3756410256E+031.4138963602E+01+
*       -3.914530692E+01               0
GRID*               1203               05.0961537592E+02-3.875917416E+01+
*       -1.848471307E+01               0
GRID*               1204               05.0961537592E+02-4.462021048E+01+
*       -4.341199861E+00               0
GRID*               1205               04.9230768439E+02-3.875915974E+01+
*       -1.848482260E+01               0
GRID*               1206               04.9230768439E+02-4.462019606E+01+
*       -4.341309392E+00               0
GRID*               1207               01.0185897381E+033.0209037009E+01+
*       -3.329584828E+01               0
GRID*               1208               01.0019230714E+033.0209037008E+01+
*       -3.329584828E+01               0
GRID*               1209               01.0185897569E+033.8759261140E+01+
*       -1.848405233E+01               0
GRID*               1210               01.0019230903E+033.8759261140E+01+
*       -1.848405233E+01               0
GRID*               1211               03.2243589481E+023.0209383398E+01+
*       -3.329557389E+01               0
GRID*               1212               03.1759226992E+022.2200901594E+01+
*       -3.307286459E+01               0
GRID*               1213               03.2336149807E+022.4132357829E+01+
*       -3.807782460E+01               0
GRID*               1214               01.3756410256E+032.5661758193E-15+
*       -4.500000000E+01               0
GRID*               1215               01.5961538462E+032.5304133537E-15+
*       -4.500000000E+01               0
GRID*               1216               01.5794871795E+032.4850560648E-15+
*       -4.500000000E+01               0
GRID*               1217               01.5794871795E+031.4138963604E+01+
*       -3.914530692E+01               0
GRID*               1218               03.7371794005E+024.4619908163E+01+
*       -4.343496170E+00               0
GRID*               1219               07.4679488090E+023.8759187411E+01+
*       -1.848461233E+01               0
GRID*               1220               07.3012821423E+023.8759187410E+01+
*       -1.848461233E+01               0
GRID*               1221               07.8141026192E+02-3.020903701E+01+
*       -3.329584828E+01               0
GRID*               1222               07.8141024306E+02-3.875926114E+01+
*       -1.848405233E+01               0
GRID*               1223               07.6410256836E+02-3.020919044E+01+
*       -3.329572674E+01               0
GRID*               1224               01.5621794872E+034.1652960298E+01+
*       1.2494177341E+01               0
GRID*               1225               01.1205128208E+038.5538549807E+00+
*       4.3491089939E+01               0
GRID*               1226               01.1205128208E+032.2697891444E+01+
*       3.7631324460E+01               0
GRID*               1227               01.1038461542E+038.5538549807E+00+
*       4.3491089939E+01               0
GRID*               1228               01.1378205128E+032.6608155328E-15+
*       -4.500000000E+01               0
GRID*               1229               01.1544871795E+032.7061728216E-15+
*       -4.500000000E+01               0
GRID*               1230               01.1544871795E+03-1.413896359E+01+
*       -3.914530694E+01               0
GRID*               1231               05.0961537880E+02-1.607145480E+01+
*       -3.914944709E+01               0
GRID*               1232               01.0019230714E+031.6070073412E+01+
*       -3.915054135E+01               0
GRID*               1233               01.6666666667E+018.5539028562E+00+
*       4.3491074310E+01               0
GRID*               1234               01.6666666667E+012.2697939321E+01+
*       3.7631308830E+01               0
GRID*               1235               05.0641025598E+012.2697941426E+01+
*       3.7631308126E+01               0
GRID*               1236               03.3974358931E+012.2697941426E+01+
*       3.7631308126E+01               0
GRID*               1237               03.3974358931E+018.5539049604E+00+
*       4.3491073607E+01               0
GRID*               1238               06.7948717869E+012.2697946393E+01+
*       3.7631306502E+01               0
GRID*               1239               01.5256410244E+028.5539237420E+00+
*       4.3491067469E+01               0
GRID*               1240               01.6987179487E+023.5796996838E+01+
*       2.6636205583E+01               0
GRID*               1241               01.8653846140E+022.2697966412E+01+
*       3.7631299961E+01               0
GRID*               1242               01.6987179473E+022.2697966412E+01+
*       3.7631299961E+01               0
GRID*               1243               01.7320512829E+03-4.462004909E+01+
*       -4.342425705E+00               0
GRID*               1244               01.7153846162E+03-4.462004909E+01+
*       -4.342425705E+00               0
GRID*               1245               02.0384615371E+028.5539338904E+00+
*       4.3491064153E+01               0
GRID*               1246               02.2051282033E+02-2.269793365E+01+
*       3.7631310669E+01               0
GRID*               1247               02.2051282033E+02-8.553897185E+00+
*       4.3491076147E+01               0
GRID*               1248               05.4358973725E+021.6069960969E+01+
*       -3.915063042E+01               0
GRID*               1249               04.4166665954E+02-4.462018155E+01+
*       -4.341419536E+00               0
GRID*               1250               03.3974358950E+02-2.269792441E+01+
*       3.7631313687E+01               0
GRID*               1251               03.7371794847E+02-2.269792160E+01+
*       3.7631314606E+01               0
GRID*               1252               04.5833333333E+02-3.579699684E+01+
*       2.6636205578E+01               0
GRID*               1253               04.4166666667E+02-3.579699684E+01+
*       2.6636205578E+01               0
GRID*               1254               04.4166666667E+02-4.165296030E+01+
*       1.2494177343E+01               0
GRID*               1255               03.9038461513E+02-2.269792160E+01+
*       3.7631314606E+01               0
GRID*               1256               03.9038461538E+02-3.579699684E+01+
*       2.6636205578E+01               0
GRID*               1257               04.2435897436E+02-3.579699684E+01+
*       2.6636205578E+01               0
GRID*               1258               01.7493589744E+03-1.607074280E+01+
*       -3.915001109E+01               0
GRID*               1259               01.7320512822E+03-1.607072809E+01+
*       -3.915002275E+01               0
GRID*               1260               05.9423076948E+028.5538316054E+00+
*       4.3491097577E+01               0
GRID*               1261               05.7756410282E+028.5538316054E+00+
*       4.3491097577E+01               0
GRID*               1262               01.1205128205E+032.7196927807E-15+
*       -4.500000000E+01               0
GRID*               1263               01.1378205205E+03-1.606980258E+01+
*       -3.915075589E+01               0
GRID*               1264               05.7756409236E+02-4.462023830E+01+
*       -4.340988531E+00               0
GRID*               1265               05.0641025477E+01-4.462006163E+01+
*       -4.342330498E+00               0
GRID*               1266               03.3974358810E+01-3.875902531E+01+
*       -1.848584371E+01               0
GRID*               1267               06.7948717568E+01-3.020975501E+01+
*       -3.329527951E+01               0
GRID*               1268               06.7948717537E+01-3.875902819E+01+
*       -1.848582183E+01               0
GRID*               1269               05.0641025477E+01-3.875902531E+01+
*       -1.848584371E+01               0
GRID*               1270               05.9423075903E+02-4.462023830E+01+
*       -4.340988531E+00               0
GRID*               1271               07.8076921772E+02-4.462029163E+01+
*       -4.340583438E+00               0
GRID*               1272               07.6410255105E+02-3.875925531E+01+
*       -1.848409665E+01               0
GRID*               1273               07.8141026192E+02-1.607007341E+01+
*       -3.915054135E+01               0
GRID*               1274               01.2224358974E+034.1652960296E+01+
*       1.2494177343E+01               0
GRID*               1275               01.2057692308E+033.5796996840E+01+
*       2.6636205579E+01               0
GRID*               1276               01.1544871795E+033.5796996839E+01+
*       2.6636205580E+01               0
GRID*               1277               01.1378205128E+033.5796996839E+01+
*       2.6636205579E+01               0
GRID*               1278               01.1544871798E+032.2697894952E+01+
*       3.7631323314E+01               0
GRID*               1279               01.1378205131E+032.2697894952E+01+
*       3.7631323314E+01               0
GRID*               1280               01.3243589823E+034.4620196055E+01+
*       -4.341309392E+00               0
GRID*               1281               01.3416666738E+034.4620181555E+01+
*       -4.341419536E+00               0
GRID*               1282               01.1038461538E+032.6743354918E-15+
*       -4.500000000E+01               0
GRID*               1283               01.3923076926E+038.5538821594E+00+
*       4.3491081057E+01               0
GRID*               1284               01.4096153849E+032.2697921599E+01+
*       3.7631314606E+01               0
GRID*               1285               01.4096153849E+038.5538851367E+00+
*       4.3491080084E+01               0
GRID*               1286               04.7564102034E+021.6070088636E+01+
*       -3.915052929E+01               0
GRID*               1287               05.4358974359E+022.8452975481E-15+
*       -4.500000000E+01               0
GRID*               1288               05.2628204547E+02-1.607145480E+01+
*       -3.914944709E+01               0
GRID*               1289               01.4096153846E+034.1652960297E+01+
*       1.2494177342E+01               0
GRID*               1290               01.4775641026E+03-8.553918328E+00+
*       4.3491069238E+01               0
GRID*               1291               01.4435897438E+038.5538879502E+00+
*       4.3491079165E+01               0
GRID*               1292               01.4602564102E+03-8.553899468E+00+
*       4.3491075401E+01               0
GRID*               1293               01.4435897436E+03-8.553899468E+00+
*       4.3491075401E+01               0
GRID*               1294               01.4775641026E+03-2.269795479E+01+
*       3.7631303758E+01               0
GRID*               1295               01.4602564102E+03-2.269793593E+01+
*       3.7631309921E+01               0
GRID*               1296               03.7371794879E+022.2697917355E+01+
*       3.7631315992E+01               0
GRID*               1297               01.5794871796E+03-8.553933890E+00+
*       4.3491064153E+01               0
GRID*               1298               06.1153846180E+022.2697865727E+01+
*       3.7631332863E+01               0
GRID*               1299               05.9423076948E+022.2697868070E+01+
*       3.7631332098E+01               0
GRID*               1300               08.1474358943E+02-8.553844856E+00+
*       4.3491093247E+01               0
GRID*               1301               06.4551282051E+024.1652960294E+01+
*       1.2494177346E+01               0
GRID*               1302               06.2820513039E+024.4620099762E+01+
*       -4.342040820E+00               0
GRID*               1303               06.2820512820E+024.1652960293E+01+
*       1.2494177346E+01               0
GRID*               1304               01.6474358976E+038.5539003373E+00+
*       4.3491075117E+01               0
GRID*               1305               01.6467948720E+032.2697935361E+01+
*       3.7631310110E+01               0
GRID*               1306               01.0019230769E+03-3.579699684E+01+
*       2.6636205582E+01               0
GRID*               1307               01.4262820513E+034.1652960297E+01+
*       1.2494177342E+01               0
GRID*               1308               01.6641025642E+03-2.269796021E+01+
*       3.7631301988E+01               0
GRID*               1309               01.6474358976E+03-2.269796021E+01+
*       3.7631301988E+01               0
GRID*               1310               01.6474358974E+03-3.579699684E+01+
*       2.6636205583E+01               0
GRID*               1311               01.4435897436E+034.1652960297E+01+
*       1.2494177342E+01               0
GRID*               1312               01.4602564151E+034.4620139357E+01+
*       -4.341740062E+00               0
GRID*               1313               01.4602564151E+033.8759103041E+01+
*       -1.848525327E+01               0
GRID*               1314               01.6641025641E+03-4.165296029E+01+
*       1.2494177347E+01               0
GRID*               1315               01.6474358974E+03-4.165296029E+01+
*       1.2494177347E+01               0
GRID*               1316               01.3076923080E+038.5538757933E+00+
*       4.3491083138E+01               0
GRID*               1317               01.7153846154E+032.4309762286E-15+
*       -4.500000000E+01               0
GRID*               1318               01.2564102562E+03-8.553835115E+00+
*       4.3491096430E+01               0
GRID*               1319               01.7660256410E+032.4628135584E-15+
*       -4.500000000E+01               0
GRID*               1320               01.7487179491E+031.6070791409E+01+
*       -3.914997259E+01               0
GRID*               1321               01.7493589744E+032.4174562695E-15+
*       -4.500000000E+01               0
GRID*               1322               01.7660256411E+03-1.607074280E+01+
*       -3.915001109E+01               0
GRID*               1323               01.2564102562E+03-2.269787158E+01+
*       3.7631330950E+01               0
GRID*               1324               01.5115384655E+033.6071224976E+01+
*       -1.915142279E+01               0
GRID*               1325               01.6666666666E+01-2.269793932E+01+
*       3.7631308833E+01               0
GRID*               1326               03.3974358932E+01-2.269793931E+01+
*       3.7631308821E+01               0
GRID*               1327               06.7948717537E+01-4.462006451E+01+
*       -4.342308623E+00               0
GRID*               1328               05.0641025641E+01-4.165296030E+01+
*       1.2494177341E+01               0
GRID*               1329               05.0641025599E+01-8.553902843E+00+
*       4.3491074298E+01               0
GRID*               1330               03.3974358932E+01-8.553902843E+00+
*       4.3491074298E+01               0
GRID*               1331               01.0192307681E+02-2.269793795E+01+
*       3.7631309264E+01               0
GRID*               1332               03.0576923072E+022.2697954793E+01+
*       3.7631303758E+01               0
GRID*               1333               01.1378205128E+034.1652960296E+01+
*       1.2494177344E+01               0
GRID*               1334               06.9615384584E+02-2.269789144E+01+
*       3.7631324460E+01               0
GRID*               1335               06.7948717918E+02-2.269789144E+01+
*       3.7631324460E+01               0
GRID*               1336               06.9615384584E+02-8.553854981E+00+
*       4.3491089939E+01               0
GRID*               1337               01.1544871798E+038.5538584890E+00+
*       4.3491088792E+01               0
GRID*               1338               01.1378205131E+038.5538584890E+00+
*       4.3491088792E+01               0
GRID*               1339               09.1666666667E+02-3.579699684E+01+
*       2.6636205581E+01               0
GRID*               1340               03.3974358974E+02-4.165296030E+01+
*       1.2494177342E+01               0
GRID*               1341               01.2564102616E+033.0210348180E+01+
*       -3.329480964E+01               0
GRID*               1342               01.3583333333E+034.1652960297E+01+
*       1.2494177343E+01               0
GRID*               1343               01.3416666667E+034.1652960297E+01+
*       1.2494177342E+01               0
GRID*               1344               01.3416666667E+033.5796996840E+01+
*       2.6636205578E+01               0
GRID*               1345               03.3974358494E+02-4.462013936E+01+
*       -4.341740062E+00               0
GRID*               1346               03.2243589744E+02-4.165296030E+01+
*       1.2494177342E+01               0
GRID*               1347               03.2243589336E+02-4.462012629E+01+
*       -4.341839332E+00               0
GRID*               1348               01.1884615385E+03-4.165296029E+01+
*       1.2494177346E+01               0
GRID*               1349               01.1717948718E+03-4.165296029E+01+
*       1.2494177346E+01               0
GRID*               1350               01.1717948696E+03-4.462009976E+01+
*       -4.342040820E+00               0
GRID*               1351               04.9230769203E+02-2.269791226E+01+
*       3.7631317660E+01               0
GRID*               1352               04.9230769203E+02-8.553875793E+00+
*       4.3491083138E+01               0
GRID*               1353               04.0769230170E+02-1.607147402E+01+
*       -3.914943186E+01               0
GRID*               1354               04.0769230170E+02-3.021043762E+01+
*       -3.329473879E+01               0
GRID*               1355               04.0769230769E+022.8993773844E-15+
*       -4.500000000E+01               0
GRID*               1356               03.9038460972E+02-1.607143246E+01+
*       -3.914946479E+01               0
GRID*               1357               01.1211538462E+03-4.165296029E+01+
*       1.2494177346E+01               0
GRID*               1358               04.7564101953E+02-3.021045343E+01+
*       -3.329472627E+01               0
GRID*               1359               04.5833332621E+02-3.875914524E+01+
*       -1.848493275E+01               0
GRID*               1360               01.2397435961E+03-1.606996097E+01+
*       -3.915063042E+01               0
GRID*               1361               03.9038461538E+02-4.165296030E+01+
*       1.2494177342E+01               0
GRID*               1362               03.9038460982E+02-4.462015303E+01+
*       -4.341636176E+00               0
GRID*               1363               01.1205128285E+03-3.020872739E+01+
*       -3.329609354E+01               0
GRID*               1364               09.6794871764E+02-8.553831444E+00+
*       4.3491097630E+01               0
GRID*               1365               07.1346153024E+023.0208698061E+01+
*       -3.329611677E+01               0
GRID*               1366               07.1346153024E+021.6069734471E+01+
*       -3.915080984E+01               0
GRID*               1367               06.9615383818E+021.6069763802E+01+
*       -3.915078660E+01               0
GRID*               1368               06.9615383818E+023.0208727392E+01+
*       -3.329609354E+01               0
GRID*               1369               03.3974358974E+02-3.579699684E+01+
*       2.6636205577E+01               0
GRID*               1370               03.2243589721E+02-2.269792704E+01+
*       3.7631312828E+01               0
GRID*               1371               03.2243589744E+02-3.579699684E+01+
*       2.6636205577E+01               0
GRID*               1372               06.4551282550E+023.8759113674E+01+
*       -1.848517241E+01               0
GRID*               1373               06.2820513039E+023.8759063431E+01+
*       -1.848555404E+01               0
GRID*               1374               06.1153845428E+023.0208812870E+01+
*       -3.329602583E+01               0
GRID*               1375               06.1153846372E+023.8759063430E+01+
*       -1.848555404E+01               0
GRID*               1376               03.0576923077E+02-4.165296030E+01+
*       1.2494177342E+01               0
GRID*               1377               02.8846153846E+02-4.165296030E+01+
*       1.2494177341E+01               0
GRID*               1378               02.8846153846E+02-3.579699684E+01+
*       2.6636205577E+01               0
GRID*               1379               01.0192307695E+038.5538481332E+00+
*       4.3491092176E+01               0
GRID*               1380               07.4743589744E+021.4138963590E+01+
*       -3.914530693E+01               0
GRID*               1381               07.3012819691E+023.0208698061E+01+
*       -3.329611677E+01               0
GRID*               1382               04.0769230349E+021.6070223155E+01+
*       -3.915042273E+01               0
GRID*               1383               07.3012819691E+021.6069734471E+01+
*       -3.915080984E+01               0
GRID*               1384               06.9615384615E+022.8365750007E-15+
*       -4.500000000E+01               0
GRID*               1385               09.8525640995E+02-2.269786615E+01+
*       3.7631332726E+01               0
GRID*               1386               09.6794871764E+02-2.269786791E+01+
*       3.7631332151E+01               0
GRID*               1387               08.1538461569E+028.5538314441E+00+
*       4.3491097630E+01               0
GRID*               1388               04.9230769231E+023.5796996838E+01+
*       2.6636205583E+01               0
GRID*               1389               04.7564102564E+023.5796996838E+01+
*       2.6636205583E+01               0
GRID*               1390               04.9230769249E+028.5538466117E+00+
*       4.3491092674E+01               0
GRID*               1391               08.4935898742E+024.4620293734E+01+
*       -4.340567443E+00               0
GRID*               1392               08.3205129455E+024.4620283877E+01+
*       -4.340642317E+00               0
GRID*               1393               08.3205128205E+024.1652960294E+01+
*       1.2494177346E+01               0
GRID*               1394               09.8461538430E+02-8.553831444E+00+
*       4.3491097630E+01               0
GRID*               1395               06.6217948718E+024.1652960294E+01+
*       1.2494177346E+01               0
GRID*               1396               06.6217948718E+023.5796996838E+01+
*       2.6636205582E+01               0
GRID*               1397               01.1544871745E+03-4.462015000E+01+
*       -4.341659185E+00               0
GRID*               1398               01.1378205078E+03-3.875911367E+01+
*       -1.848517241E+01               0
GRID*               1399               01.0865384612E+03-8.553827571E+00+
*       4.3491098896E+01               0
GRID*               1400               01.0698717946E+03-8.553827571E+00+
*       4.3491098896E+01               0
GRID*               1401               01.0698717946E+03-2.269786403E+01+
*       3.7631333417E+01               0
GRID*               1402               01.6474358974E+032.4580161467E-15+
*       -4.500000000E+01               0
GRID*               1403               01.6301282071E+031.6070977735E+01+
*       -3.914982499E+01               0
GRID*               1404               01.0865384619E+038.5538515187E+00+
*       4.3491091070E+01               0
GRID*               1405               01.0698717952E+038.5538515187E+00+
*       4.3491091070E+01               0
GRID*               1406               01.2564102564E+03-4.165296029E+01+
*       1.2494177347E+01               0
GRID*               1407               01.2397435897E+03-4.165296029E+01+
*       1.2494177347E+01               0
GRID*               1408               01.8653846140E+028.5539299465E+00+
*       4.3491065442E+01               0
GRID*               1409               01.6987179473E+028.5539299465E+00+
*       4.3491065442E+01               0
GRID*               1410               01.2564102628E+03-3.606996089E+01+
*       -1.915242413E+01               0
GRID*               1411               02.3782051113E+021.6070536547E+01+
*       -3.915017448E+01               0
GRID*               1412               02.5448717780E+021.6070536547E+01+
*       -3.915017448E+01               0
GRID*               1413               04.0769230743E+02-8.553882159E+00+
*       4.3491081057E+01               0
GRID*               1414               04.0769230743E+02-2.269791862E+01+
*       3.7631315579E+01               0
GRID*               1415               07.9807690972E+02-4.462029746E+01+
*       -4.340539117E+00               0
GRID*               1416               01.1884615388E+038.5538620156E+00+
*       4.3491087640E+01               0
GRID*               1417               01.1884615388E+032.2697898479E+01+
*       3.7631322162E+01               0
GRID*               1418               01.1717948721E+038.5538620156E+00+
*       4.3491087640E+01               0
GRID*               1419               01.3243589744E+034.1652960296E+01+
*       1.2494177343E+01               0
GRID*               1420               07.9807690972E+02-3.875926114E+01+
*       -1.848405233E+01               0
GRID*               1421               08.1474357639E+02-4.462029746E+01+
*       -4.340539117E+00               0
GRID*               1422               08.1538460186E+02-3.875926465E+01+
*       -1.848402565E+01               0
GRID*               1423               01.3756410255E+03-8.553866465E+00+
*       4.3491086186E+01               0
GRID*               1424               01.3583333332E+03-8.553855262E+00+
*       4.3491089847E+01               0
GRID*               1425               08.8333334112E+02-1.606979214E+01+
*       -3.915076416E+01               0
GRID*               1426               01.2397435897E+034.1652960296E+01+
*       1.2494177343E+01               0
GRID*               1427               01.2224358974E+033.5796996839E+01+
*       2.6636205579E+01               0
GRID*               1428               01.3923076922E+03-8.553866465E+00+
*       4.3491086186E+01               0
GRID*               1429               06.7948717918E+02-8.553854981E+00+
*       4.3491089939E+01               0
GRID*               1430               01.4435897438E+032.2697924413E+01+
*       3.7631313687E+01               0
GRID*               1431               07.1346153876E+028.5538275705E+00+
*       4.3491098896E+01               0
GRID*               1432               06.9615384644E+028.5538273819E+00+
*       4.3491098958E+01               0
GRID*               1433               01.4262820515E+038.5538851367E+00+
*       4.3491080084E+01               0
GRID*               1434               01.5961538462E+034.1652960298E+01+
*       1.2494177341E+01               0
GRID*               1435               01.6814102565E+038.5539014857E+00+
*       4.3491074742E+01               0
GRID*               1436               01.7487179488E+03-8.553909928E+00+
*       4.3491071983E+01               0
GRID*               1437               01.7320512821E+03-2.269794639E+01+
*       3.7631306502E+01               0
GRID*               1438               01.5961538483E+033.8759055962E+01+
*       -1.848561088E+01               0
GRID*               1439               01.5788461566E+033.8759066283E+01+
*       -1.848553249E+01               0
GRID*               1440               06.5303128293E+026.1620890205E+00+
*       -4.513715899E+01               0
GRID*               1441               01.6134615420E+03-4.462000164E+01+
*       -4.342786139E+00               0
GRID*               1442               01.5961538508E+03-4.461998211E+01+
*       -4.342934488E+00               0
GRID*               1443               05.9423076241E+021.6069902518E+01+
*       -3.915067672E+01               0
GRID*               1444               01.1205128205E+03-1.413896359E+01+
*       -3.914530694E+01               0
GRID*               1445               01.7147435897E+03-3.579699684E+01+
*       2.6636205583E+01               0
GRID*               1446               05.0641025598E+01-2.269793931E+01+
*       3.7631308821E+01               0
GRID*               1447               05.0641025641E+01-3.579699684E+01+
*       2.6636205577E+01               0
GRID*               1448               06.7948717948E+01-3.579699684E+01+
*       2.6636205576E+01               0
GRID*               1449               01.7493589744E+03-3.020970638E+01+
*       -3.329531804E+01               0
GRID*               1450               01.7493589746E+03-3.875902124E+01+
*       -1.848587448E+01               0
GRID*               1451               01.7320512822E+03-3.020969166E+01+
*       -3.329532970E+01               0
GRID*               1452               06.7948717949E+022.7912177118E-15+
*       -4.500000000E+01               0
GRID*               1453               06.6217948718E+022.8500949598E-15+
*       -4.500000000E+01               0
GRID*               1454               06.7948717152E+021.6069763802E+01+
*       -3.915078660E+01               0
GRID*               1455               01.6301282051E+032.5168933946E-15+
*       -4.500000000E+01               0
GRID*               1456               01.6134615385E+031.4138963604E+01+
*       -3.914530692E+01               0
GRID*               1457               01.6134615404E+033.0209941340E+01+
*       -3.329513192E+01               0
GRID*               1458               03.0576922815E+021.6070419816E+01+
*       -3.915026695E+01               0
GRID*               1459               03.1093339269E+029.2215075433E-01+
*       -4.203144805E+01               0
GRID*               1460               03.1670262084E+021.6992570570E+01+
*       -4.118171500E+01               0
GRID*               1461               03.1093339269E+021.5061114335E+01+
*       -3.617675500E+01               0
GRID*               1462               06.2820512094E+021.6069849282E+01+
*       -3.915071889E+01               0
GRID*               1463               07.6410256379E+02-8.553848133E+00+
*       4.3491092176E+01               0
GRID*               1464               01.0192307682E+022.2697953091E+01+
*       3.7631304314E+01               0
GRID*               1465               01.7660256410E+034.1652960298E+01+
*       1.2494177341E+01               0
GRID*               1466               06.7948718029E+02-1.607065000E+01+
*       -3.915008461E+01               0
GRID*               1467               06.9615383402E+02-3.875923797E+01+
*       -1.848422837E+01               0
GRID*               1468               06.9615384695E+02-3.020961360E+01+
*       -3.329539153E+01               0
GRID*               1469               01.6987179471E+02-8.553898898E+00+
*       4.3491075588E+01               0
GRID*               1470               01.5256410243E+02-8.553900337E+00+
*       4.3491075117E+01               0
GRID*               1471               01.1858974348E+02-8.553901486E+00+
*       4.3491074742E+01               0
GRID*               1472               01.0192307681E+02-8.553901486E+00+
*       4.3491074742E+01               0
GRID*               1473               01.1205128205E+033.5796996839E+01+
*       2.6636205580E+01               0
GRID*               1474               01.3243589746E+038.5538757933E+00+
*       4.3491083138E+01               0
GRID*               1475               01.3243589746E+032.2697912256E+01+
*       3.7631317660E+01               0
GRID*               1476               01.3416666669E+032.2697915501E+01+
*       3.7631316599E+01               0
GRID*               1477               04.5833333333E+02-4.165296030E+01+
*       1.2494177342E+01               0
GRID*               1478               05.0961538462E+02-4.165296030E+01+
*       1.2494177343E+01               0
GRID*               1479               05.7756409574E+023.0208866105E+01+
*       -3.329598366E+01               0
GRID*               1480               05.7756410142E+023.8759003866E+01+
*       -1.848600648E+01               0
GRID*               1481               06.6217947563E+02-3.875922704E+01+
*       -1.848431135E+01               0
GRID*               1482               09.8525642361E+024.4620297463E+01+
*       -4.340539117E+00               0
GRID*               1483               09.5128205128E+023.5796996839E+01+
*       2.6636205581E+01               0
GRID*               1484               09.6794871795E+024.1652960295E+01+
*       1.2494177345E+01               0
GRID*               1485               09.5064102564E+024.1652960295E+01+
*       1.2494177345E+01               0
GRID*               1486               04.0769230136E+02-3.875913084E+01+
*       -1.848504212E+01               0
GRID*               1487               03.2243589282E+02-1.607130384E+01+
*       -3.914956667E+01               0
GRID*               1488               03.2760005936E+029.2215075433E-01+
*       -4.203144805E+01               0
GRID*               1489               03.3401031577E+029.2215075433E-01+
*       -4.703144805E+01               0
GRID*               1490               03.1670261884E+02-1.514915309E+01+
*       -4.118101472E+01               0
GRID*               1491               01.1211538412E+03-3.875911368E+01+
*       -1.848517241E+01               0
GRID*               1492               06.1153846372E+024.4620099762E+01+
*       -4.342040820E+00               0
GRID*               1493               05.9423076809E+024.4620040198E+01+
*       -4.342493255E+00               0
GRID*               1494               05.9423076809E+023.8759003866E+01+
*       -1.848600648E+01               0
GRID*               1495               01.0865384615E+033.5796996839E+01+
*       2.6636205580E+01               0
GRID*               1496               01.1884615385E+033.5796996839E+01+
*       2.6636205579E+01               0
GRID*               1497               01.3589743476E+02-4.462007541E+01+
*       -4.342225784E+00               0
GRID*               1498               01.3589743590E+02-4.165296030E+01+
*       1.2494177341E+01               0
GRID*               1499               01.1858974359E+02-4.165296030E+01+
*       1.2494177341E+01               0
GRID*               1500               01.1858974285E+02-3.875903283E+01+
*       -1.848578659E+01               0
GRID*               1501               01.1858974285E+02-4.462006914E+01+
*       -4.342273381E+00               0
GRID*               1502               01.6987179293E+02-3.020994134E+01+
*       -3.329513192E+01               0
GRID*               1503               01.5256410124E+02-3.020986768E+01+
*       -3.329519027E+01               0
GRID*               1504               01.2397435895E+03-2.269787158E+01+
*       3.7631330951E+01               0
GRID*               1505               01.2397435900E+032.2697905482E+01+
*       3.7631319873E+01               0
GRID*               1506               01.2224358977E+032.2697901997E+01+
*       3.7631321012E+01               0
GRID*               1507               05.0961538462E+024.1652960293E+01+
*       1.2494177347E+01               0
GRID*               1508               05.0961538462E+023.5796996838E+01+
*       2.6636205583E+01               0
GRID*               1509               09.1730770586E+024.4620301803E+01+
*       -4.340506153E+00               0
GRID*               1510               03.0576922615E+02-1.607130384E+01+
*       -3.914956667E+01               0
GRID*               1511               01.4942307693E+03-2.269795479E+01+
*       3.7631303758E+01               0
GRID*               1512               01.1551282051E+03-4.165296029E+01+
*       1.2494177347E+01               0
GRID*               1513               01.1378205128E+03-4.165296029E+01+
*       1.2494177346E+01               0
GRID*               1514               01.1378205078E+03-4.462015000E+01+
*       -4.341659185E+00               0
GRID*               1515               01.5115384615E+03-4.165296029E+01+
*       1.2494177347E+01               0
GRID*               1516               01.5794871795E+03-3.579699684E+01+
*       2.6636205583E+01               0
GRID*               1517               01.4775641026E+03-3.579699684E+01+
*       2.6636205583E+01               0
GRID*               1518               01.5455128263E+03-3.875892625E+01+
*       -1.848659601E+01               0
GRID*               1519               01.6807692309E+03-8.553923742E+00+
*       4.3491067469E+01               0
GRID*               1520               03.2852566262E+028.9840887673E+00+
*       -4.095900571E+01               0
GRID*               1521               01.7833333333E+033.0209709091E+01+
*       -3.329531887E+01               0
GRID*               1522               01.5115384637E+03-1.607048021E+01+
*       -3.915021910E+01               0
GRID*               1523               01.4775641102E+03-4.461992822E+01+
*       -4.343343840E+00               0
GRID*               1524               01.4602564185E+03-3.875887944E+01+
*       -1.848695156E+01               0
GRID*               1525               01.4602564185E+03-4.461991578E+01+
*       -4.343438333E+00               0
GRID*               1526               07.6410256410E+022.8095350825E-15+
*       -4.500000000E+01               0
GRID*               1527               07.8141025641E+022.7506578346E-15+
*       -4.500000000E+01               0
GRID*               1528               01.6814102568E+03-3.020966805E+01+
*       -3.329534840E+01               0
GRID*               1529               01.6987179293E+02-1.607097774E+01+
*       -3.914982499E+01               0
GRID*               1530               01.5256410124E+02-1.607090408E+01+
*       -3.914988334E+01               0
GRID*               1531               08.8333332554E+023.0208755730E+01+
*       -3.329607109E+01               0
GRID*               1532               08.6602565409E+023.8759257408E+01+
*       -1.848408066E+01               0
GRID*               1533               01.2057692410E+033.8759201977E+01+
*       -1.848450174E+01               0
GRID*               1534               01.8653846138E+02-2.269793536E+01+
*       3.7631310110E+01               0
GRID*               1535               01.8653846138E+02-8.553898898E+00+
*       4.3491075588E+01               0
GRID*               1536               01.6987179471E+02-2.269793536E+01+
*       3.7631310110E+01               0
GRID*               1537               08.8269229954E+021.6069746504E+01+
*       -3.915080030E+01               0
GRID*               1538               02.0384615367E+02-8.553897185E+00+
*       4.3491076147E+01               0
GRID*               1539               02.0384615367E+02-2.269793365E+01+
*       3.7631310669E+01               0
GRID*               1540               04.0769230769E+02-3.579699684E+01+
*       2.6636205578E+01               0
GRID*               1541               03.2243589336E+02-3.875908997E+01+
*       -1.848535254E+01               0
GRID*               1542               01.3589743576E+02-8.553900337E+00+
*       4.3491075117E+01               0
GRID*               1543               01.6666666667E+01-8.553902856E+00+
*       4.3491074310E+01               0
GRID*               1544               01.8653846154E+02-4.165296030E+01+
*       1.2494177341E+01               0
GRID*               1545               01.6987179487E+02-4.165296030E+01+
*       1.2494177341E+01               0
GRID*               1546               01.2224358977E+038.5538655339E+00+
*       4.3491086490E+01               0
GRID*               1547               01.2057692311E+038.5538655339E+00+
*       4.3491086490E+01               0
GRID*               1548               08.4615384235E+01-3.020975501E+01+
*       -3.329527951E+01               0
GRID*               1549               01.2397435900E+038.5538690187E+00+
*       4.3491085352E+01               0
GRID*               1550               01.4435897436E+03-2.269793593E+01+
*       3.7631309921E+01               0
GRID*               1551               01.4262820512E+03-2.269791735E+01+
*       3.7631315992E+01               0
GRID*               1552               01.4262820512E+03-8.553880890E+00+
*       4.3491081472E+01               0
GRID*               1553               01.6301282051E+03-4.165296029E+01+
*       1.2494177347E+01               0
GRID*               1554               03.2243589282E+02-3.021026745E+01+
*       -3.329487359E+01               0
GRID*               1555               01.7833333333E+03-2.269793932E+01+
*       3.7631308830E+01               0
GRID*               1556               01.7826923077E+03-3.579699684E+01+
*       2.6636205587E+01               0
GRID*               1557               01.7660256410E+03-4.165296029E+01+
*       1.2494177347E+01               0
GRID*               1558               03.4066919300E+028.0619380130E+00+
*       -4.392755765E+01               0
GRID*               1559               07.8141025641E+021.4138963591E+01+
*       -3.914530693E+01               0
GRID*               1560               05.0641025598E+018.5539049604E+00+
*       4.3491073607E+01               0
GRID*               1561               09.0000000032E+028.5538360427E+00+
*       4.3491096127E+01               0
GRID*               1562               08.8333333365E+028.5538360427E+00+
*       4.3491096127E+01               0
GRID*               1563               08.8269230738E+02-8.553838771E+00+
*       4.3491095236E+01               0
GRID*               1564               08.6602564071E+02-8.553838771E+00+
*       4.3491095236E+01               0
GRID*               1565               07.4743589744E+022.7641777937E-15+
*       -4.500000000E+01               0
GRID*               1566               01.1884615382E+03-8.553829263E+00+
*       4.3491098343E+01               0
GRID*               1567               07.6410257466E+023.8759213271E+01+
*       -1.848441590E+01               0
GRID*               1568               01.2903846152E+03-2.269787649E+01+
*       3.7631329347E+01               0
GRID*               1569               01.2903846154E+03-3.579699684E+01+
*       2.6636205583E+01               0
GRID*               1570               01.4435897519E+03-3.875887944E+01+
*       -1.848695156E+01               0
GRID*               1571               01.6134615385E+032.4715361058E-15+
*       -4.500000000E+01               0
GRID*               1572               01.6134615394E+03-1.607063363E+01+
*       -3.915009758E+01               0
GRID*               1573               01.0532051285E+038.5538515187E+00+
*       4.3491091070E+01               0
GRID*               1574               01.0698717952E+032.2697887982E+01+
*       3.7631325592E+01               0
GRID*               1575               09.8525640475E+023.0209037007E+01+
*       -3.329584828E+01               0
GRID*               1576               09.8461537812E+021.6069952367E+01+
*       -3.915063723E+01               0
GRID*               1577               09.6794871146E+023.0208915962E+01+
*       -3.329594416E+01               0
GRID*               1578               01.1205128132E+03-4.462019090E+01+
*       -4.341348553E+00               0
GRID*               1579               09.8461538462E+022.7737726170E-15+
*       -4.500000000E+01               0
GRID*               1580               09.6794871795E+022.7284153281E-15+
*       -4.500000000E+01               0
GRID*               1581               09.6794871146E+021.6069952367E+01+
*       -3.915063723E+01               0
GRID*               1582               06.1153846154E+024.1652960293E+01+
*       1.2494177346E+01               0
GRID*               1583               06.1153846154E+023.5796996838E+01+
*       2.6636205582E+01               0
GRID*               1584               01.4096153933E+03-4.461990816E+01+
*       -4.343496170E+00               0
GRID*               1585               01.3923077010E+03-3.875887034E+01+
*       -1.848702072E+01               0
GRID*               1586               01.4435897519E+03-4.461991578E+01+
*       -4.343438332E+00               0
GRID*               1587               01.5256410243E+02-2.269793680E+01+
*       3.7631309639E+01               0
GRID*               1588               01.5621794873E+03-2.269797067E+01+
*       3.7631298570E+01               0
GRID*               1589               02.8846153507E+02-3.875907767E+01+
*       -1.848544600E+01               0
GRID*               1590               02.8846153507E+02-4.462011398E+01+
*       -4.341932791E+00               0
GRID*               1591               01.5621794872E+03-3.579699684E+01+
*       2.6636205583E+01               0
GRID*               1592               02.5448717949E+02-3.579699684E+01+
*       2.6636205577E+01               0
GRID*               1593               02.2051282051E+02-3.579699684E+01+
*       2.6636205577E+01               0
GRID*               1594               02.0384615385E+02-4.165296030E+01+
*       1.2494177341E+01               0
GRID*               1595               01.7826923079E+033.8759025301E+01+
*       -1.848584372E+01               0
GRID*               1596               01.7660256412E+033.8759025311E+01+
*       -1.848584371E+01               0
GRID*               1597               01.7660256412E+034.4620061625E+01+
*       -4.342330498E+00               0
GRID*               1598               01.7833333333E+034.4620066832E+01+
*       -4.342326864E+00               0
GRID*               1599               01.7493589745E+034.4620061625E+01+
*       -4.342330498E+00               0
GRID*               1600               04.5833332621E+02-4.462018155E+01+
*       -4.341419536E+00               0
GRID*               1601               05.6025640079E+02-3.875918830E+01+
*       -1.848460561E+01               0
GRID*               1602               03.0576922669E+02-4.462012629E+01+
*       -4.341839332E+00               0
GRID*               1603               05.7756409236E+02-3.875920198E+01+
*       -1.848450174E+01               0
GRID*               1604               04.7564101773E+02-3.875915974E+01+
*       -1.848482260E+01               0
GRID*               1605               01.1717948718E+03-3.579699684E+01+
*       2.6636205582E+01               0
GRID*               1606               01.1544871795E+03-3.579699684E+01+
*       2.6636205582E+01               0
GRID*               1607               05.2628204547E+02-3.021041840E+01+
*       -3.329475402E+01               0
GRID*               1608               05.0961537880E+02-3.021041840E+01+
*       -3.329475402E+01               0
GRID*               1609               07.4743590799E+024.4620249599E+01+
*       -4.340902682E+00               0
GRID*               1610               09.1666666667E+024.1652960295E+01+
*       1.2494177345E+01               0
GRID*               1611               09.3397435173E+023.0208823348E+01+
*       -3.329601753E+01               0
GRID*               1612               01.1038461542E+032.2697891444E+01+
*       3.7631324460E+01               0
GRID*               1613               01.3076923077E+034.1652960296E+01+
*       1.2494177343E+01               0
GRID*               1614               01.3243589744E+033.5796996840E+01+
*       2.6636205578E+01               0
GRID*               1615               01.3076923077E+033.5796996840E+01+
*       2.6636205578E+01               0
GRID*               1616               01.3076923080E+032.2697912256E+01+
*       3.7631317660E+01               0
GRID*               1617               01.5282051282E+03-4.165296029E+01+
*       1.2494177347E+01               0
GRID*               1618               01.5455128205E+03-3.579699684E+01+
*       2.6636205583E+01               0
GRID*               1619               01.5455128205E+03-4.165296029E+01+
*       1.2494177347E+01               0
GRID*               1620               01.7487179495E+03-4.462004909E+01+
*       -4.342425705E+00               0
GRID*               1621               01.7320512829E+03-3.875901275E+01+
*       -1.848593893E+01               0
GRID*               1622               01.4942307692E+03-1.413896358E+01+
*       -3.914530694E+01               0
GRID*               1623               08.1538462788E+024.4620283877E+01+
*       -4.340642317E+00               0
GRID*               1624               08.1474360142E+023.8759233061E+01+
*       -1.848426559E+01               0
GRID*               1625               07.9807693475E+024.4620269387E+01+
*       -4.340752376E+00               0
GRID*               1626               07.9807693475E+023.8759233060E+01+
*       -1.848426559E+01               0
GRID*               1627               07.8141026808E+024.4620269387E+01+
*       -4.340752376E+00               0
GRID*               1628               01.7833333333E+03-4.165296029E+01+
*       1.2494177347E+01               0
GRID*               1629               01.7826923080E+03-4.462005758E+01+
*       -4.342361244E+00               0
GRID*               1630               01.7660256413E+03-4.462005758E+01+
*       -4.342361247E+00               0
GRID*               1631               08.4935897436E+023.5796996839E+01+
*       2.6636205581E+01               0
GRID*               1632               04.4757762344E+026.1219033480E+00+
*       -4.495557781E+01               0
GRID*               1633               04.9230768701E+021.6070088636E+01+
*       -3.915052929E+01               0
GRID*               1634               01.0865384619E+032.2697887982E+01+
*       3.7631325592E+01               0
GRID*               1635               01.2057692311E+032.2697901997E+01+
*       3.7631321012E+01               0
GRID*               1636               01.1717948721E+032.2697898479E+01+
*       3.7631322162E+01               0
GRID*               1637               01.3589743590E+02-3.579699684E+01+
*       2.6636205576E+01               0
GRID*               1638               01.3589743576E+02-2.269793680E+01+
*       3.7631309639E+01               0
GRID*               1639               01.1858974348E+02-2.269793795E+01+
*       3.7631309264E+01               0
GRID*               1640               01.5256410256E+02-3.579699684E+01+
*       2.6636205576E+01               0
GRID*               1641               01.6987179487E+02-3.579699684E+01+
*       2.6636205576E+01               0
GRID*               1642               01.2397435895E+03-8.553835115E+00+
*       4.3491096430E+01               0
GRID*               1643               07.6410257466E+024.4620249599E+01+
*       -4.340902682E+00               0
GRID*               1644               07.6410256410E+024.1652960294E+01+
*       1.2494177346E+01               0
GRID*               1645               07.6410256410E+023.5796996838E+01+
*       2.6636205582E+01               0
GRID*               1646               01.4096153845E+03-8.553880890E+00+
*       4.3491081472E+01               0
GRID*               1647               01.1551282049E+03-2.269786573E+01+
*       3.7631332863E+01               0
GRID*               1648               01.1378205125E+03-2.269786437E+01+
*       3.7631333307E+01               0
GRID*               1649               01.1378205128E+03-3.579699684E+01+
*       2.6636205582E+01               0
GRID*               1650               01.4096153883E+03-3.020925395E+01+
*       -3.329567643E+01               0
GRID*               1651               01.3923076923E+03-1.413896358E+01+
*       -3.914530694E+01               0
GRID*               1652               01.3923076965E+03-3.020918674E+01+
*       -3.329572967E+01               0
GRID*               1653               01.4602564103E+03-3.579699684E+01+
*       2.6636205583E+01               0
GRID*               1654               01.5115384615E+034.1652960297E+01+
*       1.2494177341E+01               0
GRID*               1655               01.6128205130E+03-8.553933890E+00+
*       4.3491064153E+01               0
GRID*               1656               01.5961538462E+03-4.165296029E+01+
*       1.2494177347E+01               0
GRID*               1657               01.6980769232E+038.5539014857E+00+
*       4.3491074742E+01               0
GRID*               1658               01.8653846154E+02-3.579699684E+01+
*       2.6636205576E+01               0
GRID*               1659               02.0384615385E+02-3.579699684E+01+
*       2.6636205577E+01               0
GRID*               1660               08.3205128205E+023.5796996839E+01+
*       2.6636205581E+01               0
GRID*               1661               01.1544871792E+03-8.553827905E+00+
*       4.3491098787E+01               0
GRID*               1662               01.6666666667E+013.1069741821E-15+
*       -4.500000000E+01               0
GRID*               1663               01.7833333333E+03-1.607074549E+01+
*       -3.915001195E+01               0
GRID*               1664               01.7487179487E+034.1652960298E+01+
*       1.2494177341E+01               0
GRID*               1665               09.3397435897E+02-3.579699684E+01+
*       2.6636205581E+01               0
GRID*               1666               01.4262820513E+03-4.165296029E+01+
*       1.2494177347E+01               0
GRID*               1667               01.4262820513E+03-3.579699684E+01+
*       2.6636205583E+01               0
GRID*               1668               01.4435897436E+03-3.579699684E+01+
*       2.6636205583E+01               0
GRID*               1669               01.4435897436E+03-4.165296029E+01+
*       1.2494177347E+01               0
GRID*               1670               01.6301282087E+03-4.462000164E+01+
*       -4.342786139E+00               0
GRID*               1671               01.6474359000E+03-4.462002005E+01+
*       -4.342646317E+00               0
GRID*               1672               02.7179486782E+02-1.607122506E+01+
*       -3.914962908E+01               0
GRID*               1673               02.7179486782E+02-3.021018866E+01+
*       -3.329493600E+01               0
GRID*               1674               01.7660256413E+03-3.875902124E+01+
*       -1.848587448E+01               0
GRID*               1675               09.1730769199E+02-2.269787005E+01+
*       3.7631331452E+01               0
GRID*               1676               08.9999999968E+02-2.269787251E+01+
*       3.7631330648E+01               0
GRID*               1677               02.5448717780E+023.0209500128E+01+
*       -3.329548142E+01               0
GRID*               1678               02.7179486966E+021.6070480214E+01+
*       -3.915021910E+01               0
GRID*               1679               02.5448717949E+023.0123344686E-15+
*       -4.500000000E+01               0
GRID*               1680               09.1666666635E+02-8.553836043E+00+
*       4.3491096127E+01               0
GRID*               1681               01.5282051303E+03-1.607048021E+01+
*       -3.915021910E+01               0
GRID*               1682               05.7756410282E+022.2697868070E+01+
*       3.7631332098E+01               0
GRID*               1683               04.7564101773E+02-4.462019606E+01+
*       -4.341309392E+00               0
GRID*               1684               07.1346153876E+022.2697864035E+01+
*       3.7631333416E+01               0
GRID*               1685               08.1474358974E+024.1652960294E+01+
*       1.2494177346E+01               0
GRID*               1686               08.1538461538E+023.5796996839E+01+
*       2.6636205581E+01               0
GRID*               1687               07.9807692308E+023.5796996839E+01+
*       2.6636205582E+01               0
GRID*               1688               07.9807692338E+022.2697866147E+01+
*       3.7631332726E+01               0
GRID*               1689               05.4358973963E+024.4619989704E+01+
*       -4.342876798E+00               0
GRID*               1690               01.4096153846E+03-3.579699684E+01+
*       2.6636205583E+01               0
GRID*               1691               01.2224358974E+03-4.165296029E+01+
*       1.2494177346E+01               0
GRID*               1692               01.2057692308E+03-4.165296029E+01+
*       1.2494177347E+01               0
GRID*               1693               01.2737179487E+03-4.165296029E+01+
*       1.2494177347E+01               0
GRID*               1694               01.2224358974E+03-3.579699684E+01+
*       2.6636205582E+01               0
GRID*               1695               01.1858974359E+023.0664143049E-15+
*       -4.500000000E+01               0
GRID*               1696               01.1205128197E+031.6070650002E+01+
*       -3.915008461E+01               0
GRID*               1697               01.1858974359E+02-3.579699684E+01+
*       2.6636205576E+01               0
GRID*               1698               01.3076923077E+031.4138963601E+01+
*       -3.914530693E+01               0
GRID*               1699               07.1346154757E+023.8759187410E+01+
*       -1.848461233E+01               0
GRID*               1700               09.3397435929E+022.2697875235E+01+
*       3.7631329757E+01               0
GRID*               1701               09.1730769262E+028.5538387714E+00+
*       4.3491095236E+01               0
GRID*               1702               09.1666666698E+022.2697872506E+01+
*       3.7631330648E+01               0
GRID*               1703               09.0000000032E+022.2697872506E+01+
*       3.7631330648E+01               0
GRID*               1704               01.3416666667E+03-4.165296029E+01+
*       1.2494177347E+01               0
GRID*               1705               01.3243589744E+03-4.165296029E+01+
*       1.2494177347E+01               0
GRID*               1706               01.3076923077E+03-4.165296029E+01+
*       1.2494177347E+01               0
GRID*               1707               01.7826923077E+032.5081708472E-15+
*       -4.500000000E+01               0
GRID*               1708               01.5455128263E+03-4.461996259E+01+
*       -4.343082782E+00               0
GRID*               1709               01.5282051350E+03-4.461994423E+01+
*       -4.343222236E+00               0
GRID*               1710               01.5621794905E+033.0210105513E+01+
*       -3.329500187E+01               0
GRID*               1711               01.5621794899E+033.8759066282E+01+
*       -1.848553249E+01               0
GRID*               1712               01.5621794872E+03-4.165296029E+01+
*       1.2494177347E+01               0
GRID*               1713               02.7179487179E+024.1652960292E+01+
*       1.2494177347E+01               0
GRID*               1714               04.9230768620E+02-3.021045343E+01+
*       -3.329472627E+01               0
GRID*               1715               01.3589743457E+02-1.607090408E+01+
*       -3.914988334E+01               0
GRID*               1716               06.9615384615E+02-1.413896360E+01+
*       -3.914530693E+01               0
GRID*               1717               05.7756410142E+024.4620040198E+01+
*       -4.342493255E+00               0
GRID*               1718               05.6025640629E+024.4619989704E+01+
*       -4.342876798E+00               0
GRID*               1719               05.9423076241E+023.0208866106E+01+
*       -3.329598366E+01               0
GRID*               1720               01.1717948715E+03-2.269786573E+01+
*       3.7631332863E+01               0
GRID*               1721               01.1717948715E+03-8.553829263E+00+
*       4.3491098343E+01               0
GRID*               1722               08.9999999968E+02-8.553836043E+00+
*       4.3491096127E+01               0
GRID*               1723               01.3583333333E+03-1.413896358E+01+
*       -3.914530694E+01               0
GRID*               1724               01.3416666714E+03-1.607015557E+01+
*       -3.915047626E+01               0
GRID*               1725               07.8076924133E+023.8759213272E+01+
*       -1.848441590E+01               0
GRID*               1726               01.7487179491E+033.8759028191E+01+
*       -1.848582183E+01               0
GRID*               1727               01.7833333333E+03-3.875903049E+01+
*       -1.848584010E+01               0
GRID*               1728               01.7826923077E+03-3.020970640E+01+
*       -3.329531803E+01               0
GRID*               1729               01.7660256411E+03-3.020970638E+01+
*       -3.329531804E+01               0
GRID*               1730               01.5621794905E+031.6071141909E+01+
*       -3.914969494E+01               0
GRID*               1731               01.5455128238E+033.0210105512E+01+
*       -3.329500187E+01               0
GRID*               1732               07.8141025641E+023.5796996839E+01+
*       2.6636205582E+01               0
GRID*               1733               07.9807692308E+024.1652960294E+01+
*       1.2494177346E+01               0
GRID*               1734               07.8076923077E+024.1652960294E+01+
*       1.2494177346E+01               0
GRID*               1735               08.3205128236E+028.5538314441E+00+
*       4.3491097630E+01               0
GRID*               1736               08.3205128236E+022.2697867908E+01+
*       3.7631332151E+01               0
GRID*               1737               01.1884615382E+03-2.269786573E+01+
*       3.7631332863E+01               0
GRID*               1738               01.5621794929E+03-3.875892625E+01+
*       -1.848659601E+01               0
GRID*               1739               01.5621794929E+03-4.461996259E+01+
*       -4.343082783E+00               0
GRID*               1740               01.3243589818E+03-4.461992750E+01+
*       -4.343349299E+00               0
GRID*               1741               01.3076923152E+03-4.461992750E+01+
*       -4.343349299E+00               0
GRID*               1742               01.3076923152E+03-3.875889116E+01+
*       -1.848686252E+01               0
GRID*               1743               01.4775641026E+03-4.165296029E+01+
*       1.2494177347E+01               0
GRID*               1744               07.1346154117E+02-1.607041724E+01+
*       -3.915026899E+01               0
GRID*               1745               07.1346154117E+02-3.020938084E+01+
*       -3.329557592E+01               0
GRID*               1746               05.6025641026E+02-1.413896360E+01+
*       -3.914530693E+01               0
GRID*               1747               02.7179487179E+022.9534572207E-15+
*       -4.500000000E+01               0
GRID*               1748               01.3416666714E+03-3.020911916E+01+
*       -3.329578320E+01               0
GRID*               1749               01.3243589744E+03-1.413896358E+01+
*       -3.914530694E+01               0
GRID*               1750               01.0532051282E+03-4.165296029E+01+
*       1.2494177346E+01               0
GRID*               1751               01.0698717949E+03-3.579699684E+01+
*       2.6636205582E+01               0
GRID*               1752               01.0525641026E+03-3.579699684E+01+
*       2.6636205582E+01               0
GRID*               1753               01.0358974359E+03-4.165296029E+01+
*       1.2494177346E+01               0
GRID*               1754               08.9999999221E+021.6069792137E+01+
*       -3.915076416E+01               0
GRID*               1755               01.5794871795E+03-4.165296029E+01+
*       1.2494177347E+01               0
GRID*               1756               01.4942307692E+03-4.165296029E+01+
*       1.2494177347E+01               0
GRID*               1757               01.4942307769E+03-4.461992822E+01+
*       -4.343343840E+00               0
GRID*               1758               03.0576923077E+022.9399372616E-15+
*       -4.500000000E+01               0
GRID*               1759               03.1670262346E+029.2215075433E-01+
*       -4.703144805E+01               0
GRID*               1760               01.1205128205E+03-3.579699684E+01+
*       2.6636205582E+01               0
GRID*               1761               01.5794871842E+03-4.461998211E+01+
*       -4.342934488E+00               0
GRID*               1762               01.5794871842E+03-3.875894577E+01+
*       -1.848644772E+01               0
GRID*               1763               02.3782051282E+02-3.579699684E+01+
*       2.6636205577E+01               0
GRID*               1764               03.2243588981E+023.8758891880E+01+
*       -1.848685707E+01               0
GRID*               1765               01.6666666667E+01-1.607074549E+01+
*       -3.915001195E+01               0
GRID*               1766               02.8846153449E+02-3.021018866E+01+
*       -3.329493600E+01               0
GRID*               1767               03.0576922615E+02-3.021026745E+01+
*       -3.329487359E+01               0
GRID*               1768               03.0576922669E+02-3.875908997E+01+
*       -1.848535254E+01               0
GRID*               1769               06.2820512821E+023.5796996838E+01+
*       2.6636205582E+01               0
GRID*               1770               06.4551282051E+023.5796996838E+01+
*       2.6636205582E+01               0
GRID*               1771               01.7147435899E+032.2697937948E+01+
*       3.7631309264E+01               0
GRID*               1772               01.7493589745E+033.0209722917E+01+
*       -3.329530494E+01               0
GRID*               1773               01.3416666750E+03-4.461991265E+01+
*       -4.343462075E+00               0
GRID*               1774               07.4743590169E+02-1.607022684E+01+
*       -3.915041981E+01               0
GRID*               1775               07.6410256836E+02-1.607022684E+01+
*       -3.915041981E+01               0
GRID*               1776               07.3012820513E+022.8230550416E-15+
*       -4.500000000E+01               0
GRID*               1777               01.1858974279E+02-1.607084080E+01+
*       -3.914993346E+01               0
GRID*               1778               01.7320512821E+034.1652960298E+01+
*       1.2494177341E+01               0
GRID*               1779               01.7320512821E+033.5796996841E+01+
*       2.6636205576E+01               0
GRID*               1780               01.3589743457E+02-3.020986768E+01+
*       -3.329519027E+01               0
GRID*               1781               01.1858974279E+02-3.020980441E+01+
*       -3.329524038E+01               0
GRID*               1782               01.2903846154E+03-4.165296029E+01+
*       1.2494177347E+01               0
GRID*               1783               09.1666665888E+021.6069792137E+01+
*       -3.915076416E+01               0
GRID*               1784               08.6602564134E+022.2697870047E+01+
*       3.7631331452E+01               0
GRID*               1785               08.4871794903E+022.2697867908E+01+
*       3.7631332151E+01               0
GRID*               1786               05.7756410256E+024.1652960293E+01+
*       1.2494177346E+01               0
GRID*               1787               05.6025641026E+024.1652960293E+01+
*       1.2494177347E+01               0
GRID*               1788               05.9423076923E+023.5796996838E+01+
*       2.6636205583E+01               0
GRID*               1789               05.9423076923E+024.1652960293E+01+
*       1.2494177347E+01               0
GRID*               1790               02.7179486504E+023.8758907888E+01+
*       -1.848673546E+01               0
GRID*               1791               02.7179486966E+023.0209443795E+01+
*       -3.329552604E+01               0
GRID*               1792               01.6134615401E+034.4620083168E+01+
*       -4.342166863E+00               0
GRID*               1793               01.6128205150E+033.8759055963E+01+
*       -1.848561088E+01               0
GRID*               1794               01.5961538483E+034.4620092278E+01+
*       -4.342097670E+00               0
GRID*               1795               09.5128205097E+02-2.269786791E+01+
*       3.7631332151E+01               0
GRID*               1796               09.3397435866E+02-2.269787005E+01+
*       3.7631331452E+01               0
GRID*               1797               01.5794871816E+034.4620092278E+01+
*       -4.342097670E+00               0
GRID*               1798               01.5788461538E+034.1652960298E+01+
*       1.2494177341E+01               0
GRID*               1799               02.8846153170E+023.8758907889E+01+
*       -1.848673546E+01               0
GRID*               1800               02.5448717373E+024.4619962586E+01+
*       -4.343082782E+00               0
GRID*               1801               02.5448717373E+023.8758926247E+01+
*       -1.848659601E+01               0
GRID*               1802               01.6666666667E+01-3.020970909E+01+
*       -3.329531887E+01               0
GRID*               1803               03.3974358869E+01-1.607075931E+01+
*       -3.914999802E+01               0
GRID*               1804               05.0641025536E+01-3.020972292E+01+
*       -3.329530494E+01               0
GRID*               1805               03.3974358869E+01-3.020972292E+01+
*       -3.329530494E+01               0
GRID*               1806               05.0641025536E+01-1.607075931E+01+
*       -3.914999802E+01               0
GRID*               1807               02.7179486504E+024.4619944227E+01+
*       -4.343222236E+00               0
GRID*               1808               01.2397435897E+03-3.579699684E+01+
*       2.6636205583E+01               0
GRID*               1809               01.0185897319E+03-4.462026939E+01+
*       -4.340752376E+00               0
GRID*               1810               01.6814102571E+034.4620069145E+01+
*       -4.342273381E+00               0
GRID*               1811               01.5282051322E+033.0210188661E+01+
*       -3.329493600E+01               0
GRID*               1812               01.5455128205E+031.4138963604E+01+
*       -3.914530692E+01               0
GRID*               1813               01.5282051322E+031.6071225057E+01+
*       -3.914962908E+01               0
GRID*               1814               01.5448717983E+033.8759077669E+01+
*       -1.848544600E+01               0
GRID*               1815               01.5282051316E+033.8759077669E+01+
*       -1.848544600E+01               0
GRID*               1816               01.5115384683E+03-4.461994423E+01+
*       -4.343222236E+00               0
GRID*               1817               01.5282051316E+034.4620113984E+01+
*       -4.341932791E+00               0
GRID*               1818               01.3583333333E+033.5796996840E+01+
*       2.6636205578E+01               0
GRID*               1819               09.5064101840E+021.6069859753E+01+
*       -3.915071060E+01               0
GRID*               1820               09.5064101840E+023.0208823349E+01+
*       -3.329601753E+01               0
GRID*               1821               09.5064102564E+022.7872925761E-15+
*       -4.500000000E+01               0
GRID*               1822               09.3397435173E+021.6069859753E+01+
*       -3.915071060E+01               0
GRID*               1823               01.2737179545E+03-1.607002340E+01+
*       -3.915058097E+01               0
GRID*               1824               01.2057692308E+03-3.579699684E+01+
*       2.6636205583E+01               0
GRID*               1825               01.1884615385E+03-3.579699684E+01+
*       2.6636205582E+01               0
GRID*               1826               01.0532051279E+03-2.269786403E+01+
*       3.7631333417E+01               0
GRID*               1827               09.8461538462E+02-3.579699684E+01+
*       2.6636205581E+01               0
GRID*               1828               09.1730768506E+023.0208823347E+01+
*       -3.329601753E+01               0
GRID*               1829               08.8269230801E+022.2697870047E+01+
*       3.7631331452E+01               0
GRID*               1830               08.1474359005E+022.2697866147E+01+
*       3.7631332726E+01               0
GRID*               1831               07.6410256379E+02-2.269788460E+01+
*       3.7631326698E+01               0
GRID*               1832               07.4743590169E+02-3.020919044E+01+
*       -3.329572674E+01               0
GRID*               1833               07.3012820783E+02-1.607041724E+01+
*       -3.915026899E+01               0
GRID*               1834               01.5961538508E+03-3.875894577E+01+
*       -1.848644772E+01               0
GRID*               1835               01.5794871808E+03-3.020955154E+01+
*       -3.329544069E+01               0
GRID*               1836               01.5794871808E+03-1.607058796E+01+
*       -3.915013375E+01               0
GRID*               1837               01.5961538462E+03-1.413896358E+01+
*       -3.914530694E+01               0
GRID*               1838               01.3756410298E+03-1.607022315E+01+
*       -3.915042273E+01               0
GRID*               1839               02.8846153846E+022.9988145095E-15+
*       -4.500000000E+01               0
GRID*               1840               02.8846153449E+02-1.607122506E+01+
*       -3.914962908E+01               0
GRID*               1841               02.8846153632E+021.6070480214E+01+
*       -3.915021910E+01               0
GRID*               1842               05.7756410256E+023.5796996838E+01+
*       2.6636205582E+01               0
GRID*               1843               01.3756410298E+03-3.020918674E+01+
*       -3.329572967E+01               0
GRID*               1844               01.0192307613E+02-1.607084080E+01+
*       -3.914993346E+01               0
GRID*               1845               01.4602564103E+03-4.165296029E+01+
*       1.2494177347E+01               0
GRID*               1846               03.3401031264E+021.6992506985E+01+
*       -4.118176537E+01               0
GRID*               1847               01.2737179548E+03-4.461995267E+01+
*       -4.343158077E+00               0
GRID*               1848               07.1346153846E+022.7776977527E-15+
*       -4.500000000E+01               0
GRID*               1849               01.6666666667E+01-3.875903052E+01+
*       -1.848584007E+01               0
GRID*               1850               08.4615384447E+011.6070728087E+01+
*       -3.915002275E+01               0
GRID*               1851               00.0000000000E+00-1.607074560E+01+
*       -3.915001212E+01               0
GRID*               1852               00.0000000000E+003.0616168932E-15+
*       -4.500000000E+01               0
GRID*               1853               00.0000000000E+00-3.020970923E+01+
*       -3.329531911E+01               0
GRID*               1854               00.0000000000E+00-3.875903091E+01+
*       -1.848584019E+01               0
GRID*               1855               00.0000000000E+00-4.462006723E+01+
*       -4.342326968E+00               0
GRID*               1856               00.0000000000E+00-2.269793932E+01+
*       3.7631308840E+01               0
GRID*               1857               00.0000000000E+00-3.579699684E+01+
*       2.6636205587E+01               0
GRID*               1858               00.0000000000E+008.5539028596E+00+
*       4.3491074318E+01               0
GRID*               1859               00.0000000000E+00-8.553902860E+00+
*       4.3491074318E+01               0
GRID*               1860               00.0000000000E+00-4.165296029E+01+
*       1.2494177350E+01               0
GRID*               1861               00.0000000000E+001.6070745600E+01+
*       -3.915001212E+01               0
GRID*               1862               00.0000000000E+003.0209709194E+01+
*       -3.329531905E+01               0
GRID*               1863               00.0000000000E+003.8759030909E+01+
*       -1.848584019E+01               0
GRID*               1864               00.0000000000E+004.4620067234E+01+
*       -4.342326968E+00               0
GRID*               1865               00.0000000000E+003.5796996836E+01+
*       2.6636205587E+01               0
GRID*               1866               00.0000000000E+002.2697939323E+01+
*       3.7631308840E+01               0
GRID*               1867               00.0000000000E+004.1652960293E+01+
*       1.2494177350E+01               0
GRID*               1868               01.7666666667E+03-2.827792716E+01+
*       -2.829061389E+01               0
GRID*               1869               01.7666666667E+03-3.999999984E+01+
*       -3.587434474E-03               0
GRID*               1870               01.7666666667E+03-2.828807293E+01+
*       2.8280469039E+01               0
GRID*               1871               01.7666666667E+032.5734031402E-15+
*       4.0000000000E+01               0
GRID*               1872               01.7666666667E+032.8288072925E+01+
*       2.8280469044E+01               0
GRID*               1873               01.7666666667E+033.9999999839E+01+
*       -3.587426599E-03               0
GRID*               1874               01.7666666667E+032.8277927210E+01+
*       -2.829061384E+01               0
GRID*               1875               01.7333333333E+03-2.827792715E+01+
*       -2.829061389E+01               0
GRID*               1876               01.7333333333E+03-3.999999984E+01+
*       -3.587434504E-03               0
GRID*               1877               01.7333333333E+03-2.828807293E+01+
*       2.8280469038E+01               0
GRID*               1878               01.7333333333E+03-1.486547730E-14+
*       4.0000000000E+01               0
GRID*               1879               01.7333333333E+032.8288072925E+01+
*       2.8280469044E+01               0
GRID*               1880               01.7333333333E+033.9999999839E+01+
*       -3.587426616E-03               0
GRID*               1881               01.7333333333E+032.8277927210E+01+
*       -2.829061384E+01               0
GRID*               1882               01.7000000000E+03-2.827792715E+01+
*       -2.829061389E+01               0
GRID*               1883               01.7000000000E+03-3.999999984E+01+
*       -3.587434400E-03               0
GRID*               1884               01.7000000000E+03-2.828807293E+01+
*       2.8280469038E+01               0
GRID*               1885               01.7000000000E+031.0711547345E-14+
*       4.0000000000E+01               0
GRID*               1886               01.7000000000E+032.8288072925E+01+
*       2.8280469044E+01               0
GRID*               1887               01.7000000000E+033.9999999839E+01+
*       -3.587426644E-03               0
GRID*               1888               01.7000000000E+032.8277927210E+01+
*       -2.829061384E+01               0
GRID*               1889               01.6666666667E+03-2.827792716E+01+
*       -2.829061389E+01               0
GRID*               1890               01.6666666667E+03-3.999999984E+01+
*       -3.587434259E-03               0
GRID*               1891               01.6666666667E+03-2.828807293E+01+
*       2.8280469038E+01               0
GRID*               1892               01.6666666667E+03-6.727333094E-15+
*       4.0000000000E+01               0
GRID*               1893               01.6666666667E+032.8288072925E+01+
*       2.8280469044E+01               0
GRID*               1894               01.6666666667E+033.9999999839E+01+
*       -3.587426682E-03               0
GRID*               1895               01.6666666667E+032.8277927210E+01+
*       -2.829061385E+01               0
GRID*               1896               01.6333333333E+03-2.827792716E+01+
*       -2.829061389E+01               0
GRID*               1897               01.6333333333E+03-3.999999984E+01+
*       -3.587434100E-03               0
GRID*               1898               01.6333333333E+03-2.828807293E+01+
*       2.8280469038E+01               0
GRID*               1899               01.6333333333E+03-9.052517152E-15+
*       4.0000000000E+01               0
GRID*               1900               01.6333333333E+032.8288072925E+01+
*       2.8280469044E+01               0
GRID*               1901               01.6333333333E+033.9999999839E+01+
*       -3.587426731E-03               0
GRID*               1902               01.6333333333E+032.8277927209E+01+
*       -2.829061385E+01               0
GRID*               1903               01.6000000000E+03-2.827792716E+01+
*       -2.829061389E+01               0
GRID*               1904               01.6000000000E+03-3.999999984E+01+
*       -3.587433930E-03               0
GRID*               1905               01.6000000000E+03-2.828807293E+01+
*       2.8280469039E+01               0
GRID*               1906               01.6000000000E+033.0475611841E-14+
*       4.0000000000E+01               0
GRID*               1907               01.6000000000E+032.8288072925E+01+
*       2.8280469044E+01               0
GRID*               1908               01.6000000000E+033.9999999839E+01+
*       -3.587426789E-03               0
GRID*               1909               01.6000000000E+032.8277927209E+01+
*       -2.829061385E+01               0
GRID*               1910               01.5666666667E+03-2.827792716E+01+
*       -2.829061389E+01               0
GRID*               1911               01.5666666667E+03-3.999999984E+01+
*       -3.587433753E-03               0
GRID*               1912               01.5666666667E+03-2.828807293E+01+
*       2.8280469039E+01               0
GRID*               1913               01.5666666667E+034.0938940104E-14+
*       4.0000000000E+01               0
GRID*               1914               01.5666666667E+032.8288072925E+01+
*       2.8280469044E+01               0
GRID*               1915               01.5666666667E+033.9999999839E+01+
*       -3.587426858E-03               0
GRID*               1916               01.5666666667E+032.8277927208E+01+
*       -2.829061385E+01               0
GRID*               1917               01.5333333333E+03-2.827792716E+01+
*       -2.829061389E+01               0
GRID*               1918               01.5333333333E+03-3.999999984E+01+
*       -3.587433570E-03               0
GRID*               1919               01.5333333333E+03-2.828807293E+01+
*       2.8280469039E+01               0
GRID*               1920               01.5333333333E+032.4662651695E-14+
*       4.0000000000E+01               0
GRID*               1921               01.5333333333E+032.8288072925E+01+
*       2.8280469044E+01               0
GRID*               1922               01.5333333333E+033.9999999839E+01+
*       -3.587426935E-03               0
GRID*               1923               01.5333333333E+032.8277927208E+01+
*       -2.829061385E+01               0
GRID*               1924               01.5000000000E+03-2.827792716E+01+
*       -2.829061389E+01               0
GRID*               1925               01.5000000000E+03-3.999999984E+01+
*       -3.587433382E-03               0
GRID*               1926               01.5000000000E+03-2.828807293E+01+
*       2.8280469039E+01               0
GRID*               1927               01.5000000000E+03-2.184102947E-14+
*       4.0000000000E+01               0
GRID*               1928               01.5000000000E+032.8288072925E+01+
*       2.8280469044E+01               0
GRID*               1929               01.5000000000E+033.9999999839E+01+
*       -3.587427022E-03               0
GRID*               1930               01.5000000000E+032.8277927207E+01+
*       -2.829061385E+01               0
GRID*               1931               01.4666666667E+03-2.827792716E+01+
*       -2.829061388E+01               0
GRID*               1932               01.4666666667E+03-3.999999984E+01+
*       -3.587433190E-03               0
GRID*               1933               01.4666666667E+03-2.828807293E+01+
*       2.8280469039E+01               0
GRID*               1934               01.4666666667E+03-2.416621353E-14+
*       4.0000000000E+01               0
GRID*               1935               01.4666666667E+032.8288072925E+01+
*       2.8280469044E+01               0
GRID*               1936               01.4666666667E+033.9999999839E+01+
*       -3.587427117E-03               0
GRID*               1937               01.4666666667E+032.8277927207E+01+
*       -2.829061385E+01               0
GRID*               1938               01.4333333333E+03-2.827792716E+01+
*       -2.829061388E+01               0
GRID*               1939               01.4333333333E+03-3.999999984E+01+
*       -3.587432995E-03               0
GRID*               1940               01.4333333333E+03-2.828807293E+01+
*       2.8280469039E+01               0
GRID*               1941               01.4333333333E+031.4108111109E-15+
*       4.0000000000E+01               0
GRID*               1942               01.4333333333E+032.8288072925E+01+
*       2.8280469044E+01               0
GRID*               1943               01.4333333333E+033.9999999839E+01+
*       -3.587427220E-03               0
GRID*               1944               01.4333333333E+032.8277927206E+01+
*       -2.829061385E+01               0
GRID*               1945               01.4000000000E+03-2.827792717E+01+
*       -2.829061388E+01               0
GRID*               1946               01.4000000000E+03-3.999999984E+01+
*       -3.587432796E-03               0
GRID*               1947               01.4000000000E+03-2.828807293E+01+
*       2.8280469039E+01               0
GRID*               1948               01.4000000000E+032.6987835754E-14+
*       4.0000000000E+01               0
GRID*               1949               01.4000000000E+032.8288072925E+01+
*       2.8280469044E+01               0
GRID*               1950               01.4000000000E+033.9999999839E+01+
*       -3.587427332E-03               0
GRID*               1951               01.4000000000E+032.8277927205E+01+
*       -2.829061385E+01               0
GRID*               1952               01.3666666667E+03-2.827792717E+01+
*       -2.829061388E+01               0
GRID*               1953               01.3666666667E+03-3.999999984E+01+
*       -3.587432596E-03               0
GRID*               1954               01.3666666667E+03-2.828807293E+01+
*       2.8280469040E+01               0
GRID*               1955               01.3666666667E+03-4.402149035E-15+
*       4.0000000000E+01               0
GRID*               1956               01.3666666667E+032.8288072925E+01+
*       2.8280469044E+01               0
GRID*               1957               01.3666666667E+033.9999999839E+01+
*       -3.587427451E-03               0
GRID*               1958               01.3666666667E+032.8277927204E+01+
*       -2.829061385E+01               0
GRID*               1959               01.3333333333E+03-2.827792717E+01+
*       -2.829061388E+01               0
GRID*               1960               01.3333333333E+03-3.999999984E+01+
*       -3.587432394E-03               0
GRID*               1961               01.3333333333E+03-2.828807293E+01+
*       2.8280469040E+01               0
GRID*               1962               01.3333333333E+03-7.889925123E-15+
*       4.0000000000E+01               0
GRID*               1963               01.3333333333E+032.8288072926E+01+
*       2.8280469044E+01               0
GRID*               1964               01.3333333333E+033.9999999839E+01+
*       -3.587427578E-03               0
GRID*               1965               01.3333333333E+032.8277927203E+01+
*       -2.829061385E+01               0
GRID*               1966               01.3000000000E+03-2.827792717E+01+
*       -2.829061388E+01               0
GRID*               1967               01.3000000000E+03-3.999999984E+01+
*       -3.587432190E-03               0
GRID*               1968               01.3000000000E+03-2.828807293E+01+
*       2.8280469040E+01               0
GRID*               1969               01.3000000000E+03-1.021510918E-14+
*       4.0000000000E+01               0
GRID*               1970               01.3000000000E+032.8288072926E+01+
*       2.8280469044E+01               0
GRID*               1971               01.3000000000E+033.9999999839E+01+
*       -3.587427711E-03               0
GRID*               1972               01.3000000000E+032.8277927202E+01+
*       -2.829061385E+01               0
GRID*               1973               01.2666666667E+03-2.827792717E+01+
*       -2.829061388E+01               0
GRID*               1974               01.2666666667E+03-3.999999984E+01+
*       -3.587431984E-03               0
GRID*               1975               01.2666666667E+03-2.828807293E+01+
*       2.8280469040E+01               0
GRID*               1976               01.2666666667E+03-4.160509397E-14+
*       4.0000000000E+01               0
GRID*               1977               01.2666666667E+032.8288072926E+01+
*       2.8280469043E+01               0
GRID*               1978               01.2666666667E+033.9999999839E+01+
*       -3.587427852E-03               0
GRID*               1979               01.2666666667E+032.8277927201E+01+
*       -2.829061385E+01               0
GRID*               1980               01.2333333333E+03-2.827792717E+01+
*       -2.829061388E+01               0
GRID*               1981               01.2333333333E+03-3.999999984E+01+
*       -3.587431778E-03               0
GRID*               1982               01.2333333333E+03-2.828807293E+01+
*       2.8280469040E+01               0
GRID*               1983               01.2333333333E+03-1.602806933E-14+
*       4.0000000000E+01               0
GRID*               1984               01.2333333333E+032.8288072926E+01+
*       2.8280469043E+01               0
GRID*               1985               01.2333333333E+033.9999999839E+01+
*       -3.587427998E-03               0
GRID*               1986               01.2333333333E+032.8277927200E+01+
*       -2.829061385E+01               0
GRID*               1987               01.2000000000E+03-2.827792717E+01+
*       -2.829061387E+01               0
GRID*               1988               01.2000000000E+03-3.999999984E+01+
*       -3.587431572E-03               0
GRID*               1989               01.2000000000E+03-2.828807293E+01+
*       2.8280469040E+01               0
GRID*               1990               01.2000000000E+03-4.402149035E-15+
*       4.0000000000E+01               0
GRID*               1991               01.2000000000E+032.8288072926E+01+
*       2.8280469043E+01               0
GRID*               1992               01.2000000000E+033.9999999839E+01+
*       -3.587428151E-03               0
GRID*               1993               01.2000000000E+032.8277927199E+01+
*       -2.829061385E+01               0
GRID*               1994               01.1666666667E+03-2.827792718E+01+
*       -2.829061387E+01               0
GRID*               1995               01.1666666667E+03-3.999999984E+01+
*       -3.587431365E-03               0
GRID*               1996               01.1666666667E+03-2.828807293E+01+
*       2.8280469041E+01               0
GRID*               1997               01.1666666667E+033.5125979958E-14+
*       4.0000000000E+01               0
GRID*               1998               01.1666666667E+032.8288072926E+01+
*       2.8280469043E+01               0
GRID*               1999               01.1666666667E+033.9999999839E+01+
*       -3.587428310E-03               0
GRID*               2000               01.1666666667E+032.8277927198E+01+
*       -2.829061386E+01               0
GRID*               2001               01.1333333333E+03-2.827792718E+01+
*       -2.829061387E+01               0
GRID*               2002               01.1333333333E+03-3.999999984E+01+
*       -3.587431158E-03               0
GRID*               2003               01.1333333333E+03-2.828807293E+01+
*       2.8280469041E+01               0
GRID*               2004               01.1333333333E+033.7359951694E-15+
*       4.0000000000E+01               0
GRID*               2005               01.1333333333E+032.8288072926E+01+
*       2.8280469043E+01               0
GRID*               2006               01.1333333333E+033.9999999839E+01+
*       -3.587428474E-03               0
GRID*               2007               01.1333333333E+032.8277927197E+01+
*       -2.829061386E+01               0
GRID*               2008               01.1000000000E+03-2.827792718E+01+
*       -2.829061387E+01               0
GRID*               2009               01.1000000000E+03-3.999999984E+01+
*       -3.587430952E-03               0
GRID*               2010               01.1000000000E+03-2.828807293E+01+
*       2.8280469041E+01               0
GRID*               2011               01.1000000000E+031.5361915462E-14+
*       4.0000000000E+01               0
GRID*               2012               01.1000000000E+032.8288072926E+01+
*       2.8280469043E+01               0
GRID*               2013               01.1000000000E+033.9999999839E+01+
*       -3.587428643E-03               0
GRID*               2014               01.1000000000E+032.8277927196E+01+
*       -2.829061386E+01               0
GRID*               2015               01.0666666667E+03-2.827792718E+01+
*       -2.829061387E+01               0
GRID*               2016               01.0666666667E+03-3.999999984E+01+
*       -3.587430747E-03               0
GRID*               2017               01.0666666667E+03-2.828807293E+01+
*       2.8280469041E+01               0
GRID*               2018               01.0666666667E+031.1874139374E-14+
*       4.0000000000E+01               0
GRID*               2019               01.0666666667E+032.8288072927E+01+
*       2.8280469043E+01               0
GRID*               2020               01.0666666667E+033.9999999839E+01+
*       -3.587428817E-03               0
GRID*               2021               01.0666666667E+032.8277927194E+01+
*       -2.829061386E+01               0
GRID*               2022               01.0333333333E+03-2.827792718E+01+
*       -2.829061387E+01               0
GRID*               2023               01.0333333333E+03-3.999999984E+01+
*       -3.587430544E-03               0
GRID*               2024               01.0333333333E+03-2.828807293E+01+
*       2.8280469041E+01               0
GRID*               2025               01.0333333333E+032.3500059666E-14+
*       4.0000000000E+01               0
GRID*               2026               01.0333333333E+032.8288072927E+01+
*       2.8280469043E+01               0
GRID*               2027               01.0333333333E+033.9999999839E+01+
*       -3.587428995E-03               0
GRID*               2028               01.0333333333E+032.8277927193E+01+
*       -2.829061386E+01               0
GRID*               2029               01.0000000000E+03-2.827792718E+01+
*       -2.829061387E+01               0
GRID*               2030               01.0000000000E+03-3.999999984E+01+
*       -3.587430341E-03               0
GRID*               2031               01.0000000000E+03-2.828807293E+01+
*       2.8280469041E+01               0
GRID*               2032               01.0000000000E+033.5125979958E-14+
*       4.0000000000E+01               0
GRID*               2033               01.0000000000E+032.8288072927E+01+
*       2.8280469042E+01               0
GRID*               2034               01.0000000000E+033.9999999839E+01+
*       -3.587429177E-03               0
GRID*               2035               01.0000000000E+032.8277927192E+01+
*       -2.829061386E+01               0
GRID*               2036               09.6666666667E+02-2.827792718E+01+
*       -2.829061387E+01               0
GRID*               2037               09.6666666667E+02-3.999999984E+01+
*       -3.587430141E-03               0
GRID*               2038               09.6666666667E+02-2.828807293E+01+
*       2.8280469042E+01               0
GRID*               2039               09.6666666667E+02-2.532880556E-14+
*       4.0000000000E+01               0
GRID*               2040               09.6666666667E+022.8288072927E+01+
*       2.8280469042E+01               0
GRID*               2041               09.6666666667E+023.9999999839E+01+
*       -3.587429364E-03               0
GRID*               2042               09.6666666667E+022.8277927191E+01+
*       -2.829061386E+01               0
GRID*               2043               09.3333333333E+02-2.827792719E+01+
*       -2.829061387E+01               0
GRID*               2044               09.3333333333E+02-3.999999984E+01+
*       -3.587429942E-03               0
GRID*               2045               09.3333333333E+02-2.828807293E+01+
*       2.8280469042E+01               0
GRID*               2046               09.3333333333E+020.0000000000E+00+
*       4.0000000000E+01               0
GRID*               2047               09.3333333333E+022.8288072927E+01+
*       2.8280469042E+01               0
GRID*               2048               09.3333333333E+023.9999999839E+01+
*       -3.587429553E-03               0
GRID*               2049               09.3333333333E+022.8277927189E+01+
*       -2.829061386E+01               0
GRID*               2050               09.0000000000E+02-2.827792719E+01+
*       -2.829061386E+01               0
GRID*               2051               09.0000000000E+02-3.999999984E+01+
*       -3.587429747E-03               0
GRID*               2052               09.0000000000E+02-2.828807293E+01+
*       2.8280469042E+01               0
GRID*               2053               09.0000000000E+022.5825243724E-14+
*       4.0000000000E+01               0
GRID*               2054               09.0000000000E+022.8288072927E+01+
*       2.8280469042E+01               0
GRID*               2055               09.0000000000E+023.9999999839E+01+
*       -3.587429747E-03               0
GRID*               2056               09.0000000000E+022.8277927188E+01+
*       -2.829061386E+01               0
GRID*               2057               08.6666666667E+02-2.827792719E+01+
*       -2.829061386E+01               0
GRID*               2058               08.6666666667E+02-3.999999984E+01+
*       -3.587429554E-03               0
GRID*               2059               08.6666666667E+02-2.828807293E+01+
*       2.8280469042E+01               0
GRID*               2060               08.6666666667E+029.5489553154E-15+
*       4.0000000000E+01               0
GRID*               2061               08.6666666667E+022.8288072927E+01+
*       2.8280469042E+01               0
GRID*               2062               08.6666666667E+023.9999999839E+01+
*       -3.587429942E-03               0
GRID*               2063               08.6666666667E+022.8277927186E+01+
*       -2.829061387E+01               0
GRID*               2064               08.3333333333E+02-2.827792719E+01+
*       -2.829061386E+01               0
GRID*               2065               08.3333333333E+02-3.999999984E+01+
*       -3.587429364E-03               0
GRID*               2066               08.3333333333E+02-2.828807293E+01+
*       2.8280469042E+01               0
GRID*               2067               08.3333333333E+02-2.184102947E-14+
*       4.0000000000E+01               0
GRID*               2068               08.3333333333E+022.8288072928E+01+
*       2.8280469042E+01               0
GRID*               2069               08.3333333333E+023.9999999839E+01+
*       -3.587430141E-03               0
GRID*               2070               08.3333333333E+022.8277927185E+01+
*       -2.829061387E+01               0
GRID*               2071               08.0000000000E+02-2.827792719E+01+
*       -2.829061386E+01               0
GRID*               2072               08.0000000000E+02-3.999999984E+01+
*       -3.587429177E-03               0
GRID*               2073               08.0000000000E+02-2.828807293E+01+
*       2.8280469042E+01               0
GRID*               2074               08.0000000000E+02-2.474750955E-14+
*       4.0000000000E+01               0
GRID*               2075               08.0000000000E+022.8288072928E+01+
*       2.8280469041E+01               0
GRID*               2076               08.0000000000E+023.9999999839E+01+
*       -3.587430341E-03               0
GRID*               2077               08.0000000000E+022.8277927184E+01+
*       -2.829061387E+01               0
GRID*               2078               07.6666666667E+02-2.827792719E+01+
*       -2.829061386E+01               0
GRID*               2079               07.6666666667E+02-3.999999984E+01+
*       -3.587428995E-03               0
GRID*               2080               07.6666666667E+02-2.828807293E+01+
*       2.8280469043E+01               0
GRID*               2081               07.6666666667E+02-2.765398962E-14+
*       4.0000000000E+01               0
GRID*               2082               07.6666666667E+022.8288072928E+01+
*       2.8280469041E+01               0
GRID*               2083               07.6666666667E+023.9999999839E+01+
*       -3.587430543E-03               0
GRID*               2084               07.6666666667E+022.8277927182E+01+
*       -2.829061387E+01               0
GRID*               2085               07.3333333333E+02-2.827792719E+01+
*       -2.829061386E+01               0
GRID*               2086               07.3333333333E+02-3.999999984E+01+
*       -3.587428817E-03               0
GRID*               2087               07.3333333333E+02-2.828807293E+01+
*       2.8280469043E+01               0
GRID*               2088               07.3333333333E+02-3.172306172E-14+
*       4.0000000000E+01               0
GRID*               2089               07.3333333333E+022.8288072928E+01+
*       2.8280469041E+01               0
GRID*               2090               07.3333333333E+023.9999999839E+01+
*       -3.587430747E-03               0
GRID*               2091               07.3333333333E+022.8277927181E+01+
*       -2.829061387E+01               0
GRID*               2092               07.0000000000E+02-2.827792720E+01+
*       -2.829061386E+01               0
GRID*               2093               07.0000000000E+02-3.999999984E+01+
*       -3.587428643E-03               0
GRID*               2094               07.0000000000E+02-2.828807293E+01+
*       2.8280469043E+01               0
GRID*               2095               07.0000000000E+028.9676593008E-15+
*       4.0000000000E+01               0
GRID*               2096               07.0000000000E+022.8288072928E+01+
*       2.8280469041E+01               0
GRID*               2097               07.0000000000E+023.9999999839E+01+
*       -3.587430952E-03               0
GRID*               2098               07.0000000000E+022.8277927179E+01+
*       -2.829061387E+01               0
GRID*               2099               06.6666666667E+02-2.827792720E+01+
*       -2.829061386E+01               0
GRID*               2100               06.6666666667E+02-3.999999984E+01+
*       -3.587428474E-03               0
GRID*               2101               06.6666666667E+02-2.828807293E+01+
*       2.8280469043E+01               0
GRID*               2102               06.6666666667E+026.6424752424E-15+
*       4.0000000000E+01               0
GRID*               2103               06.6666666667E+022.8288072928E+01+
*       2.8280469041E+01               0
GRID*               2104               06.6666666667E+023.9999999839E+01+
*       -3.587431158E-03               0
GRID*               2105               06.6666666667E+022.8277927178E+01+
*       -2.829061387E+01               0
GRID*               2106               06.3333333333E+02-2.827792720E+01+
*       -2.829061386E+01               0
GRID*               2107               06.3333333333E+02-3.999999984E+01+
*       -3.587428310E-03               0
GRID*               2108               06.3333333333E+02-2.828807293E+01+
*       2.8280469043E+01               0
GRID*               2109               06.3333333333E+021.9921071255E-15+
*       4.0000000000E+01               0
GRID*               2110               06.3333333333E+022.8288072929E+01+
*       2.8280469041E+01               0
GRID*               2111               06.3333333333E+023.9999999839E+01+
*       -3.587431365E-03               0
GRID*               2112               06.3333333333E+022.8277927176E+01+
*       -2.829061387E+01               0
GRID*               2113               06.0000000000E+02-2.827792720E+01+
*       -2.829061385E+01               0
GRID*               2114               06.0000000000E+02-3.999999984E+01+
*       -3.587428151E-03               0
GRID*               2115               06.0000000000E+02-2.828807293E+01+
*       2.8280469043E+01               0
GRID*               2116               06.0000000000E+02-1.370288527E-14+
*       4.0000000000E+01               0
GRID*               2117               06.0000000000E+022.8288072929E+01+
*       2.8280469040E+01               0
GRID*               2118               06.0000000000E+023.9999999839E+01+
*       -3.587431572E-03               0
GRID*               2119               06.0000000000E+022.8277927175E+01+
*       -2.829061387E+01               0
GRID*               2120               05.6666666667E+02-2.827792720E+01+
*       -2.829061385E+01               0
GRID*               2121               05.6666666667E+02-3.999999984E+01+
*       -3.587427998E-03               0
GRID*               2122               05.6666666667E+02-2.828807293E+01+
*       2.8280469043E+01               0
GRID*               2123               05.6666666667E+02-3.239557006E-15+
*       4.0000000000E+01               0
GRID*               2124               05.6666666667E+022.8288072929E+01+
*       2.8280469040E+01               0
GRID*               2125               05.6666666667E+023.9999999839E+01+
*       -3.587431778E-03               0
GRID*               2126               05.6666666667E+022.8277927173E+01+
*       -2.829061388E+01               0
GRID*               2127               05.3333333333E+02-2.827792720E+01+
*       -2.829061385E+01               0
GRID*               2128               05.3333333333E+02-3.999999984E+01+
*       -3.587427852E-03               0
GRID*               2129               05.3333333333E+02-2.828807293E+01+
*       2.8280469043E+01               0
GRID*               2130               05.3333333333E+02-1.893454940E-14+
*       4.0000000000E+01               0
GRID*               2131               05.3333333333E+022.8288072929E+01+
*       2.8280469040E+01               0
GRID*               2132               05.3333333333E+023.9999999839E+01+
*       -3.587431984E-03               0
GRID*               2133               05.3333333333E+022.8277927172E+01+
*       -2.829061388E+01               0
GRID*               2134               05.0000000000E+02-2.827792720E+01+
*       -2.829061385E+01               0
GRID*               2135               05.0000000000E+02-3.999999984E+01+
*       -3.587427711E-03               0
GRID*               2136               05.0000000000E+02-2.828807293E+01+
*       2.8280469044E+01               0
GRID*               2137               05.0000000000E+025.4798832132E-15+
*       4.0000000000E+01               0
GRID*               2138               05.0000000000E+022.8288072929E+01+
*       2.8280469040E+01               0
GRID*               2139               05.0000000000E+023.9999999839E+01+
*       -3.587432190E-03               0
GRID*               2140               05.0000000000E+022.8277927170E+01+
*       -2.829061388E+01               0
GRID*               2141               04.6666666667E+02-2.827792720E+01+
*       -2.829061385E+01               0
GRID*               2142               04.6666666667E+02-3.999999984E+01+
*       -3.587427578E-03               0
GRID*               2143               04.6666666667E+02-2.828807293E+01+
*       2.8280469044E+01               0
GRID*               2144               04.6666666667E+021.7105803505E-14+
*       4.0000000000E+01               0
GRID*               2145               04.6666666667E+022.8288072929E+01+
*       2.8280469040E+01               0
GRID*               2146               04.6666666667E+023.9999999839E+01+
*       -3.587432394E-03               0
GRID*               2147               04.6666666667E+022.8277927169E+01+
*       -2.829061388E+01               0
GRID*               2148               04.3333333333E+02-2.827792720E+01+
*       -2.829061385E+01               0
GRID*               2149               04.3333333333E+02-3.999999984E+01+
*       -3.587427451E-03               0
GRID*               2150               04.3333333333E+02-2.828807293E+01+
*       2.8280469044E+01               0
GRID*               2151               04.3333333333E+022.8150427783E-14+
*       4.0000000000E+01               0
GRID*               2152               04.3333333333E+022.8288072929E+01+
*       2.8280469040E+01               0
GRID*               2153               04.3333333333E+023.9999999839E+01+
*       -3.587432596E-03               0
GRID*               2154               04.3333333333E+022.8277927167E+01+
*       -2.829061388E+01               0
GRID*               2155               04.0000000000E+02-2.827792721E+01+
*       -2.829061385E+01               0
GRID*               2156               04.0000000000E+02-3.999999984E+01+
*       -3.587427332E-03               0
GRID*               2157               04.0000000000E+02-2.828807293E+01+
*       2.8280469044E+01               0
GRID*               2158               04.0000000000E+02-1.690001335E-14+
*       4.0000000000E+01               0
GRID*               2159               04.0000000000E+022.8288072930E+01+
*       2.8280469039E+01               0
GRID*               2160               04.0000000000E+023.9999999839E+01+
*       -3.587432796E-03               0
GRID*               2161               04.0000000000E+022.8277927166E+01+
*       -2.829061388E+01               0
GRID*               2162               03.6666666667E+02-2.827792721E+01+
*       -2.829061385E+01               0
GRID*               2163               03.6666666667E+02-3.999999984E+01+
*       -3.587427220E-03               0
GRID*               2164               03.6666666667E+02-2.828807293E+01+
*       2.8280469044E+01               0
GRID*               2165               03.6666666667E+028.0957152789E-15+
*       4.0000000000E+01               0
GRID*               2166               03.6666666667E+022.8288072930E+01+
*       2.8280469039E+01               0
GRID*               2167               03.6666666667E+023.9999999839E+01+
*       -3.587432994E-03               0
GRID*               2168               03.6666666667E+022.8277927165E+01+
*       -2.829061388E+01               0
GRID*               2169               03.3333333333E+02-2.827792721E+01+
*       -2.829061385E+01               0
GRID*               2170               03.3333333333E+02-3.999999984E+01+
*       -3.587427117E-03               0
GRID*               2171               03.3333333333E+02-2.828807293E+01+
*       2.8280469044E+01               0
GRID*               2172               03.3333333333E+022.0593579593E-14+
*       4.0000000000E+01               0
GRID*               2173               03.3333333333E+022.8288072930E+01+
*       2.8280469039E+01               0
GRID*               2174               03.3333333333E+023.9999999839E+01+
*       -3.587433190E-03               0
GRID*               2175               03.3333333333E+022.8277927163E+01+
*       -2.829061388E+01               0
GRID*               2176               03.0000000000E+02-2.827792721E+01+
*       -2.829061385E+01               0
GRID*               2177               03.0000000000E+02-3.999999984E+01+
*       -3.587427022E-03               0
GRID*               2178               03.0000000000E+02-2.828807293E+01+
*       2.8280469044E+01               0
GRID*               2179               03.0000000000E+021.7105803505E-14+
*       4.0000000000E+01               0
GRID*               2180               03.0000000000E+022.8288072930E+01+
*       2.8280469039E+01               0
GRID*               2181               03.0000000000E+023.9999999839E+01+
*       -3.587433382E-03               0
GRID*               2182               03.0000000000E+022.8277927162E+01+
*       -2.829061389E+01               0
GRID*               2183               02.6666666667E+02-2.827792721E+01+
*       -2.829061385E+01               0
GRID*               2184               02.6666666667E+02-3.999999984E+01+
*       -3.587426935E-03               0
GRID*               2185               02.6666666667E+02-2.828807293E+01+
*       2.8280469044E+01               0
GRID*               2186               02.6666666667E+020.0000000000E+00+
*       4.0000000000E+01               0
GRID*               2187               02.6666666667E+022.8288072930E+01+
*       2.8280469039E+01               0
GRID*               2188               02.6666666667E+023.9999999839E+01+
*       -3.587433569E-03               0
GRID*               2189               02.6666666667E+022.8277927161E+01+
*       -2.829061389E+01               0
GRID*               2190               02.3333333333E+02-2.827792721E+01+
*       -2.829061385E+01               0
GRID*               2191               02.3333333333E+02-3.999999984E+01+
*       -3.587426858E-03               0
GRID*               2192               02.3333333333E+02-2.828807293E+01+
*       2.8280469044E+01               0
GRID*               2193               02.3333333333E+021.1002195352E-14+
*       4.0000000000E+01               0
GRID*               2194               02.3333333333E+022.8288072930E+01+
*       2.8280469039E+01               0
GRID*               2195               02.3333333333E+023.9999999839E+01+
*       -3.587433753E-03               0
GRID*               2196               02.3333333333E+022.8277927159E+01+
*       -2.829061389E+01               0
GRID*               2197               02.0000000000E+02-2.827792721E+01+
*       -2.829061385E+01               0
GRID*               2198               02.0000000000E+02-3.999999984E+01+
*       -3.587426789E-03               0
GRID*               2199               02.0000000000E+02-2.828807293E+01+
*       2.8280469044E+01               0
GRID*               2200               02.0000000000E+02-6.582009090E-15+
*       4.0000000000E+01               0
GRID*               2201               02.0000000000E+022.8288072930E+01+
*       2.8280469039E+01               0
GRID*               2202               02.0000000000E+023.9999999839E+01+
*       -3.587433930E-03               0
GRID*               2203               02.0000000000E+022.8277927158E+01+
*       -2.829061389E+01               0
GRID*               2204               01.6666666667E+02-2.827792721E+01+
*       -2.829061385E+01               0
GRID*               2205               01.6666666667E+02-3.999999984E+01+
*       -3.587426731E-03               0
GRID*               2206               01.6666666667E+02-2.828807292E+01+
*       2.8280469044E+01               0
GRID*               2207               01.6666666667E+02-9.052517152E-15+
*       4.0000000000E+01               0
GRID*               2208               01.6666666667E+022.8288072931E+01+
*       2.8280469038E+01               0
GRID*               2209               01.6666666667E+023.9999999839E+01+
*       -3.587434100E-03               0
GRID*               2210               01.6666666667E+022.8277927157E+01+
*       -2.829061389E+01               0
GRID*               2211               01.3333333333E+02-2.827792721E+01+
*       -2.829061385E+01               0
GRID*               2212               01.3333333333E+02-3.999999984E+01+
*       -3.587426682E-03               0
GRID*               2213               01.3333333333E+02-2.828807292E+01+
*       2.8280469044E+01               0
GRID*               2214               01.3333333333E+02-1.283094125E-14+
*       4.0000000000E+01               0
GRID*               2215               01.3333333333E+022.8288072931E+01+
*       2.8280469038E+01               0
GRID*               2216               01.3333333333E+023.9999999839E+01+
*       -3.587434259E-03               0
GRID*               2217               01.3333333333E+022.8277927156E+01+
*       -2.829061389E+01               0
GRID*               2218               01.0000000000E+02-2.827792721E+01+
*       -2.829061384E+01               0
GRID*               2219               01.0000000000E+02-3.999999984E+01+
*       -3.587426644E-03               0
GRID*               2220               09.9999999999E+01-2.828807292E+01+
*       2.8280469044E+01               0
GRID*               2221               01.0000000000E+021.2528097390E-14+
*       4.0000000000E+01               0
GRID*               2222               01.0000000000E+022.8288072931E+01+
*       2.8280469038E+01               0
GRID*               2223               01.0000000000E+023.9999999839E+01+
*       -3.587434400E-03               0
GRID*               2224               01.0000000000E+022.8277927155E+01+
*       -2.829061389E+01               0
GRID*               2225               06.6666666667E+01-2.827792721E+01+
*       -2.829061384E+01               0
GRID*               2226               06.6666666667E+01-3.999999984E+01+
*       -3.587426616E-03               0
GRID*               2227               06.6666666666E+01-2.828807292E+01+
*       2.8280469044E+01               0
GRID*               2228               06.6666666667E+012.4081355681E-14+
*       4.0000000000E+01               0
GRID*               2229               06.6666666667E+012.8288072931E+01+
*       2.8280469038E+01               0
GRID*               2230               06.6666666667E+013.9999999839E+01+
*       -3.587434504E-03               0
GRID*               2231               06.6666666667E+012.8277927155E+01+
*       -2.829061389E+01               0
GRID*               2232               03.3333333333E+01-2.827792721E+01+
*       -2.829061384E+01               0
GRID*               2233               03.3333333333E+01-3.999999984E+01+
*       -3.587426599E-03               0
GRID*               2234               03.3333333333E+01-2.828807292E+01+
*       2.8280469044E+01               0
GRID*               2235               03.3333333333E+012.2373798638E-14+
*       4.0000000000E+01               0
GRID*               2236               03.3333333333E+012.8288072930E+01+
*       2.8280469039E+01               0
GRID*               2237               03.3333333333E+013.9999999839E+01+
*       -3.587434474E-03               0
GRID*               2238               03.3333333334E+012.8277927156E+01+
*       -2.829061389E+01               0
GRID*               2239               01.7500000000E+03-2.827792715E+01+
*       -2.829061389E+01               0
GRID*               2240               01.7500000009E+03-3.695645948E+01+
*       -1.530294968E+01               0
GRID*               2241               01.7666666672E+03-3.695644901E+01+
*       -1.530297497E+01               0
GRID*               2242               01.7333333346E+03-3.695647378E+01+
*       -1.530291515E+01               0
GRID*               2243               01.7500000000E+03-3.999999984E+01+
*       -3.587434522E-03               0
GRID*               2244               01.7499999997E+03-3.695466996E+01+
*       1.5308103511E+01               0
GRID*               2245               01.7666666665E+03-3.695467348E+01+
*       1.5308095603E+01               0
GRID*               2246               01.7333333331E+03-3.695466513E+01+
*       1.5308114386E+01               0
GRID*               2247               01.7500000000E+03-2.828807293E+01+
*       2.8280469038E+01               0
GRID*               2248               01.7500000005E+03-1.531092257E+01+
*       3.6953673417E+01               0
GRID*               2249               01.7666666670E+03-1.531092334E+01+
*       3.6953673144E+01               0
GRID*               2250               01.7333333340E+03-1.531092150E+01+
*       3.6953673796E+01               0
GRID*               2251               01.7500000000E+03-6.727333094E-15+
*       4.0000000000E+01               0
GRID*               2252               01.7500000005E+031.5310943133E+01+
*       3.6953666138E+01               0
GRID*               2253               01.7666666670E+031.5310933044E+01+
*       3.6953669709E+01               0
GRID*               2254               01.7333333339E+031.5310955802E+01+
*       3.6953661653E+01               0
GRID*               2255               01.7500000000E+032.8288072925E+01+
*       2.8280469044E+01               0
GRID*               2256               01.7499999998E+033.6954690865E+01+
*       1.5308056540E+01               0
GRID*               2257               01.7666666665E+033.6954682960E+01+
*       1.5308074304E+01               0
GRID*               2258               01.7333333332E+033.6954701528E+01+
*       1.5308032577E+01               0
GRID*               2259               01.7500000000E+033.9999999839E+01+
*       -3.587426606E-03               0
GRID*               2260               01.7500000009E+033.6956421335E+01+
*       -1.530304181E+01               0
GRID*               2261               01.7666666672E+033.6956431779E+01+
*       -1.530301659E+01               0
GRID*               2262               01.7333333346E+033.6956407075E+01+
*       -1.530307625E+01               0
GRID*               2263               01.7500000000E+032.8277927210E+01+
*       -2.829061384E+01               0
GRID*               2264               01.7166666667E+03-2.827792715E+01+
*       -2.829061389E+01               0
GRID*               2265               01.7166666683E+03-3.695649169E+01+
*       -1.530287190E+01               0
GRID*               2266               01.7000000021E+03-3.695651300E+01+
*       -1.530282043E+01               0
GRID*               2267               01.7166666667E+03-3.999999984E+01+
*       -3.587434459E-03               0
GRID*               2268               01.7166666664E+03-3.695465902E+01+
*       1.5308128114E+01               0
GRID*               2269               01.6999999997E+03-3.695465169E+01+
*       1.5308144579E+01               0
GRID*               2270               01.7166666667E+03-2.828807293E+01+
*       2.8280469038E+01               0
GRID*               2271               01.7166666674E+03-1.531092014E+01+
*       3.6953674279E+01               0
GRID*               2272               01.7000000008E+03-1.531091849E+01+
*       3.6953674861E+01               0
GRID*               2273               01.7166666667E+03-9.052517152E-15+
*       4.0000000000E+01               0
GRID*               2274               01.7166666674E+031.5310970204E+01+
*       3.6953656555E+01               0
GRID*               2275               01.7000000008E+031.5310985489E+01+
*       3.6953651144E+01               0
GRID*               2276               01.7166666667E+032.8288072925E+01+
*       2.8280469044E+01               0
GRID*               2277               01.7166666666E+033.6954714712E+01+
*       1.5308002947E+01               0
GRID*               2278               01.7000000000E+033.6954730181E+01+
*       1.5307968183E+01               0
GRID*               2279               01.7166666667E+033.9999999839E+01+
*       -3.587426628E-03               0
GRID*               2280               01.7166666683E+033.6956389210E+01+
*       -1.530311939E+01               0
GRID*               2281               01.7000000021E+033.6956367953E+01+
*       -1.530317073E+01               0
GRID*               2282               01.7166666667E+032.8277927210E+01+
*       -2.829061384E+01               0
GRID*               2283               01.6833333333E+03-2.827792716E+01+
*       -2.829061389E+01               0
GRID*               2284               01.6833333359E+03-3.695653750E+01+
*       -1.530276127E+01               0
GRID*               2285               01.6666666698E+03-3.695656496E+01+
*       -1.530269496E+01               0
GRID*               2286               01.6833333333E+03-3.999999984E+01+
*       -3.587434332E-03               0
GRID*               2287               01.6833333331E+03-3.695464320E+01+
*       1.5308163664E+01               0
GRID*               2288               01.6666666665E+03-3.695463359E+01+
*       1.5308185251E+01               0
GRID*               2289               01.6833333333E+03-2.828807293E+01+
*       2.8280469038E+01               0
GRID*               2290               01.6833333343E+03-1.531091657E+01+
*       3.6953675542E+01               0
GRID*               2291               01.6666666677E+03-1.531091437E+01+
*       3.6953676319E+01               0
GRID*               2292               01.6833333333E+031.4108111109E-15+
*       4.0000000000E+01               0
GRID*               2293               01.6833333341E+031.5311000801E+01+
*       3.6953645723E+01               0
GRID*               2294               01.6666666675E+031.5311015280E+01+
*       3.6953640598E+01               0
GRID*               2295               01.6833333333E+032.8288072925E+01+
*       2.8280469044E+01               0
GRID*               2296               01.6833333335E+033.6954747694E+01+
*       1.5307928825E+01               0
GRID*               2297               01.6666666670E+033.6954767010E+01+
*       1.5307885416E+01               0
GRID*               2298               01.6833333333E+033.9999999839E+01+
*       -3.587426661E-03               0
GRID*               2299               01.6833333359E+033.6956343518E+01+
*       -1.530322974E+01               0
GRID*               2300               01.6666666698E+033.6956316124E+01+
*       -1.530329590E+01               0
GRID*               2301               01.6833333333E+032.8277927210E+01+
*       -2.829061385E+01               0
GRID*               2302               01.6500000000E+03-2.827792716E+01+
*       -2.829061389E+01               0
GRID*               2303               01.6500000037E+03-3.695659516E+01+
*       -1.530262201E+01               0
GRID*               2304               01.6333333376E+03-3.695662789E+01+
*       -1.530254297E+01               0
GRID*               2305               01.6500000000E+03-3.999999984E+01+
*       -3.587434181E-03               0
GRID*               2306               01.6499999999E+03-3.695462293E+01+
*       1.5308209222E+01               0
GRID*               2307               01.6333333334E+03-3.695461125E+01+
*       1.5308235457E+01               0
GRID*               2308               01.6500000000E+03-2.828807293E+01+
*       2.8280469038E+01               0
GRID*               2309               01.6500000011E+03-1.531091191E+01+
*       3.6953677189E+01               0
GRID*               2310               01.6333333345E+03-1.531090920E+01+
*       3.6953678151E+01               0
GRID*               2311               01.6500000000E+03-1.486547730E-14+
*       4.0000000000E+01               0
GRID*               2312               01.6500000008E+031.5311028060E+01+
*       3.6953636073E+01               0
GRID*               2313               01.6333333341E+031.5311038270E+01+
*       3.6953632459E+01               0
GRID*               2314               01.6500000000E+032.8288072925E+01+
*       2.8280469044E+01               0
GRID*               2315               01.6500000006E+033.6954787884E+01+
*       1.5307838504E+01               0
GRID*               2316               01.6333333341E+033.6954810070E+01+
*       1.5307788644E+01               0
GRID*               2317               01.6500000000E+033.9999999839E+01+
*       -3.587426705E-03               0
GRID*               2318               01.6500000037E+033.6956285987E+01+
*       -1.530336868E+01               0
GRID*               2319               01.6333333376E+033.6956253331E+01+
*       -1.530344754E+01               0
GRID*               2320               01.6500000000E+032.8277927209E+01+
*       -2.829061385E+01               0
GRID*               2321               01.6166666667E+03-2.827792716E+01+
*       -2.829061389E+01               0
GRID*               2322               01.6166666715E+03-3.695666292E+01+
*       -1.530245838E+01               0
GRID*               2323               01.6000000054E+03-3.695670001E+01+
*       -1.530236879E+01               0
GRID*               2324               01.6166666667E+03-3.999999984E+01+
*       -3.587434016E-03               0
GRID*               2325               01.6166666668E+03-3.695459863E+01+
*       1.5308263836E+01               0
GRID*               2326               01.6000000003E+03-3.695458510E+01+
*       1.5308294234E+01               0
GRID*               2327               01.6166666667E+03-2.828807293E+01+
*       2.8280469039E+01               0
GRID*               2328               01.6166666679E+03-1.531090623E+01+
*       3.6953679200E+01               0
GRID*               2329               01.6000000013E+03-1.531090302E+01+
*       3.6953680336E+01               0
GRID*               2330               01.6166666667E+031.0711547345E-14+
*       4.0000000000E+01               0
GRID*               2331               01.6166666674E+031.5311045032E+01+
*       3.6953630065E+01               0
GRID*               2332               01.6000000007E+031.5311047464E+01+
*       3.6953629204E+01               0
GRID*               2333               01.6166666667E+032.8288072925E+01+
*       2.8280469044E+01               0
GRID*               2334               01.6166666677E+033.6954833318E+01+
*       1.5307736397E+01               0
GRID*               2335               01.6000000013E+033.6954857378E+01+
*       1.5307682326E+01               0
GRID*               2336               01.6166666667E+033.9999999839E+01+
*       -3.587426759E-03               0
GRID*               2337               01.6166666715E+033.6956218378E+01+
*       -1.530353196E+01               0
GRID*               2338               01.6000000054E+033.6956181355E+01+
*       -1.530362137E+01               0
GRID*               2339               01.6166666667E+032.8277927209E+01+
*       -2.829061385E+01               0
GRID*               2340               01.5833333333E+03-2.827792716E+01+
*       -2.829061389E+01               0
GRID*               2341               01.5833333394E+03-3.695673895E+01+
*       -1.530227476E+01               0
GRID*               2342               01.5666666734E+03-3.695677950E+01+
*       -1.530217683E+01               0
GRID*               2343               01.5833333333E+03-3.999999984E+01+
*       -3.587433842E-03               0
GRID*               2344               01.5833333338E+03-3.695457073E+01+
*       1.5308326530E+01               0
GRID*               2345               01.5666666673E+03-3.695455557E+01+
*       1.5308360597E+01               0
GRID*               2346               01.5833333333E+03-2.828807293E+01+
*       2.8280469039E+01               0
GRID*               2347               01.5833333346E+03-1.531089958E+01+
*       3.6953681556E+01               0
GRID*               2348               01.5666666680E+03-1.531089591E+01+
*       3.6953682857E+01               0
GRID*               2349               01.5833333333E+033.6288571987E-14+
*       4.0000000000E+01               0
GRID*               2350               01.5833333340E+031.5311044676E+01+
*       3.6953630191E+01               0
GRID*               2351               01.5666666672E+031.5311035772E+01+
*       3.6953633344E+01               0
GRID*               2352               01.5833333333E+032.8288072925E+01+
*       2.8280469044E+01               0
GRID*               2353               01.5833333349E+033.6954881994E+01+
*       1.5307627005E+01               0
GRID*               2354               01.5666666685E+033.6954906909E+01+
*       1.5307571012E+01               0
GRID*               2355               01.5833333333E+033.9999999839E+01+
*       -3.587426822E-03               0
GRID*               2356               01.5833333394E+033.6956142489E+01+
*       -1.530371523E+01               0
GRID*               2357               01.5666666734E+033.6956102013E+01+
*       -1.530381298E+01               0
GRID*               2358               01.5833333333E+032.8277927209E+01+
*       -2.829061385E+01               0
GRID*               2359               01.5500000000E+03-2.827792716E+01+
*       -2.829061389E+01               0
GRID*               2360               01.5500000074E+03-3.695682142E+01+
*       -1.530207560E+01               0
GRID*               2361               01.5333333414E+03-3.695686447E+01+
*       -1.530197162E+01               0
GRID*               2362               01.5500000000E+03-3.999999984E+01+
*       -3.587433662E-03               0
GRID*               2363               01.5500000008E+03-3.695453968E+01+
*       1.5308396310E+01               0
GRID*               2364               01.5333333343E+03-3.695452311E+01+
*       1.5308433540E+01               0
GRID*               2365               01.5500000000E+03-2.828807293E+01+
*       2.8280469039E+01               0
GRID*               2366               01.5500000014E+03-1.531089201E+01+
*       3.6953684236E+01               0
GRID*               2367               01.5333333347E+03-1.531088790E+01+
*       3.6953685691E+01               0
GRID*               2368               01.5500000000E+033.2800795900E-14+
*       4.0000000000E+01               0
GRID*               2369               01.5500000004E+031.5311019847E+01+
*       3.6953638981E+01               0
GRID*               2370               01.5333333336E+031.5310995993E+01+
*       3.6953647425E+01               0
GRID*               2371               01.5500000000E+032.8288072925E+01+
*       2.8280469044E+01               0
GRID*               2372               01.5500000021E+033.6954931863E+01+
*       1.5307514931E+01               0
GRID*               2373               01.5333333358E+033.6954956592E+01+
*       1.5307459356E+01               0
GRID*               2374               01.5500000000E+033.9999999839E+01+
*       -3.587426895E-03               0
GRID*               2375               01.5500000073E+033.6956060162E+01+
*       -1.530391405E+01               0
GRID*               2376               01.5333333413E+033.6956017171E+01+
*       -1.530401788E+01               0
GRID*               2377               01.5500000000E+032.8277927208E+01+
*       -2.829061385E+01               0
GRID*               2378               01.5166666667E+03-2.827792716E+01+
*       -2.829061389E+01               0
GRID*               2379               01.5166666754E+03-3.695690842E+01+
*       -1.530186549E+01               0
GRID*               2380               01.5000000094E+03-3.695695302E+01+
*       -1.530175779E+01               0
GRID*               2381               01.5166666667E+03-3.999999984E+01+
*       -3.587433476E-03               0
GRID*               2382               01.5166666678E+03-3.695450593E+01+
*       1.5308472156E+01               0
GRID*               2383               01.5000000014E+03-3.695448819E+01+
*       1.5308512029E+01               0
GRID*               2384               01.5166666667E+03-2.828807293E+01+
*       2.8280469039E+01               0
GRID*               2385               01.5166666681E+03-1.531088358E+01+
*       3.6953687220E+01               0
GRID*               2386               01.5000000015E+03-1.531087906E+01+
*       3.6953688820E+01               0
GRID*               2387               01.5166666667E+031.4108111109E-15+
*       4.0000000000E+01               0
GRID*               2388               01.5166666668E+031.5310963288E+01+
*       3.6953659003E+01               0
GRID*               2389               01.5000000000E+031.5310920845E+01+
*       3.6953674028E+01               0
GRID*               2390               01.5166666667E+032.8288072925E+01+
*       2.8280469044E+01               0
GRID*               2391               01.5166666694E+033.6954980829E+01+
*       1.5307404887E+01               0
GRID*               2392               01.5000000030E+033.6955004303E+01+
*       1.5307352133E+01               0
GRID*               2393               01.5166666667E+033.9999999839E+01+
*       -3.587426977E-03               0
GRID*               2394               01.5166666710E+033.5547468403E+01+
*       -1.472561225E+01               0
GRID*               2395               01.5000000047E+033.5547446131E+01+
*       -1.472566604E+01               0
GRID*               2396               01.5166666667E+032.8277927208E+01+
*       -2.829061385E+01               0
GRID*               2397               01.4833333333E+03-2.827792716E+01+
*       -2.829061389E+01               0
GRID*               2398               01.4833333434E+03-3.695699801E+01+
*       -1.530164913E+01               0
GRID*               2399               01.4666666774E+03-3.695704315E+01+
*       -1.530154011E+01               0
GRID*               2400               01.4833333333E+03-3.999999984E+01+
*       -3.587433286E-03               0
GRID*               2401               01.4833333349E+03-3.695446995E+01+
*       1.5308553023E+01               0
GRID*               2402               01.4666666685E+03-3.695445127E+01+
*       1.5308595004E+01               0
GRID*               2403               01.4833333333E+03-2.828807293E+01+
*       2.8280469039E+01               0
GRID*               2404               01.4833333348E+03-1.531087435E+01+
*       3.6953690487E+01               0
GRID*               2405               01.4666666682E+03-1.531086945E+01+
*       3.6953692221E+01               0
GRID*               2406               01.4833333333E+03-1.602806933E-14+
*       4.0000000000E+01               0
GRID*               2407               01.4833333332E+031.5310877334E+01+
*       3.6953689431E+01               0
GRID*               2408               01.4666666664E+031.5310839287E+01+
*       3.6953702900E+01               0
GRID*               2409               01.4833333333E+032.8288072925E+01+
*       2.8280469044E+01               0
GRID*               2410               01.4833333366E+033.6955026740E+01+
*       1.5307301709E+01               0
GRID*               2411               01.4666666702E+033.6955047861E+01+
*       1.5307254243E+01               0
GRID*               2412               01.4833333333E+033.9999999839E+01+
*       -3.587427068E-03               0
GRID*               2413               01.4833333383E+033.5547423656E+01+
*       -1.472572032E+01               0
GRID*               2414               01.4666666720E+033.5547401103E+01+
*       -1.472577478E+01               0
GRID*               2415               01.4833333333E+032.8277927207E+01+
*       -2.829061385E+01               0
GRID*               2416               01.4500000000E+03-2.827792716E+01+
*       -2.829061388E+01               0
GRID*               2417               01.4500000114E+03-3.695708818E+01+
*       -1.530143137E+01               0
GRID*               2418               01.4333333453E+03-3.695713284E+01+
*       -1.530132352E+01               0
GRID*               2419               01.4500000000E+03-3.999999984E+01+
*       -3.587433093E-03               0
GRID*               2420               01.4500000020E+03-3.695443221E+01+
*       1.5308637835E+01               0
GRID*               2421               01.4333333356E+03-3.695441283E+01+
*       1.5308681375E+01               0
GRID*               2422               01.4500000000E+03-2.828807293E+01+
*       2.8280469039E+01               0
GRID*               2423               01.4500000015E+03-1.531086438E+01+
*       3.6953694017E+01               0
GRID*               2424               01.4333333349E+03-1.531085913E+01+
*       3.6953695874E+01               0
GRID*               2425               01.4500000000E+03-4.402149035E-15+
*       4.0000000000E+01               0
GRID*               2426               01.4499999996E+031.5310805940E+01+
*       3.6953714705E+01               0
GRID*               2427               01.4333333328E+031.5310776669E+01+
*       3.6953725067E+01               0
GRID*               2428               01.4500000000E+032.8288072925E+01+
*       2.8280469044E+01               0
GRID*               2429               01.4500000038E+033.6955067384E+01+
*       1.5307210369E+01               0
GRID*               2430               01.4333333374E+033.6955085020E+01+
*       1.5307170733E+01               0
GRID*               2431               01.4500000000E+033.9999999839E+01+
*       -3.587427168E-03               0
GRID*               2432               01.4500000057E+033.5547378600E+01+
*       -1.472582913E+01               0
GRID*               2433               01.4333333393E+033.5547356276E+01+
*       -1.472588304E+01               0
GRID*               2434               01.4500000000E+032.8277927206E+01+
*       -2.829061385E+01               0
GRID*               2435               01.4166666667E+03-2.827792717E+01+
*       -2.829061388E+01               0
GRID*               2436               01.4166666793E+03-3.695717686E+01+
*       -1.530121721E+01               0
GRID*               2437               01.4000000133E+03-3.695721997E+01+
*       -1.530111309E+01               0
GRID*               2438               01.4166666667E+03-3.999999984E+01+
*       -3.587432896E-03               0
GRID*               2439               01.4166666692E+03-3.695439321E+01+
*       1.5308725482E+01               0
GRID*               2440               01.4000000027E+03-3.695437339E+01+
*       1.5308770013E+01               0
GRID*               2441               01.4166666667E+03-2.828807293E+01+
*       2.8280469039E+01               0
GRID*               2442               01.4166666682E+03-1.531085373E+01+
*       3.6953697788E+01               0
GRID*               2443               01.4000000016E+03-1.531084816E+01+
*       3.6953699757E+01               0
GRID*               2444               01.4166666667E+037.2237712570E-15+
*       4.0000000000E+01               0
GRID*               2445               01.4166666660E+031.5310750956E+01+
*       3.6953734169E+01               0
GRID*               2446               01.3999999993E+031.5310728371E+01+
*       3.6953742164E+01               0
GRID*               2447               01.4166666667E+032.8288072925E+01+
*       2.8280469044E+01               0
GRID*               2448               01.4166666709E+033.6955100479E+01+
*       1.5307135992E+01               0
GRID*               2449               01.4000000045E+033.6955113463E+01+
*       1.5307106813E+01               0
GRID*               2450               01.4166666667E+033.9999999839E+01+
*       -3.587427275E-03               0
GRID*               2451               01.4166666730E+033.5547334265E+01+
*       -1.472593620E+01               0
GRID*               2452               01.4000000066E+033.5547312699E+01+
*       -1.472598828E+01               0
GRID*               2453               01.4166666667E+032.8277927205E+01+
*       -2.829061385E+01               0
GRID*               2454               01.3833333333E+03-2.827792717E+01+
*       -2.829061388E+01               0
GRID*               2455               01.3833333472E+03-3.695726190E+01+
*       -1.530101182E+01               0
GRID*               2456               01.3666666811E+03-3.695730237E+01+
*       -1.530091409E+01               0
GRID*               2457               01.3833333333E+03-3.999999984E+01+
*       -3.587432696E-03               0
GRID*               2458               01.3833333363E+03-3.695435345E+01+
*       1.5308814821E+01               0
GRID*               2459               01.3666666699E+03-3.695433346E+01+
*       1.5308859754E+01               0
GRID*               2460               01.3833333333E+03-2.828807293E+01+
*       2.8280469040E+01               0
GRID*               2461               01.3833333349E+03-1.531084245E+01+
*       3.6953701778E+01               0
GRID*               2462               01.3666666683E+03-1.531083661E+01+
*       3.6953703849E+01               0
GRID*               2463               01.3833333333E+031.8849691549E-14+
*       4.0000000000E+01               0
GRID*               2464               01.3833333325E+031.5310708549E+01+
*       3.6953749182E+01               0
GRID*               2465               01.3666666658E+031.5310691181E+01+
*       3.6953755330E+01               0
GRID*               2466               01.3833333333E+032.8288072925E+01+
*       2.8280469044E+01               0
GRID*               2467               01.3833333380E+033.6955123669E+01+
*       1.5307083876E+01               0
GRID*               2468               01.3666666714E+033.6955130790E+01+
*       1.5307067874E+01               0
GRID*               2469               01.3833333333E+033.9999999839E+01+
*       -3.587427390E-03               0
GRID*               2470               01.3833333472E+033.6955619912E+01+
*       -1.530497727E+01               0
GRID*               2471               01.3666666811E+033.6955579392E+01+
*       -1.530507512E+01               0
GRID*               2472               01.3833333333E+032.8277927205E+01+
*       -2.829061385E+01               0
GRID*               2473               01.3500000000E+03-2.827792717E+01+
*       -2.829061388E+01               0
GRID*               2474               01.3500000150E+03-3.695734109E+01+
*       -1.530082058E+01               0
GRID*               2475               01.3333333488E+03-3.695737777E+01+
*       -1.530073200E+01               0
GRID*               2476               01.3500000000E+03-3.999999984E+01+
*       -3.587432495E-03               0
GRID*               2477               01.3500000035E+03-3.695431348E+01+
*       1.5308904662E+01               0
GRID*               2478               01.3333333371E+03-3.695429358E+01+
*       1.5308949387E+01               0
GRID*               2479               01.3500000000E+03-2.828807293E+01+
*       2.8280469040E+01               0
GRID*               2480               01.3500000016E+03-1.531083063E+01+
*       3.6953705965E+01               0
GRID*               2481               01.3333333350E+03-1.531082453E+01+
*       3.6953708125E+01               0
GRID*               2482               01.3500000000E+031.4108111109E-15+
*       4.0000000000E+01               0
GRID*               2483               01.3499999990E+031.5310676004E+01+
*       3.6953760703E+01               0
GRID*               2484               01.3333333323E+031.5310662790E+01+
*       3.6953765380E+01               0
GRID*               2485               01.3500000000E+032.8288072926E+01+
*       2.8280469044E+01               0
GRID*               2486               01.3500000048E+033.6955134511E+01+
*       1.5307059511E+01               0
GRID*               2487               01.3333333382E+033.6955134511E+01+
*       1.5307059510E+01               0
GRID*               2488               01.3500000000E+033.9999999839E+01+
*       -3.587427513E-03               0
GRID*               2489               01.3500000149E+033.6955540603E+01+
*       -1.530516880E+01               0
GRID*               2490               01.3333333488E+033.6955503834E+01+
*       -1.530525759E+01               0
GRID*               2491               01.3500000000E+032.8277927204E+01+
*       -2.829061385E+01               0
GRID*               2492               01.3166666667E+03-2.827792717E+01+
*       -2.829061388E+01               0
GRID*               2493               01.3166666826E+03-3.695741210E+01+
*       -1.530064908E+01               0
GRID*               2494               01.3000000082E+03-3.554820365E+01+
*       -1.472383660E+01               0
GRID*               2495               01.3166666667E+03-3.999999984E+01+
*       -3.587432292E-03               0
GRID*               2496               01.3166666707E+03-3.695427383E+01+
*       1.5308993771E+01               0
GRID*               2497               01.3000000042E+03-3.695425430E+01+
*       1.5309037652E+01               0
GRID*               2498               01.3166666667E+03-2.828807293E+01+
*       2.8280469040E+01               0
GRID*               2499               01.3166666683E+03-1.531081831E+01+
*       3.6953710325E+01               0
GRID*               2500               01.3000000016E+03-1.531081199E+01+
*       3.6953712562E+01               0
GRID*               2501               01.3166666667E+03-1.602806933E-14+
*       4.0000000000E+01               0
GRID*               2502               01.3166666656E+031.5310651345E+01+
*       3.6953769432E+01               0
GRID*               2503               01.2999999989E+031.5310641495E+01+
*       3.6953772919E+01               0
GRID*               2504               01.3166666667E+032.8288072926E+01+
*       2.8280469044E+01               0
GRID*               2505               01.3166666715E+033.6955130464E+01+
*       1.5307068604E+01               0
GRID*               2506               01.3000000048E+033.6955122035E+01+
*       1.5307087548E+01               0
GRID*               2507               01.3166666667E+033.9999999839E+01+
*       -3.587427644E-03               0
GRID*               2508               01.3166666826E+033.6955469384E+01+
*       -1.530534079E+01               0
GRID*               2509               01.3000000163E+033.6955437556E+01+
*       -1.530541766E+01               0
GRID*               2510               01.3166666667E+032.8277927203E+01+
*       -2.829061385E+01               0
GRID*               2511               01.2833333333E+03-2.827792717E+01+
*       -2.829061388E+01               0
GRID*               2512               01.2833333417E+03-3.554821802E+01+
*       -1.472380190E+01               0
GRID*               2513               01.2666666752E+03-3.554823074E+01+
*       -1.472377117E+01               0
GRID*               2514               01.2833333333E+03-3.999999984E+01+
*       -3.587432087E-03               0
GRID*               2515               01.2833333378E+03-3.695423507E+01+
*       1.5309080862E+01               0
GRID*               2516               01.2666666714E+03-3.695421622E+01+
*       1.5309123231E+01               0
GRID*               2517               01.2833333333E+03-2.828807293E+01+
*       2.8280469040E+01               0
GRID*               2518               01.2833333350E+03-1.531080557E+01+
*       3.6953714834E+01               0
GRID*               2519               01.2666666683E+03-1.531079907E+01+
*       3.6953717137E+01               0
GRID*               2520               01.2833333333E+03-3.230435774E-14+
*       4.0000000000E+01               0
GRID*               2521               01.2833333322E+031.5310633092E+01+
*       3.6953775893E+01               0
GRID*               2522               01.2666666655E+031.5310626005E+01+
*       3.6953778402E+01               0
GRID*               2523               01.2833333333E+032.8288072926E+01+
*       2.8280469044E+01               0
GRID*               2524               01.2833333381E+033.6955108882E+01+
*       1.5307117109E+01               0
GRID*               2525               01.2666666712E+033.6955090653E+01+
*       1.5307158075E+01               0
GRID*               2526               01.2833333333E+033.9999999839E+01+
*       -3.587427781E-03               0
GRID*               2527               01.2833333501E+033.6955408662E+01+
*       -1.530548744E+01               0
GRID*               2528               01.2666666837E+033.6955383021E+01+
*       -1.530554936E+01               0
GRID*               2529               01.2833333333E+032.8277927202E+01+
*       -2.829061385E+01               0
GRID*               2530               01.2500000000E+03-2.827792717E+01+
*       -2.829061388E+01               0
GRID*               2531               01.2500000087E+03-3.554824166E+01+
*       -1.472374479E+01               0
GRID*               2532               01.2333333421E+03-3.554825061E+01+
*       -1.472372318E+01               0
GRID*               2533               01.2500000000E+03-3.999999984E+01+
*       -3.587431881E-03               0
GRID*               2534               01.2500000050E+03-3.695419782E+01+
*       1.5309164585E+01               0
GRID*               2535               01.2333333385E+03-3.695417995E+01+
*       1.5309204745E+01               0
GRID*               2536               01.2500000000E+03-2.828807293E+01+
*       2.8280469040E+01               0
GRID*               2537               01.2500000016E+03-1.531079248E+01+
*       3.6953719468E+01               0
GRID*               2538               01.2333333350E+03-1.531078583E+01+
*       3.6953721824E+01               0
GRID*               2539               01.2500000000E+03-2.184102947E-14+
*       4.0000000000E+01               0
GRID*               2540               01.2499999988E+031.5310620115E+01+
*       3.6953780487E+01               0
GRID*               2541               01.2333333321E+031.5310615321E+01+
*       3.6953782184E+01               0
GRID*               2542               01.2500000000E+032.8288072926E+01+
*       2.8280469043E+01               0
GRID*               2543               01.2500000043E+033.6955066989E+01+
*       1.5307211255E+01               0
GRID*               2544               01.2333333373E+033.6955037523E+01+
*       1.5307277477E+01               0
GRID*               2545               01.2500000000E+033.9999999839E+01+
*       -3.587427924E-03               0
GRID*               2546               01.2500000173E+033.6955360960E+01+
*       -1.530560264E+01               0
GRID*               2547               01.2333333509E+033.6955342816E+01+
*       -1.530564646E+01               0
GRID*               2548               01.2500000000E+032.8277927201E+01+
*       -2.829061385E+01               0
GRID*               2549               01.2166666667E+03-2.827792717E+01+
*       -2.829061388E+01               0
GRID*               2550               01.2166666755E+03-3.554825741E+01+
*       -1.472370676E+01               0
GRID*               2551               01.2000000089E+03-3.554826189E+01+
*       -1.472369595E+01               0
GRID*               2552               01.2166666667E+03-3.999999984E+01+
*       -3.587431675E-03               0
GRID*               2553               01.2166666721E+03-3.695416269E+01+
*       1.5309243526E+01               0
GRID*               2554               01.2000000056E+03-3.695414614E+01+
*       1.5309280739E+01               0
GRID*               2555               01.2166666667E+03-2.828807293E+01+
*       2.8280469040E+01               0
GRID*               2556               01.2166666683E+03-1.531077911E+01+
*       3.6953724202E+01               0
GRID*               2557               01.2000000016E+03-1.531077234E+01+
*       3.6953726597E+01               0
GRID*               2558               01.2166666667E+03-1.021510918E-14+
*       4.0000000000E+01               0
GRID*               2559               01.2166666654E+031.5310611530E+01+
*       3.6953783526E+01               0
GRID*               2560               01.1999999987E+031.5310608660E+01+
*       3.6953784543E+01               0
GRID*               2561               01.2166666667E+032.8288072926E+01+
*       2.8280469043E+01               0
GRID*               2562               01.2166666703E+033.6955001875E+01+
*       1.5307357591E+01               0
GRID*               2563               01.2000000032E+033.6954959655E+01+
*       1.5307452474E+01               0
GRID*               2564               01.2166666667E+033.9999999839E+01+
*       -3.587428074E-03               0
GRID*               2565               01.2166666844E+033.6955328934E+01+
*       -1.530567998E+01               0
GRID*               2566               01.2000000178E+033.6955319670E+01+
*       -1.530570236E+01               0
GRID*               2567               01.2166666667E+032.8277927200E+01+
*       -2.829061385E+01               0
GRID*               2568               01.1833333333E+03-2.827792718E+01+
*       -2.829061387E+01               0
GRID*               2569               01.1833333422E+03-3.554826385E+01+
*       -1.472369121E+01               0
GRID*               2570               01.1666666755E+03-3.554826312E+01+
*       -1.472369298E+01               0
GRID*               2571               01.1833333333E+03-3.999999984E+01+
*       -3.587431468E-03               0
GRID*               2572               01.1833333392E+03-3.695413036E+01+
*       1.5309316189E+01               0
GRID*               2573               01.1666666727E+03-3.695411546E+01+
*       1.5309349675E+01               0
GRID*               2574               01.1833333333E+03-2.828807293E+01+
*       2.8280469041E+01               0
GRID*               2575               01.1833333350E+03-1.531076554E+01+
*       3.6953729008E+01               0
GRID*               2576               01.1666666683E+03-1.531075870E+01+
*       3.6953731430E+01               0
GRID*               2577               01.1833333333E+031.5361915462E-14+
*       4.0000000000E+01               0
GRID*               2578               01.1833333320E+031.5310606635E+01+
*       3.6953785259E+01               0
GRID*               2579               01.1666666653E+031.5310605389E+01+
*       3.6953785701E+01               0
GRID*               2580               01.1833333333E+032.8288072926E+01+
*       2.8280469043E+01               0
GRID*               2581               01.1833333360E+033.6954910463E+01+
*       1.5307563025E+01               0
GRID*               2582               01.1666666687E+033.6954853886E+01+
*       1.5307690174E+01               0
GRID*               2583               01.1833333333E+033.9999999839E+01+
*       -3.587428230E-03               0
GRID*               2584               01.1833333511E+033.6955315390E+01+
*       -1.530571269E+01               0
GRID*               2585               01.1666666844E+033.6955316472E+01+
*       -1.530571008E+01               0
GRID*               2586               01.1833333333E+032.8277927199E+01+
*       -2.829061385E+01               0
GRID*               2587               01.1500000000E+03-2.827792718E+01+
*       -2.829061387E+01               0
GRID*               2588               01.1500000087E+03-3.554825949E+01+
*       -1.472370175E+01               0
GRID*               2589               01.1333333506E+03-3.695754201E+01+
*       -1.530033536E+01               0
GRID*               2590               01.1500000000E+03-3.999999984E+01+
*       -3.587431262E-03               0
GRID*               2591               01.1500000062E+03-3.695410153E+01+
*       1.5309380991E+01               0
GRID*               2592               01.1333333397E+03-3.695408865E+01+
*       1.5309409922E+01               0
GRID*               2593               01.1500000000E+03-2.828807293E+01+
*       2.8280469041E+01               0
GRID*               2594               01.1500000016E+03-1.531075183E+01+
*       3.6953733859E+01               0
GRID*               2595               01.1333333350E+03-1.531074496E+01+
*       3.6953736292E+01               0
GRID*               2596               01.1500000000E+031.1874139374E-14+
*       4.0000000000E+01               0
GRID*               2597               01.1499999986E+031.5310604861E+01+
*       3.6953785887E+01               0
GRID*               2598               01.1333333319E+031.5310604996E+01+
*       3.6953785840E+01               0
GRID*               2599               01.1500000000E+032.8288072926E+01+
*       2.8280469043E+01               0
GRID*               2600               01.1500000013E+033.6954789497E+01+
*       1.5307834878E+01               0
GRID*               2601               01.1333333338E+033.6954716857E+01+
*       1.5307998128E+01               0
GRID*               2602               01.1500000000E+033.9999999839E+01+
*       -3.587428391E-03               0
GRID*               2603               01.1500000175E+033.6955323308E+01+
*       -1.530569357E+01               0
GRID*               2604               01.1333333506E+033.6955336300E+01+
*       -1.530566219E+01               0
GRID*               2605               01.1500000000E+032.8277927197E+01+
*       -2.829061386E+01               0
GRID*               2606               01.1166666667E+03-2.827792718E+01+
*       -2.829061387E+01               0
GRID*               2607               01.1166666835E+03-3.695752192E+01+
*       -1.530038386E+01               0
GRID*               2608               01.1000000164E+03-3.695749479E+01+
*       -1.530044939E+01               0
GRID*               2609               01.1166666667E+03-3.999999984E+01+
*       -3.587431055E-03               0
GRID*               2610               01.1166666732E+03-3.695407694E+01+
*       1.5309436246E+01               0
GRID*               2611               01.1000000067E+03-3.695406649E+01+
*       1.5309459734E+01               0
GRID*               2612               01.1166666667E+03-2.828807293E+01+
*       2.8280469041E+01               0
GRID*               2613               01.1166666683E+03-1.531073809E+01+
*       3.6953738725E+01               0
GRID*               2614               01.1000000016E+03-1.531073122E+01+
*       3.6953741155E+01               0
GRID*               2615               01.1166666667E+039.5489553154E-15+
*       4.0000000000E+01               0
GRID*               2616               01.1166666652E+031.5310605743E+01+
*       3.6953785575E+01               0
GRID*               2617               01.0999999985E+031.5310607056E+01+
*       3.6953785110E+01               0
GRID*               2618               01.1166666667E+032.8288072926E+01+
*       2.8280469043E+01               0
GRID*               2619               01.1166666662E+033.6954637450E+01+
*       1.5308176583E+01               0
GRID*               2620               01.0999999987E+033.6954563007E+01+
*       1.5308343883E+01               0
GRID*               2621               01.1166666667E+033.9999999839E+01+
*       -3.587428558E-03               0
GRID*               2622               01.1166666836E+033.6955355867E+01+
*       -1.530561494E+01               0
GRID*               2623               01.1000000165E+033.6955382442E+01+
*       -1.530555076E+01               0
GRID*               2624               01.1166666667E+032.8277927196E+01+
*       -2.829061386E+01               0
GRID*               2625               01.0833333333E+03-2.827792718E+01+
*       -2.829061387E+01               0
GRID*               2626               01.0833333491E+03-3.695746015E+01+
*       -1.530053305E+01               0
GRID*               2627               01.0666666818E+03-3.695741753E+01+
*       -1.530063598E+01               0
GRID*               2628               01.0833333333E+03-3.999999984E+01+
*       -3.587430850E-03               0
GRID*               2629               01.0833333401E+03-3.695405741E+01+
*       1.5309480149E+01               0
GRID*               2630               01.0666666736E+03-3.695404980E+01+
*       1.5309497242E+01               0
GRID*               2631               01.0833333333E+03-2.828807293E+01+
*       2.8280469041E+01               0
GRID*               2632               01.0833333350E+03-1.531072438E+01+
*       3.6953743577E+01               0
GRID*               2633               01.0666666683E+03-1.531071757E+01+
*       3.6953745987E+01               0
GRID*               2634               01.0833333333E+037.2237712570E-15+
*       4.0000000000E+01               0
GRID*               2635               01.0833333318E+031.5310608892E+01+
*       3.6953784460E+01               0
GRID*               2636               01.0666666652E+031.5310611213E+01+
*       3.6953783639E+01               0
GRID*               2637               01.0833333333E+032.8288072926E+01+
*       2.8280469043E+01               0
GRID*               2638               01.0833333313E+033.6954495185E+01+
*       1.5308496302E+01               0
GRID*               2639               01.0666666639E+033.6954433552E+01+
*       1.5308634814E+01               0
GRID*               2640               01.0833333333E+033.9999999839E+01+
*       -3.587428729E-03               0
GRID*               2641               01.0833333492E+033.6955416476E+01+
*       -1.530546857E+01               0
GRID*               2642               01.0666666819E+033.6955458435E+01+
*       -1.530536724E+01               0
GRID*               2643               01.0833333333E+032.8277927195E+01+
*       -2.829061386E+01               0
GRID*               2644               01.0500000000E+03-2.827792718E+01+
*       -2.829061387E+01               0
GRID*               2645               01.0500000143E+03-3.695736644E+01+
*       -1.530075936E+01               0
GRID*               2646               01.0333333467E+03-3.695730638E+01+
*       -1.530090441E+01               0
GRID*               2647               01.0500000000E+03-3.999999984E+01+
*       -3.587430645E-03               0
GRID*               2648               01.0500000070E+03-3.695404379E+01+
*       1.5309510758E+01               0
GRID*               2649               01.0333333404E+03-3.695403948E+01+
*       1.5309520427E+01               0
GRID*               2650               01.0500000000E+03-2.828807293E+01+
*       2.8280469041E+01               0
GRID*               2651               01.0500000016E+03-1.531071081E+01+
*       3.6953748380E+01               0
GRID*               2652               01.0333333350E+03-1.531070411E+01+
*       3.6953750754E+01               0
GRID*               2653               01.0500000000E+031.7687099520E-14+
*       4.0000000000E+01               0
GRID*               2654               01.0499999985E+031.5310613983E+01+
*       3.6953782658E+01               0
GRID*               2655               01.0333333318E+031.5310617167E+01+
*       3.6953781531E+01               0
GRID*               2656               01.0500000000E+032.8288072927E+01+
*       2.8280469043E+01               0
GRID*               2657               01.0499999966E+033.6954377707E+01+
*       1.5308760317E+01               0
GRID*               2658               01.0333333294E+033.6954327283E+01+
*       1.5308873637E+01               0
GRID*               2659               01.0500000000E+033.9999999839E+01+
*       -3.587428905E-03               0
GRID*               2660               01.0500000144E+033.6955508808E+01+
*       -1.530524558E+01               0
GRID*               2661               01.0333333468E+033.6955568102E+01+
*       -1.530510239E+01               0
GRID*               2662               01.0500000000E+032.8277927194E+01+
*       -2.829061386E+01               0
GRID*               2663               01.0166666667E+03-2.827792718E+01+
*       -2.829061387E+01               0
GRID*               2664               01.0166666789E+03-3.695723680E+01+
*       -1.530107244E+01               0
GRID*               2665               01.0000000110E+03-3.695715716E+01+
*       -1.530126478E+01               0
GRID*               2666               01.0166666667E+03-3.999999984E+01+
*       -3.587430442E-03               0
GRID*               2667               01.0166666738E+03-3.695403702E+01+
*       1.5309525971E+01               0
GRID*               2668               01.0000000071E+03-3.695403651E+01+
*       1.5309527097E+01               0
GRID*               2669               01.0166666667E+03-2.828807293E+01+
*       2.8280469041E+01               0
GRID*               2670               01.0166666683E+03-1.531069747E+01+
*       3.6953753102E+01               0
GRID*               2671               01.0000000016E+03-1.531069093E+01+
*       3.6953755420E+01               0
GRID*               2672               01.0166666667E+032.9313019812E-14+
*       4.0000000000E+01               0
GRID*               2673               01.0166666651E+031.5310620735E+01+
*       3.6953780268E+01               0
GRID*               2674               09.9999999845E+021.5310624657E+01+
*       3.6953778880E+01               0
GRID*               2675               01.0166666667E+032.8288072927E+01+
*       2.8280469042E+01               0
GRID*               2676               01.0166666622E+033.6954281940E+01+
*       1.5308975538E+01               0
GRID*               2677               09.9999999505E+023.6954241363E+01+
*       1.5309066729E+01               0
GRID*               2678               01.0166666667E+033.9999999839E+01+
*       -3.587429086E-03               0
GRID*               2679               01.0166666790E+033.6955636848E+01+
*       -1.530493636E+01               0
GRID*               2680               01.0000000111E+033.6955715601E+01+
*       -1.530474617E+01               0
GRID*               2681               01.0166666667E+032.8277927193E+01+
*       -2.829061386E+01               0
GRID*               2682               09.8333333333E+02-2.827792718E+01+
*       -2.829061387E+01               0
GRID*               2683               09.8333334293E+02-3.695706686E+01+
*       -1.530148285E+01               0
GRID*               2684               09.6666667469E+02-3.695696530E+01+
*       -1.530172813E+01               0
GRID*               2685               09.8333333333E+02-3.999999984E+01+
*       -3.587430241E-03               0
GRID*               2686               09.8333334047E+02-3.695403812E+01+
*       1.5309523499E+01               0
GRID*               2687               09.6666667378E+02-3.695404196E+01+
*       1.5309514857E+01               0
GRID*               2688               09.8333333333E+02-2.828807293E+01+
*       2.8280469042E+01               0
GRID*               2689               09.8333333496E+02-1.531068448E+01+
*       3.6953757703E+01               0
GRID*               2690               09.6666666829E+02-1.531067814E+01+
*       3.6953759947E+01               0
GRID*               2691               09.8333333333E+021.1874139374E-14+
*       4.0000000000E+01               0
GRID*               2692               09.8333333178E+021.5310628906E+01+
*       3.6953777375E+01               0
GRID*               2693               09.6666666510E+021.5310633458E+01+
*       3.6953775764E+01               0
GRID*               2694               09.8333333333E+022.8288072927E+01+
*       2.8280469042E+01               0
GRID*               2695               09.8333332798E+023.6954205260E+01+
*       1.5309147867E+01               0
GRID*               2696               09.6666666095E+023.6954173357E+01+
*       1.5309219564E+01               0
GRID*               2697               09.8333333333E+023.9999999839E+01+
*       -3.587429270E-03               0
GRID*               2698               09.8333334307E+023.6955804941E+01+
*       -1.530453041E+01               0
GRID*               2699               09.6666667485E+023.6955905481E+01+
*       -1.530428761E+01               0
GRID*               2700               09.8333333333E+022.8277927191E+01+
*       -2.829061386E+01               0
GRID*               2701               09.5000000000E+02-2.827792719E+01+
*       -2.829061387E+01               0
GRID*               2702               09.5000000628E+02-3.695685182E+01+
*       -1.530200217E+01               0
GRID*               2703               09.3333333768E+02-3.695672576E+01+
*       -1.530230662E+01               0
GRID*               2704               09.5000000000E+02-3.999999984E+01+
*       -3.587430041E-03               0
GRID*               2705               09.5000000706E+02-3.695404820E+01+
*       1.5309500833E+01               0
GRID*               2706               09.3333334030E+02-3.695405699E+01+
*       1.5309481075E+01               0
GRID*               2707               09.5000000000E+02-2.828807293E+01+
*       2.8280469042E+01               0
GRID*               2708               09.5000000162E+02-1.531067193E+01+
*       3.6953762145E+01               0
GRID*               2709               09.3333333494E+02-1.531066586E+01+
*       3.6953764293E+01               0
GRID*               2710               09.5000000000E+02-4.402149035E-15+
*       4.0000000000E+01               0
GRID*               2711               09.4999999842E+021.5310638288E+01+
*       3.6953774054E+01               0
GRID*               2712               09.3333333175E+021.5310643373E+01+
*       3.6953772254E+01               0
GRID*               2713               09.5000000000E+022.8288072927E+01+
*       2.8280469042E+01               0
GRID*               2714               09.4999999398E+023.6954145401E+01+
*       1.5309282392E+01               0
GRID*               2715               09.3333332704E+023.6954121153E+01+
*       1.5309336884E+01               0
GRID*               2716               09.5000000000E+023.9999999839E+01+
*       -3.587429458E-03               0
GRID*               2717               09.5000000645E+023.6956017860E+01+
*       -1.530401621E+01               0
GRID*               2718               09.3333333787E+023.6956142755E+01+
*       -1.530371459E+01               0
GRID*               2719               09.5000000000E+022.8277927190E+01+
*       -2.829061386E+01               0
GRID*               2720               09.1666666667E+02-2.827792719E+01+
*       -2.829061386E+01               0
GRID*               2721               09.1666666889E+02-3.695658639E+01+
*       -1.530264320E+01               0
GRID*               2722               08.9999999989E+02-3.695643298E+01+
*       -1.530301368E+01               0
GRID*               2723               09.1666666667E+02-3.999999984E+01+
*       -3.587429844E-03               0
GRID*               2724               09.1666667352E+02-3.695406850E+01+
*       1.5309455207E+01               0
GRID*               2725               09.0000000670E+02-3.695408291E+01+
*       1.5309422835E+01               0
GRID*               2726               09.1666666667E+02-2.828807293E+01+
*       2.8280469042E+01               0
GRID*               2727               09.1666666827E+02-1.531065996E+01+
*       3.6953766383E+01               0
GRID*               2728               09.0000000160E+02-1.531065423E+01+
*       3.6953768412E+01               0
GRID*               2729               09.1666666667E+026.0611792278E-15+
*       4.0000000000E+01               0
GRID*               2730               09.1666666508E+021.5310648693E+01+
*       3.6953770371E+01               0
GRID*               2731               08.9999999840E+021.5310654227E+01+
*       3.6953768412E+01               0
GRID*               2732               09.1666666667E+022.8288072927E+01+
*       2.8280469042E+01               0
GRID*               2733               09.1666666015E+023.6954100392E+01+
*       1.5309383541E+01               0
GRID*               2734               08.9999999330E+023.6954082908E+01+
*       1.5309422835E+01               0
GRID*               2735               09.1666666667E+023.9999999839E+01+
*       -3.587429650E-03               0
GRID*               2736               09.1666666910E+023.6956280878E+01+
*       -1.530338102E+01               0
GRID*               2737               09.0000000011E+023.6956432984E+01+
*       -1.530301368E+01               0
GRID*               2738               09.1666666667E+022.8277927188E+01+
*       -2.829061386E+01               0
GRID*               2739               08.8333333333E+02-2.827792719E+01+
*       -2.829061386E+01               0
GRID*               2740               08.8333333090E+02-3.695628088E+01+
*       -1.530338102E+01               0
GRID*               2741               08.6666666213E+02-3.695614276E+01+
*       -1.530371459E+01               0
GRID*               2742               08.8333333333E+02-3.999999984E+01+
*       -3.587429650E-03               0
GRID*               2743               08.8333333985E+02-3.695410039E+01+
*       1.5309383541E+01               0
GRID*               2744               08.6666667296E+02-3.695412115E+01+
*       1.5309336884E+01               0
GRID*               2745               08.8333333333E+02-2.828807293E+01+
*       2.8280469042E+01               0
GRID*               2746               08.8333333492E+02-1.531064869E+01+
*       3.6953770371E+01               0
GRID*               2747               08.6666666825E+02-1.531064337E+01+
*       3.6953772254E+01               0
GRID*               2748               08.8333333333E+021.7687099520E-14+
*       4.0000000000E+01               0
GRID*               2749               08.8333333173E+021.5310659956E+01+
*       3.6953766383E+01               0
GRID*               2750               08.6666666506E+021.5310665863E+01+
*       3.6953764293E+01               0
GRID*               2751               08.8333333333E+022.8288072927E+01+
*       2.8280469042E+01               0
GRID*               2752               08.8333332648E+023.6954068504E+01+
*       1.5309455207E+01               0
GRID*               2753               08.6666665970E+023.6954056993E+01+
*       1.5309481075E+01               0
GRID*               2754               08.8333333333E+023.9999999839E+01+
*       -3.587429844E-03               0
GRID*               2755               08.8333333111E+023.6956586388E+01+
*       -1.530264320E+01               0
GRID*               2756               08.6666666232E+023.6956725759E+01+
*       -1.530230662E+01               0
GRID*               2757               08.8333333333E+022.8277927187E+01+
*       -2.829061386E+01               0
GRID*               2758               08.5000000000E+02-2.827792719E+01+
*       -2.829061386E+01               0
GRID*               2759               08.4999999355E+02-3.695601786E+01+
*       -1.530401621E+01               0
GRID*               2760               08.3333332515E+02-3.695590548E+01+
*       -1.530428761E+01               0
GRID*               2761               08.5000000000E+02-3.999999984E+01+
*       -3.587429458E-03               0
GRID*               2762               08.5000000602E+02-3.695414540E+01+
*       1.5309282392E+01               0
GRID*               2763               08.3333333905E+02-3.695417336E+01+
*       1.5309219564E+01               0
GRID*               2764               08.5000000000E+02-2.828807293E+01+
*       2.8280469042E+01               0
GRID*               2765               08.5000000158E+02-1.531063829E+01+
*       3.6953774054E+01               0
GRID*               2766               08.3333333490E+02-1.531063346E+01+
*       3.6953775764E+01               0
GRID*               2767               08.5000000000E+020.0000000000E+00+
*       4.0000000000E+01               0
GRID*               2768               08.4999999838E+021.5310671929E+01+
*       3.6953762145E+01               0
GRID*               2769               08.3333333171E+021.5310678139E+01+
*       3.6953759947E+01               0
GRID*               2770               08.5000000000E+022.8288072927E+01+
*       2.8280469042E+01               0
GRID*               2771               08.4999999294E+023.6954048201E+01+
*       1.5309500833E+01               0
GRID*               2772               08.3333332622E+023.6954041961E+01+
*       1.5309514857E+01               0
GRID*               2773               08.5000000000E+023.9999999839E+01+
*       -3.587430041E-03               0
GRID*               2774               08.4999999372E+023.6956851824E+01+
*       -1.530200217E+01               0
GRID*               2775               08.3333332531E+023.6956965298E+01+
*       -1.530172813E+01               0
GRID*               2776               08.5000000000E+022.8277927186E+01+
*       -2.829061387E+01               0
GRID*               2777               08.1666666667E+02-2.827792719E+01+
*       -2.829061386E+01               0
GRID*               2778               08.1666665693E+02-3.695580494E+01+
*       -1.530453041E+01               0
GRID*               2779               07.9999998888E+02-3.695571560E+01+
*       -1.530474617E+01               0
GRID*               2780               08.1666666667E+02-3.999999984E+01+
*       -3.587429270E-03               0
GRID*               2781               08.1666667202E+02-3.695420526E+01+
*       1.5309147867E+01               0
GRID*               2782               08.0000000495E+02-3.695424136E+01+
*       1.5309066729E+01               0
GRID*               2783               08.1666666667E+02-2.828807293E+01+
*       2.8280469042E+01               0
GRID*               2784               08.1666666822E+02-1.531062891E+01+
*       3.6953777375E+01               0
GRID*               2785               08.0000000155E+02-1.531062466E+01+
*       3.6953778880E+01               0
GRID*               2786               08.1666666667E+02-1.719066136E-14+
*       4.0000000000E+01               0
GRID*               2787               08.1666666504E+021.5310684476E+01+
*       3.6953757703E+01               0
GRID*               2788               07.9999999837E+021.5310690926E+01+
*       3.6953755420E+01               0
GRID*               2789               08.1666666667E+022.8288072928E+01+
*       2.8280469042E+01               0
GRID*               2790               08.1666665953E+023.6954038116E+01+
*       1.5309523499E+01               0
GRID*               2791               07.9999999286E+023.6954036515E+01+
*       1.5309527097E+01               0
GRID*               2792               08.1666666667E+023.9999999839E+01+
*       -3.587430241E-03               0
GRID*               2793               08.1666665707E+023.6957066861E+01+
*       -1.530148285E+01               0
GRID*               2794               07.9999998900E+023.6957157158E+01+
*       -1.530126478E+01               0
GRID*               2795               08.1666666667E+022.8277927184E+01+
*       -2.829061387E+01               0
GRID*               2796               07.8333333333E+02-2.827792719E+01+
*       -2.829061386E+01               0
GRID*               2797               07.8333332098E+02-3.695563685E+01+
*       -1.530493636E+01               0
GRID*               2798               07.6666665323E+02-3.695556810E+01+
*       -1.530510239E+01               0
GRID*               2799               07.8333333333E+02-3.999999984E+01+
*       -3.587429086E-03               0
GRID*               2800               07.8333333783E+02-3.695428194E+01+
*       1.5308975538E+01               0
GRID*               2801               07.6666667065E+02-3.695432728E+01+
*       1.5308873637E+01               0
GRID*               2802               07.8333333333E+02-2.828807293E+01+
*       2.8280469042E+01               0
GRID*               2803               07.8333333487E+02-1.531062073E+01+
*       3.6953780268E+01               0
GRID*               2804               07.6666666819E+02-1.531061717E+01+
*       3.6953781531E+01               0
GRID*               2805               07.8333333333E+02-3.404824578E-14+
*       4.0000000000E+01               0
GRID*               2806               07.8333333170E+021.5310697475E+01+
*       3.6953753102E+01               0
GRID*               2807               07.6666666503E+021.5310704108E+01+
*       3.6953750754E+01               0
GRID*               2808               07.8333333333E+022.8288072928E+01+
*       2.8280469041E+01               0
GRID*               2809               07.8333332622E+023.6954037016E+01+
*       1.5309525971E+01               0
GRID*               2810               07.6666665960E+023.6954039483E+01+
*       1.5309520427E+01               0
GRID*               2811               07.8333333333E+023.9999999839E+01+
*       -3.587430442E-03               0
GRID*               2812               07.8333332109E+023.6957236801E+01+
*       -1.530107244E+01               0
GRID*               2813               07.6666665333E+023.6957306376E+01+
*       -1.530090441E+01               0
GRID*               2814               07.8333333333E+022.8277927183E+01+
*       -2.829061387E+01               0
GRID*               2815               07.5000000000E+02-2.827792719E+01+
*       -2.829061386E+01               0
GRID*               2816               07.4999998562E+02-3.695550881E+01+
*       -1.530524558E+01               0
GRID*               2817               07.3333331814E+02-3.695545844E+01+
*       -1.530536724E+01               0
GRID*               2818               07.5000000000E+02-3.999999984E+01+
*       -3.587428905E-03               0
GRID*               2819               07.5000000341E+02-3.695437771E+01+
*       1.5308760317E+01               0
GRID*               2820               07.3333333611E+02-3.695443355E+01+
*       1.5308634814E+01               0
GRID*               2821               07.5000000000E+02-2.828807293E+01+
*       2.8280469043E+01               0
GRID*               2822               07.5000000151E+02-1.531061398E+01+
*       3.6953782658E+01               0
GRID*               2823               07.3333333483E+02-1.531061121E+01+
*       3.6953783639E+01               0
GRID*               2824               07.5000000000E+02-2.125973346E-14+
*       4.0000000000E+01               0
GRID*               2825               07.4999999836E+021.5310710812E+01+
*       3.6953748380E+01               0
GRID*               2826               07.3333333169E+021.5310717574E+01+
*       3.6953745987E+01               0
GRID*               2827               07.5000000000E+022.8288072928E+01+
*       2.8280469041E+01               0
GRID*               2828               07.4999999300E+023.6954043785E+01+
*       1.5309510758E+01               0
GRID*               2829               07.3333332643E+023.6954049799E+01+
*       1.5309497242E+01               0
GRID*               2830               07.5000000000E+023.9999999839E+01+
*       -3.587430645E-03               0
GRID*               2831               07.4999998570E+023.6957366440E+01+
*       -1.530075936E+01               0
GRID*               2832               07.3333331821E+023.6957417527E+01+
*       -1.530063598E+01               0
GRID*               2833               07.5000000000E+022.8277927181E+01+
*       -2.829061387E+01               0
GRID*               2834               07.1666666667E+02-2.827792720E+01+
*       -2.829061386E+01               0
GRID*               2835               07.1666665078E+02-3.695541648E+01+
*       -1.530546857E+01               0
GRID*               2836               06.9999998355E+02-3.695538244E+01+
*       -1.530555076E+01               0
GRID*               2837               07.1666666667E+02-3.999999984E+01+
*       -3.587428729E-03               0
GRID*               2838               07.1666666874E+02-3.695449519E+01+
*       1.5308496302E+01               0
GRID*               2839               07.0000000130E+02-3.695456301E+01+
*       1.5308343883E+01               0
GRID*               2840               07.1666666667E+02-2.828807293E+01+
*       2.8280469043E+01               0
GRID*               2841               07.1666666815E+02-1.531060889E+01+
*       3.6953784460E+01               0
GRID*               2842               07.0000000147E+02-1.531060706E+01+
*       3.6953785110E+01               0
GRID*               2843               07.1666666667E+02-1.137770121E-14+
*       4.0000000000E+01               0
GRID*               2844               07.1666666502E+021.5310724381E+01+
*       3.6953743577E+01               0
GRID*               2845               06.9999999835E+021.5310731223E+01+
*       3.6953741155E+01               0
GRID*               2846               07.1666666667E+022.8288072928E+01+
*       2.8280469041E+01               0
GRID*               2847               07.1666665987E+023.6954057405E+01+
*       1.5309480149E+01               0
GRID*               2848               06.9999999333E+023.6954066489E+01+
*       1.5309459734E+01               0
GRID*               2849               07.1666666667E+023.9999999839E+01+
*       -3.587430850E-03               0
GRID*               2850               07.1666665085E+023.6957460147E+01+
*       -1.530053305E+01               0
GRID*               2851               06.9999998361E+023.6957494789E+01+
*       -1.530044939E+01               0
GRID*               2852               07.1666666667E+022.8277927180E+01+
*       -2.829061387E+01               0
GRID*               2853               06.8333333333E+02-2.827792720E+01+
*       -2.829061386E+01               0
GRID*               2854               06.8333331642E+02-3.695535587E+01+
*       -1.530561494E+01               0
GRID*               2855               06.6666664940E+02-3.695533630E+01+
*       -1.530566219E+01               0
GRID*               2856               06.8333333333E+02-3.999999984E+01+
*       -3.587428558E-03               0
GRID*               2857               06.8333333378E+02-3.695463745E+01+
*       1.5308176583E+01               0
GRID*               2858               06.6666666620E+02-3.695471686E+01+
*       1.5307998128E+01               0
GRID*               2859               06.8333333333E+02-2.828807293E+01+
*       2.8280469043E+01               0
GRID*               2860               06.8333333479E+02-1.531060574E+01+
*       3.6953785575E+01               0
GRID*               2861               06.6666666810E+02-1.531060500E+01+
*       3.6953785840E+01               0
GRID*               2862               06.8333333333E+020.0000000000E+00+
*       4.0000000000E+01               0
GRID*               2863               06.8333333169E+021.5310738086E+01+
*       3.6953738725E+01               0
GRID*               2864               06.6666666502E+021.5310744960E+01+
*       3.6953736292E+01               0
GRID*               2865               06.8333333333E+022.8288072928E+01+
*       2.8280469041E+01               0
GRID*               2866               06.8333332680E+023.6954076940E+01+
*       1.5309436246E+01               0
GRID*               2867               06.6666666029E+023.6954088654E+01+
*       1.5309409922E+01               0
GRID*               2868               06.8333333333E+023.9999999839E+01+
*       -3.587431055E-03               0
GRID*               2869               06.8333331647E+023.6957521925E+01+
*       -1.530038386E+01               0
GRID*               2870               06.6666664944E+023.6957542006E+01+
*       -1.530033536E+01               0
GRID*               2871               06.8333333333E+022.8277927178E+01+
*       -2.829061387E+01               0
GRID*               2872               06.5000000000E+02-2.827792720E+01+
*       -2.829061386E+01               0
GRID*               2873               06.4999998248E+02-3.695532331E+01+
*       -1.530569357E+01               0
GRID*               2874               06.3333331565E+02-3.695531647E+01+
*       -1.530571008E+01               0
GRID*               2875               06.5000000000E+02-3.999999984E+01+
*       -3.587428391E-03               0
GRID*               2876               06.4999999871E+02-3.695478950E+01+
*       1.5307834878E+01               0
GRID*               2877               06.3333333132E+02-3.695485389E+01+
*       1.5307690174E+01               0
GRID*               2878               06.5000000000E+02-2.828807293E+01+
*       2.8280469043E+01               0
GRID*               2879               06.5000000141E+02-1.531060486E+01+
*       3.6953785887E+01               0
GRID*               2880               06.3333333473E+02-1.531060539E+01+
*       3.6953785701E+01               0
GRID*               2881               06.5000000000E+021.1874139374E-14+
*       4.0000000000E+01               0
GRID*               2882               06.4999999835E+021.5310751833E+01+
*       3.6953733859E+01               0
GRID*               2883               06.3333333168E+021.5310758695E+01+
*       3.6953731430E+01               0
GRID*               2884               06.5000000000E+022.8288072928E+01+
*       2.8280469041E+01               0
GRID*               2885               06.4999999380E+023.6954101527E+01+
*       1.5309380991E+01               0
GRID*               2886               06.3333332731E+023.6954115462E+01+
*       1.5309349675E+01               0
GRID*               2887               06.5000000000E+023.9999999839E+01+
*       -3.587431262E-03               0
GRID*               2888               06.4999998251E+023.6957555468E+01+
*       -1.530030285E+01               0
GRID*               2889               06.3333331568E+023.6957562731E+01+
*       -1.530028531E+01               0
GRID*               2890               06.5000000000E+022.8277927177E+01+
*       -2.829061387E+01               0
GRID*               2891               06.1666666667E+02-2.827792720E+01+
*       -2.829061385E+01               0
GRID*               2892               06.1666664890E+02-3.695531539E+01+
*       -1.530571269E+01               0
GRID*               2893               05.9999998224E+02-3.695531967E+01+
*       -1.530570236E+01               0
GRID*               2894               06.1666666667E+02-3.999999984E+01+
*       -3.587428230E-03               0
GRID*               2895               06.1666666402E+02-3.695491046E+01+
*       1.5307563025E+01               0
GRID*               2896               05.9999999682E+02-3.695495966E+01+
*       1.5307452474E+01               0
GRID*               2897               06.1666666667E+02-2.828807293E+01+
*       2.8280469043E+01               0
GRID*               2898               06.1666666804E+02-1.531060663E+01+
*       3.6953785259E+01               0
GRID*               2899               06.0000000134E+02-1.531060866E+01+
*       3.6953784543E+01               0
GRID*               2900               06.1666666667E+02-4.983445050E-15+
*       4.0000000000E+01               0
GRID*               2901               06.1666666502E+021.5310765536E+01+
*       3.6953729008E+01               0
GRID*               2902               05.9999999835E+021.5310772345E+01+
*       3.6953726597E+01               0
GRID*               2903               06.1666666667E+022.8288072929E+01+
*       2.8280469041E+01               0
GRID*               2904               06.1666666084E+023.6954130362E+01+
*       1.5309316189E+01               0
GRID*               2905               05.9999999438E+023.6954146136E+01+
*       1.5309280739E+01               0
GRID*               2906               06.1666666667E+023.9999999839E+01+
*       -3.587431468E-03               0
GRID*               2907               06.1666664892E+023.6957564202E+01+
*       -1.530028176E+01               0
GRID*               2908               05.9999998226E+023.6957560272E+01+
*       -1.530029125E+01               0
GRID*               2909               06.1666666667E+022.8277927175E+01+
*       -2.829061387E+01               0
GRID*               2910               05.8333333333E+02-2.827792720E+01+
*       -2.829061385E+01               0
GRID*               2911               05.8333331565E+02-3.695532893E+01+
*       -1.530567998E+01               0
GRID*               2912               05.6666664913E+02-3.695534282E+01+
*       -1.530564646E+01               0
GRID*               2913               05.8333333333E+02-3.999999984E+01+
*       -3.587428074E-03               0
GRID*               2914               05.8333332969E+02-3.695500187E+01+
*       1.5307357591E+01               0
GRID*               2915               05.6666666265E+02-3.695503752E+01+
*       1.5307277477E+01               0
GRID*               2916               05.8333333333E+02-2.828807293E+01+
*       2.8280469043E+01               0
GRID*               2917               05.8333333465E+02-1.531061153E+01+
*       3.6953783526E+01               0
GRID*               2918               05.6666666795E+02-1.531061532E+01+
*       3.6953782184E+01               0
GRID*               2919               05.8333333333E+02-8.471221137E-15+
*       4.0000000000E+01               0
GRID*               2920               05.8333333169E+021.5310779112E+01+
*       3.6953724202E+01               0
GRID*               2921               05.6666666502E+021.5310785828E+01+
*       3.6953721824E+01               0
GRID*               2922               05.8333333333E+022.8288072929E+01+
*       2.8280469040E+01               0
GRID*               2923               05.8333332793E+023.6954162695E+01+
*       1.5309243526E+01               0
GRID*               2924               05.6666666148E+023.6954179951E+01+
*       1.5309204745E+01               0
GRID*               2925               05.8333333333E+023.9999999839E+01+
*       -3.587431675E-03               0
GRID*               2926               05.8333331566E+023.6957551322E+01+
*       -1.530031286E+01               0
GRID*               2927               05.6666664914E+023.6957537720E+01+
*       -1.530034571E+01               0
GRID*               2928               05.8333333333E+022.8277927174E+01+
*       -2.829061388E+01               0
GRID*               2929               05.5000000000E+02-2.827792720E+01+
*       -2.829061385E+01               0
GRID*               2930               05.4999998268E+02-3.695536096E+01+
*       -1.530560264E+01               0
GRID*               2931               05.3333331628E+02-3.695538302E+01+
*       -1.530554936E+01               0
GRID*               2932               05.5000000000E+02-3.999999984E+01+
*       -3.587427924E-03               0
GRID*               2933               05.4999999568E+02-3.695506699E+01+
*       1.5307211255E+01               0
GRID*               2934               05.3333332878E+02-3.695509065E+01+
*       1.5307158075E+01               0
GRID*               2935               05.5000000000E+02-2.828807293E+01+
*       2.8280469043E+01               0
GRID*               2936               05.5000000125E+02-1.531062012E+01+
*       3.6953780487E+01               0
GRID*               2937               05.3333333455E+02-1.531062600E+01+
*       3.6953778402E+01               0
GRID*               2938               05.5000000000E+02-1.137770121E-14+
*       4.0000000000E+01               0
GRID*               2939               05.4999999836E+021.5310792483E+01+
*       3.6953719468E+01               0
GRID*               2940               05.3333333169E+021.5310799068E+01+
*       3.6953717137E+01               0
GRID*               2941               05.5000000000E+022.8288072929E+01+
*       2.8280469040E+01               0
GRID*               2942               05.4999999505E+023.6954197821E+01+
*       1.5309164585E+01               0
GRID*               2943               05.3333332861E+023.6954216222E+01+
*       1.5309123231E+01               0
GRID*               2944               05.5000000000E+023.9999999839E+01+
*       -3.587431881E-03               0
GRID*               2945               05.4999998268E+023.6957519823E+01+
*       -1.530038893E+01               0
GRID*               2946               05.3333331628E+023.6957497980E+01+
*       -1.530044169E+01               0
GRID*               2947               05.5000000000E+022.8277927173E+01+
*       -2.829061388E+01               0
GRID*               2948               05.1666666667E+02-2.827792720E+01+
*       -2.829061385E+01               0
GRID*               2949               05.1666664994E+02-3.695540866E+01+
*       -1.530548744E+01               0
GRID*               2950               04.9999998366E+02-3.695543756E+01+
*       -1.530541766E+01               0
GRID*               2951               05.1666666667E+02-3.999999984E+01+
*       -3.587427781E-03               0
GRID*               2952               05.1666666195E+02-3.695510888E+01+
*       1.5307117109E+01               0
GRID*               2953               04.9999999517E+02-3.695512204E+01+
*       1.5307087548E+01               0
GRID*               2954               05.1666666667E+02-2.828807293E+01+
*       2.8280469044E+01               0
GRID*               2955               05.1666666784E+02-1.531063309E+01+
*       3.6953775893E+01               0
GRID*               2956               05.0000000113E+02-1.531064150E+01+
*       3.6953772919E+01               0
GRID*               2957               05.1666666667E+020.0000000000E+00+
*       4.0000000000E+01               0
GRID*               2958               05.1666666503E+021.5310805574E+01+
*       3.6953714834E+01               0
GRID*               2959               04.9999999837E+021.5310811992E+01+
*       3.6953712562E+01               0
GRID*               2960               05.1666666667E+022.8288072929E+01+
*       2.8280469040E+01               0
GRID*               2961               05.1666666219E+023.6954235075E+01+
*       1.5309080862E+01               0
GRID*               2962               04.9999999576E+023.6954254302E+01+
*       1.5309037652E+01               0
GRID*               2963               05.1666666667E+023.9999999839E+01+
*       -3.587432087E-03               0
GRID*               2964               05.1666664994E+023.6957472528E+01+
*       -1.530050315E+01               0
GRID*               2965               04.9999998365E+023.6957443796E+01+
*       -1.530057254E+01               0
GRID*               2966               05.1666666667E+022.8277927171E+01+
*       -2.829061388E+01               0
GRID*               2967               04.8333333333E+02-2.827792720E+01+
*       -2.829061385E+01               0
GRID*               2968               04.8333331742E+02-3.695546938E+01+
*       -1.530534079E+01               0
GRID*               2969               04.6666665122E+02-3.695550383E+01+
*       -1.530525759E+01               0
GRID*               2970               04.8333333333E+02-3.999999984E+01+
*       -3.587427644E-03               0
GRID*               2971               04.8333332845E+02-3.695513046E+01+
*       1.5307068604E+01               0
GRID*               2972               04.6666666178E+02-3.695513451E+01+
*       1.5307059510E+01               0
GRID*               2973               04.8333333333E+02-2.828807293E+01+
*       2.8280469044E+01               0
GRID*               2974               04.8333333441E+02-1.531065134E+01+
*       3.6953769432E+01               0
GRID*               2975               04.6666666769E+02-1.531066279E+01+
*       3.6953765380E+01               0
GRID*               2976               04.8333333333E+021.1874139374E-14+
*       4.0000000000E+01               0
GRID*               2977               04.8333333171E+021.5310818312E+01+
*       3.6953710325E+01               0
GRID*               2978               04.6666666505E+021.5310824527E+01+
*       3.6953708125E+01               0
GRID*               2979               04.8333333333E+022.8288072929E+01+
*       2.8280469040E+01               0
GRID*               2980               04.8333332934E+023.6954273827E+01+
*       1.5308993771E+01               0
GRID*               2981               04.6666666293E+023.6954293577E+01+
*       1.5308949387E+01               0
GRID*               2982               04.8333333333E+023.9999999839E+01+
*       -3.587432292E-03               0
GRID*               2983               04.8333331741E+023.6957412105E+01+
*       -1.530064908E+01               0
GRID*               2984               04.6666665121E+023.6957377767E+01+
*       -1.530073200E+01               0
GRID*               2985               04.8333333333E+022.8277927170E+01+
*       -2.829061388E+01               0
GRID*               2986               04.5000000000E+02-2.827792720E+01+
*       -2.829061385E+01               0
GRID*               2987               04.4999998505E+02-3.695554060E+01+
*       -1.530516880E+01               0
GRID*               2988               04.3333331893E+02-3.695557939E+01+
*       -1.530507512E+01               0
GRID*               2989               04.5000000000E+02-3.999999984E+01+
*       -3.587427513E-03               0
GRID*               2990               04.4999999516E+02-3.695513451E+01+
*       1.5307059511E+01               0
GRID*               2991               04.3333332858E+02-3.695513079E+01+
*       1.5307067874E+01               0
GRID*               2992               04.5000000000E+02-2.828807293E+01+
*       2.8280469044E+01               0
GRID*               2993               04.5000000097E+02-1.531067600E+01+
*       3.6953760703E+01               0
GRID*               2994               04.3333333423E+02-1.531069118E+01+
*       3.6953755330E+01               0
GRID*               2995               04.5000000000E+022.2337467637E-14+
*       4.0000000000E+01               0
GRID*               2996               04.4999999839E+021.5310830628E+01+
*       3.6953705965E+01               0
GRID*               2997               04.3333333173E+021.5310836607E+01+
*       3.6953703849E+01               0
GRID*               2998               04.5000000000E+022.8288072929E+01+
*       2.8280469040E+01               0
GRID*               2999               04.4999999651E+023.6954313478E+01+
*       1.5308904662E+01               0
GRID*               3000               04.3333333009E+023.6954333461E+01+
*       1.5308859754E+01               0
GRID*               3001               04.5000000000E+023.9999999839E+01+
*       -3.587432495E-03               0
GRID*               3002               04.4999998504E+023.6957341089E+01+
*       -1.530082058E+01               0
GRID*               3003               04.3333331891E+023.6957302370E+01+
*       -1.530091409E+01               0
GRID*               3004               04.5000000000E+022.8277927168E+01+
*       -2.829061388E+01               0
GRID*               3005               04.1666666667E+02-2.827792720E+01+
*       -2.829061385E+01               0
GRID*               3006               04.1666665283E+02-3.695561991E+01+
*       -1.530497727E+01               0
GRID*               3007               03.9999998675E+02-3.695566188E+01+
*       -1.530487592E+01               0
GRID*               3008               04.1666666667E+02-3.999999984E+01+
*       -3.587427390E-03               0
GRID*               3009               04.1666666204E+02-3.695512367E+01+
*       1.5307083876E+01               0
GRID*               3010               03.9999999553E+02-3.695511346E+01+
*       1.5307106813E+01               0
GRID*               3011               04.1666666667E+02-2.828807293E+01+
*       2.8280469044E+01               0
GRID*               3012               04.1666666749E+02-1.531070855E+01+
*       3.6953749182E+01               0
GRID*               3013               04.0000000075E+02-1.531072837E+01+
*       3.6953742164E+01               0
GRID*               3014               04.1666666667E+025.7705312205E-15+
*       4.0000000000E+01               0
GRID*               3015               04.1666666508E+021.5310842455E+01+
*       3.6953701778E+01               0
GRID*               3016               03.9999999842E+021.5310848163E+01+
*       3.6953699757E+01               0
GRID*               3017               04.1666666667E+022.8288072930E+01+
*       2.8280469040E+01               0
GRID*               3018               04.1666666367E+023.6954353455E+01+
*       1.5308814821E+01               0
GRID*               3019               03.9999999725E+023.6954373392E+01+
*       1.5308770013E+01               0
GRID*               3020               04.1666666667E+023.9999999839E+01+
*       -3.587432696E-03               0
GRID*               3021               04.1666665281E+023.6957261901E+01+
*       -1.530101182E+01               0
GRID*               3022               03.9999998674E+023.6957219970E+01+
*       -1.530111309E+01               0
GRID*               3023               04.1666666667E+022.8277927167E+01+
*       -2.829061388E+01               0
GRID*               3024               03.8333333333E+02-2.827792721E+01+
*       -2.829061385E+01               0
GRID*               3025               03.8333332070E+02-3.695570501E+01+
*       -1.530477176E+01               0
GRID*               3026               03.6666665467E+02-3.695574903E+01+
*       -1.530466544E+01               0
GRID*               3027               03.8333333333E+02-3.999999984E+01+
*       -3.587427275E-03               0
GRID*               3028               03.8333332905E+02-3.695510048E+01+
*       1.5307135992E+01               0
GRID*               3029               03.6666666260E+02-3.695508502E+01+
*       1.5307170733E+01               0
GRID*               3030               03.8333333333E+02-2.828807293E+01+
*       2.8280469044E+01               0
GRID*               3031               03.8333333399E+02-1.531075096E+01+
*       3.6953734169E+01               0
GRID*               3032               03.6666666722E+02-1.531077667E+01+
*       3.6953725067E+01               0
GRID*               3033               03.8333333333E+02-1.079640520E-14+
*       4.0000000000E+01               0
GRID*               3034               03.8333333177E+021.5310853726E+01+
*       3.6953697788E+01               0
GRID*               3035               03.6666666512E+021.5310859133E+01+
*       3.6953695874E+01               0
GRID*               3036               03.8333333333E+022.8288072930E+01+
*       2.8280469039E+01               0
GRID*               3037               03.8333333083E+023.6954393207E+01+
*       1.5308725482E+01               0
GRID*               3038               03.6666666440E+023.6954412834E+01+
*       1.5308681375E+01               0
GRID*               3039               03.8333333333E+023.9999999839E+01+
*       -3.587432896E-03               0
GRID*               3040               03.8333332069E+023.6957176856E+01+
*       -1.530121721E+01               0
GRID*               3041               03.6666665466E+023.6957132835E+01+
*       -1.530132352E+01               0
GRID*               3042               03.8333333333E+022.8277927165E+01+
*       -2.829061388E+01               0
GRID*               3043               03.5000000000E+02-2.827792721E+01+
*       -2.829061385E+01               0
GRID*               3044               03.4999998865E+02-3.695579368E+01+
*       -1.530455762E+01               0
GRID*               3045               03.3333332264E+02-3.695583868E+01+
*       -1.530444893E+01               0
GRID*               3046               03.5000000000E+02-3.999999984E+01+
*       -3.587427168E-03               0
GRID*               3047               03.4999999618E+02-3.695506738E+01+
*       1.5307210369E+01               0
GRID*               3048               03.3333332977E+02-3.695504786E+01+
*       1.5307254243E+01               0
GRID*               3049               03.5000000000E+02-2.828807293E+01+
*       2.8280469044E+01               0
GRID*               3050               03.5000000044E+02-1.531080594E+01+
*       3.6953714705E+01               0
GRID*               3051               03.3333333365E+02-1.531083929E+01+
*       3.6953702900E+01               0
GRID*               3052               03.5000000000E+021.4489971440E-14+
*       4.0000000000E+01               0
GRID*               3053               03.4999999847E+021.5310864378E+01+
*       3.6953694017E+01               0
GRID*               3054               03.3333333182E+021.5310869453E+01+
*       3.6953692221E+01               0
GRID*               3055               03.5000000000E+022.8288072930E+01+
*       2.8280469039E+01               0
GRID*               3056               03.4999999797E+023.6954432208E+01+
*       1.5308637835E+01               0
GRID*               3057               03.3333333154E+023.6954451266E+01+
*       1.5308595004E+01               0
GRID*               3058               03.5000000000E+023.9999999839E+01+
*       -3.587433092E-03               0
GRID*               3059               03.4999998864E+023.6957088178E+01+
*       -1.530143137E+01               0
GRID*               3060               03.3333332263E+023.6957043149E+01+
*       -1.530154011E+01               0
GRID*               3061               03.5000000000E+022.8277927164E+01+
*       -2.829061388E+01               0
GRID*               3062               03.1666666667E+02-2.827792721E+01+
*       -2.829061385E+01               0
GRID*               3063               03.1666665664E+02-3.695588379E+01+
*       -1.530434000E+01               0
GRID*               3064               02.9999999065E+02-3.695592874E+01+
*       -1.530423144E+01               0
GRID*               3065               03.1666666667E+02-3.999999984E+01+
*       -3.587427068E-03               0
GRID*               3066               03.1666666337E+02-3.695502674E+01+
*       1.5307301709E+01               0
GRID*               3067               02.9999999699E+02-3.695500430E+01+
*       1.5307352133E+01               0
GRID*               3068               03.1666666667E+02-2.828807293E+01+
*       2.8280469044E+01               0
GRID*               3069               03.1666666684E+02-1.531087733E+01+
*       3.6953689431E+01               0
GRID*               3070               03.0000000001E+02-1.531092084E+01+
*       3.6953674028E+01               0
GRID*               3071               03.1666666667E+021.1002195352E-14+
*       4.0000000000E+01               0
GRID*               3072               03.1666666517E+021.5310874350E+01+
*       3.6953690487E+01               0
GRID*               3073               02.9999999853E+021.5310879061E+01+
*       3.6953688820E+01               0
GRID*               3074               03.1666666667E+022.8288072930E+01+
*       2.8280469039E+01               0
GRID*               3075               03.1666666509E+023.6954469946E+01+
*       1.5308553023E+01               0
GRID*               3076               02.9999999864E+023.6954488187E+01+
*       1.5308512029E+01               0
GRID*               3077               03.1666666667E+023.9999999839E+01+
*       -3.587433286E-03               0
GRID*               3078               03.1666665663E+023.6956998009E+01+
*       -1.530164913E+01               0
GRID*               3079               02.9999999063E+023.6956953016E+01+
*       -1.530175779E+01               0
GRID*               3080               03.1666666667E+022.8277927163E+01+
*       -2.829061389E+01               0
GRID*               3081               02.8333333333E+02-2.827792721E+01+
*       -2.829061385E+01               0
GRID*               3082               02.8333332465E+02-3.695597328E+01+
*       -1.530412387E+01               0
GRID*               3083               02.6666665865E+02-3.695601717E+01+
*       -1.530401788E+01               0
GRID*               3084               02.8333333333E+02-3.999999984E+01+
*       -3.587426977E-03               0
GRID*               3085               02.8333333061E+02-3.695498083E+01+
*       1.5307404887E+01               0
GRID*               3086               02.6666666424E+02-3.695495659E+01+
*       1.5307459356E+01               0
GRID*               3087               02.8333333333E+02-2.828807293E+01+
*       2.8280469044E+01               0
GRID*               3088               02.8333333318E+02-1.531096329E+01+
*       3.6953659003E+01               0
GRID*               3089               02.6666666636E+02-1.531099599E+01+
*       3.6953647425E+01               0
GRID*               3090               02.8333333333E+028.3863632862E-15+
*       4.0000000000E+01               0
GRID*               3091               02.8333333189E+021.5310883580E+01+
*       3.6953687220E+01               0
GRID*               3092               02.6666666525E+021.5310887898E+01+
*       3.6953685691E+01               0
GRID*               3093               02.8333333333E+022.8288072930E+01+
*       2.8280469039E+01               0
GRID*               3094               02.8333333218E+023.6954505929E+01+
*       1.5308472156E+01               0
GRID*               3095               02.6666666571E+023.6954523112E+01+
*       1.5308433540E+01               0
GRID*               3096               02.8333333333E+023.9999999839E+01+
*       -3.587433476E-03               0
GRID*               3097               02.8333332464E+023.6956908421E+01+
*       -1.530186549E+01               0
GRID*               3098               02.6666665864E+023.6956864474E+01+
*       -1.530197162E+01               0
GRID*               3099               02.8333333333E+022.8277927161E+01+
*       -2.829061389E+01               0
GRID*               3100               02.5000000000E+02-2.827792721E+01+
*       -2.829061385E+01               0
GRID*               3101               02.4999999265E+02-3.695606016E+01+
*       -1.530391405E+01               0
GRID*               3102               02.3333332664E+02-3.695610201E+01+
*       -1.530381298E+01               0
GRID*               3103               02.5000000000E+02-3.999999984E+01+
*       -3.587426895E-03               0
GRID*               3104               02.4999999786E+02-3.695493186E+01+
*       1.5307514931E+01               0
GRID*               3105               02.3333333149E+02-3.695490691E+01+
*       1.5307571012E+01               0
GRID*               3106               02.5000000000E+02-2.828807293E+01+
*       2.8280469044E+01               0
GRID*               3107               02.4999999957E+02-1.531101985E+01+
*       3.6953638981E+01               0
GRID*               3108               02.3333333279E+02-1.531103577E+01+
*       3.6953633344E+01               0
GRID*               3109               02.5000000000E+024.6079391913E-15+
*       4.0000000000E+01               0
GRID*               3110               02.4999999862E+021.5310892009E+01+
*       3.6953684236E+01               0
GRID*               3111               02.3333333199E+021.5310895906E+01+
*       3.6953682857E+01               0
GRID*               3112               02.5000000000E+022.8288072930E+01+
*       2.8280469039E+01               0
GRID*               3113               02.4999999923E+023.6954539678E+01+
*       1.5308396310E+01               0
GRID*               3114               02.3333333274E+023.6954555569E+01+
*       1.5308360597E+01               0
GRID*               3115               02.5000000000E+023.9999999839E+01+
*       -3.587433662E-03               0
GRID*               3116               02.4999999264E+023.6956821419E+01+
*       -1.530207560E+01               0
GRID*               3117               02.3333332663E+023.6956779499E+01+
*       -1.530217683E+01               0
GRID*               3118               02.5000000000E+022.8277927160E+01+
*       -2.829061389E+01               0
GRID*               3119               02.1666666667E+02-2.827792721E+01+
*       -2.829061385E+01               0
GRID*               3120               02.1666666062E+02-3.695614249E+01+
*       -1.530371523E+01               0
GRID*               3121               01.9999999458E+02-3.695618135E+01+
*       -1.530362137E+01               0
GRID*               3122               02.1666666667E+02-3.999999984E+01+
*       -3.587426822E-03               0
GRID*               3123               02.1666666510E+02-3.695488199E+01+
*       1.5307627005E+01               0
GRID*               3124               01.9999999871E+02-3.695485738E+01+
*       1.5307682326E+01               0
GRID*               3125               02.1666666667E+02-2.828807293E+01+
*       2.8280469044E+01               0
GRID*               3126               02.1666666603E+02-1.531104468E+01+
*       3.6953630191E+01               0
GRID*               3127               01.9999999928E+02-1.531104746E+01+
*       3.6953629204E+01               0
GRID*               3128               02.1666666667E+023.1546991548E-15+
*       4.0000000000E+01               0
GRID*               3129               02.1666666537E+021.5310899580E+01+
*       3.6953681556E+01               0
GRID*               3130               01.9999999874E+021.5310903025E+01+
*       3.6953680336E+01               0
GRID*               3131               02.1666666667E+022.8288072930E+01+
*       2.8280469039E+01               0
GRID*               3132               02.1666666624E+023.6954570728E+01+
*       1.5308326530E+01               0
GRID*               3133               01.9999999972E+023.6954585099E+01+
*       1.5308294234E+01               0
GRID*               3134               02.1666666667E+023.9999999839E+01+
*       -3.587433842E-03               0
GRID*               3135               02.1666666061E+023.6956738952E+01+
*       -1.530227476E+01               0
GRID*               3136               01.9999999457E+023.6956700013E+01+
*       -1.530236879E+01               0
GRID*               3137               02.1666666667E+022.8277927159E+01+
*       -2.829061389E+01               0
GRID*               3138               01.8333333333E+02-2.827792721E+01+
*       -2.829061385E+01               0
GRID*               3139               01.8333332852E+02-3.695621838E+01+
*       -1.530353196E+01               0
GRID*               3140               01.6666666245E+02-3.695625333E+01+
*       -1.530344754E+01               0
GRID*               3141               01.8333333333E+02-3.999999984E+01+
*       -3.587426759E-03               0
GRID*               3142               01.8333333230E+02-3.695483332E+01+
*       1.5307736397E+01               0
GRID*               3143               01.6666666588E+02-3.695481007E+01+
*       1.5307788644E+01               0
GRID*               3144               01.8333333333E+02-2.828807292E+01+
*       2.8280469044E+01               0
GRID*               3145               01.8333333256E+02-1.531104503E+01+
*       3.6953630065E+01               0
GRID*               3146               01.6666666585E+02-1.531103827E+01+
*       3.6953632459E+01               0
GRID*               3147               01.8333333333E+020.0000000000E+00+
*       4.0000000000E+01               0
GRID*               3148               01.8333333213E+021.5310906234E+01+
*       3.6953679200E+01               0
GRID*               3149               01.6666666552E+021.5310909199E+01+
*       3.6953678151E+01               0
GRID*               3150               01.8333333333E+022.8288072931E+01+
*       2.8280469039E+01               0
GRID*               3151               01.8333333319E+023.6954598625E+01+
*       1.5308263836E+01               0
GRID*               3152               01.6666666664E+023.6954611252E+01+
*       1.5308235457E+01               0
GRID*               3153               01.8333333333E+023.9999999839E+01+
*       -3.587434016E-03               0
GRID*               3154               01.8333332852E+023.6956662916E+01+
*       -1.530245838E+01               0
GRID*               3155               01.6666666244E+023.6956627890E+01+
*       -1.530254297E+01               0
GRID*               3156               01.8333333333E+022.8277927157E+01+
*       -2.829061389E+01               0
GRID*               3157               01.5000000000E+02-2.827792721E+01+
*       -2.829061385E+01               0
GRID*               3158               01.4999999635E+02-3.695628599E+01+
*       -1.530336868E+01               0
GRID*               3159               01.3333333022E+02-3.695631612E+01+
*       -1.530329590E+01               0
GRID*               3160               01.5000000000E+02-3.999999984E+01+
*       -3.587426705E-03               0
GRID*               3161               01.4999999944E+02-3.695478788E+01+
*       1.5307838504E+01               0
GRID*               3162               01.3333333297E+02-3.695476701E+01+
*       1.5307885416E+01               0
GRID*               3163               01.5000000000E+02-2.828807292E+01+
*       2.8280469044E+01               0
GRID*               3164               01.4999999917E+02-1.531102806E+01+
*       3.6953636073E+01               0
GRID*               3165               01.3333333251E+02-1.531101528E+01+
*       3.6953640598E+01               0
GRID*               3166               01.5000000000E+02-1.777195737E-14+
*       4.0000000000E+01               0
GRID*               3167               01.4999999892E+021.5310911915E+01+
*       3.6953677189E+01               0
GRID*               3168               01.3333333232E+021.5310914373E+01+
*       3.6953676319E+01               0
GRID*               3169               01.5000000000E+022.8288072931E+01+
*       2.8280469038E+01               0
GRID*               3170               01.5000000007E+023.6954622926E+01+
*       1.5308209222E+01               0
GRID*               3171               01.3333333349E+023.6954633593E+01+
*       1.5308185251E+01               0
GRID*               3172               01.5000000000E+023.9999999839E+01+
*       -3.587434181E-03               0
GRID*               3173               01.4999999634E+023.6956595162E+01+
*       -1.530262201E+01               0
GRID*               3174               01.3333333022E+023.6956564957E+01+
*       -1.530269496E+01               0
GRID*               3175               01.5000000000E+022.8277927156E+01+
*       -2.829061389E+01               0
GRID*               3176               01.1666666667E+02-2.827792721E+01+
*       -2.829061385E+01               0
GRID*               3177               01.1666666407E+02-3.695634352E+01+
*       -1.530322974E+01               0
GRID*               3178               09.9999997887E+01-3.695636795E+01+
*       -1.530317073E+01               0
GRID*               3179               01.1666666667E+02-3.999999984E+01+
*       -3.587426661E-03               0
GRID*               3180               01.1666666648E+02-3.695474769E+01+
*       1.5307928825E+01               0
GRID*               3181               09.9999999951E+01-3.695473018E+01+
*       1.5307968183E+01               0
GRID*               3182               01.1666666667E+02-2.828807292E+01+
*       2.8280469044E+01               0
GRID*               3183               01.1666666586E+02-1.531100080E+01+
*       3.6953645723E+01               0
GRID*               3184               09.9999999242E+01-1.531098549E+01+
*       3.6953651144E+01               0
GRID*               3185               01.1666666667E+02-6.582009090E-15+
*       4.0000000000E+01               0
GRID*               3186               01.1666666574E+021.5310916568E+01+
*       3.6953675542E+01               0
GRID*               3187               09.9999999159E+011.5310918491E+01+
*       3.6953674861E+01               0
GRID*               3188               01.1666666667E+022.8288072931E+01+
*       2.8280469038E+01               0
GRID*               3189               01.1666666688E+023.6954643198E+01+
*       1.5308163664E+01               0
GRID*               3190               01.0000000026E+023.6954651691E+01+
*       1.5308144579E+01               0
GRID*               3191               01.1666666667E+023.9999999839E+01+
*       -3.587434332E-03               0
GRID*               3192               01.1666666407E+023.6956537497E+01+
*       -1.530276127E+01               0
GRID*               3193               09.9999997885E+013.6956513003E+01+
*       -1.530282043E+01               0
GRID*               3194               01.1666666667E+022.8277927155E+01+
*       -2.829061389E+01               0
GRID*               3195               08.3333333333E+01-2.827792721E+01+
*       -2.829061384E+01               0
GRID*               3196               08.3333331670E+01-3.695638921E+01+
*       -1.530311939E+01               0
GRID*               3197               06.6666665417E+01-3.695640707E+01+
*       -1.530307625E+01               0
GRID*               3198               08.3333333333E+01-3.999999984E+01+
*       -3.587426628E-03               0
GRID*               3199               08.3333333394E+01-3.695471471E+01+
*       1.5308002947E+01               0
GRID*               3200               06.6666666800E+01-3.695470153E+01+
*       1.5308032577E+01               0
GRID*               3201               08.3333333333E+01-2.828807292E+01+
*       2.8280469044E+01               0
GRID*               3202               08.3333332643E+01-1.531097020E+01+
*       3.6953656555E+01               0
GRID*               3203               06.6666666066E+01-1.531095580E+01+
*       3.6953661653E+01               0
GRID*               3204               08.3333333333E+011.8777029547E-14+
*       4.0000000000E+01               0
GRID*               3205               08.3333332593E+011.5310920137E+01+
*       3.6953674279E+01               0
GRID*               3206               06.6666666040E+011.5310921499E+01+
*       3.6953673796E+01               0
GRID*               3207               08.3333333333E+012.8288072931E+01+
*       2.8280469038E+01               0
GRID*               3208               08.3333333615E+013.6954659017E+01+
*       1.5308128114E+01               0
GRID*               3209               06.6666666945E+013.6954665125E+01+
*       1.5308114386E+01               0
GRID*               3210               08.3333333333E+013.9999999839E+01+
*       -3.587434459E-03               0
GRID*               3211               08.3333331668E+013.6956491692E+01+
*       -1.530287190E+01               0
GRID*               3212               06.6666665415E+013.6956473781E+01+
*       -1.530291515E+01               0
GRID*               3213               08.3333333334E+012.8277927155E+01+
*       -2.829061389E+01               0
GRID*               3214               05.0000000000E+01-2.827792721E+01+
*       -2.829061384E+01               0
GRID*               3215               04.9999999125E+01-3.695642133E+01+
*       -1.530304181E+01               0
GRID*               3216               03.3333332793E+01-3.695643178E+01+
*       -1.530301659E+01               0
GRID*               3217               05.0000000000E+01-3.999999984E+01+
*       -3.587426606E-03               0
GRID*               3218               05.0000000167E+01-3.695469087E+01+
*       1.5308056540E+01               0
GRID*               3219               03.3333333491E+01-3.695468296E+01+
*       1.5308074304E+01               0
GRID*               3220               04.9999999999E+01-2.828807292E+01+
*       2.8280469044E+01               0
GRID*               3221               04.9999999513E+01-1.531094313E+01+
*       3.6953666138E+01               0
GRID*               3222               03.3333332983E+01-1.531093304E+01+
*       3.6953669709E+01               0
GRID*               3223               05.0000000000E+011.6270190484E-14+
*       4.0000000000E+01               0
GRID*               3224               04.9999999502E+011.5310922570E+01+
*       3.6953673417E+01               0
GRID*               3225               03.3333332980E+011.5310923343E+01+
*       3.6953673144E+01               0
GRID*               3226               05.0000000000E+012.8288072931E+01+
*       2.8280469038E+01               0
GRID*               3227               05.0000000251E+013.6954669964E+01+
*       1.5308103511E+01               0
GRID*               3228               03.3333333529E+013.6954673483E+01+
*       1.5308095603E+01               0
GRID*               3229               05.0000000000E+013.9999999839E+01+
*       -3.587434522E-03               0
GRID*               3230               04.9999999125E+013.6956459483E+01+
*       -1.530294968E+01               0
GRID*               3231               03.3333332793E+013.6956449011E+01+
*       -1.530297497E+01               0
GRID*               3232               05.0000000000E+012.8277927155E+01+
*       -2.829061389E+01               0
GRID*               3233               01.7833333335E+03-1.501448328E+01+
*       -3.625262354E+01               0
GRID*               3234               01.7666666671E+03-1.501449491E+01+
*       -3.625261872E+01               0
GRID*               3235               01.7833333333E+03-2.827792716E+01+
*       -2.829061389E+01               0
GRID*               3236               01.7500000007E+03-1.501451385E+01+
*       -3.625261088E+01               0
GRID*               3237               01.7333333343E+03-1.501453970E+01+
*       -3.625260018E+01               0
GRID*               3238               01.7166666679E+03-1.501457210E+01+
*       -3.625258676E+01               0
GRID*               3239               01.7000000016E+03-1.501461064E+01+
*       -3.625257080E+01               0
GRID*               3240               01.6833333353E+03-1.501465494E+01+
*       -3.625255246E+01               0
GRID*               3241               01.6666666690E+03-1.501470461E+01+
*       -3.625253189E+01               0
GRID*               3242               01.6500000027E+03-1.501475924E+01+
*       -3.625250927E+01               0
GRID*               3243               01.6333333365E+03-1.501481844E+01+
*       -3.625248476E+01               0
GRID*               3244               01.6166666703E+03-1.501488180E+01+
*       -3.625245852E+01               0
GRID*               3245               01.6000000041E+03-1.501494892E+01+
*       -3.625243073E+01               0
GRID*               3246               01.5833333379E+03-1.501501937E+01+
*       -3.625240156E+01               0
GRID*               3247               01.5666666717E+03-1.501509273E+01+
*       -3.625237118E+01               0
GRID*               3248               01.5500000055E+03-1.501516858E+01+
*       -3.625233977E+01               0
GRID*               3249               01.5333333393E+03-1.501524650E+01+
*       -3.625230751E+01               0
GRID*               3250               01.5166666732E+03-1.501532604E+01+
*       -3.625227458E+01               0
GRID*               3251               01.5000000070E+03-1.501540675E+01+
*       -3.625224115E+01               0
GRID*               3252               01.4833333409E+03-1.501548820E+01+
*       -3.625220743E+01               0
GRID*               3253               01.4666666747E+03-1.501556992E+01+
*       -3.625217359E+01               0
GRID*               3254               01.4500000085E+03-1.501565146E+01+
*       -3.625213983E+01               0
GRID*               3255               01.4333333423E+03-1.501573233E+01+
*       -3.625210634E+01               0
GRID*               3256               01.4166666761E+03-1.501581207E+01+
*       -3.625207332E+01               0
GRID*               3257               01.4000000099E+03-1.501589018E+01+
*       -3.625204098E+01               0
GRID*               3258               01.3833333437E+03-1.501596617E+01+
*       -3.625200951E+01               0
GRID*               3259               01.3666666775E+03-1.501603952E+01+
*       -3.625197914E+01               0
GRID*               3260               01.3500000112E+03-1.501610973E+01+
*       -3.625195007E+01               0
GRID*               3261               01.3333333449E+03-1.501617626E+01+
*       -3.625192252E+01               0
GRID*               3262               01.3166666786E+03-1.501623858E+01+
*       -3.625189671E+01               0
GRID*               3263               01.3000000123E+03-1.501629613E+01+
*       -3.625187288E+01               0
GRID*               3264               01.2833333459E+03-1.501634835E+01+
*       -3.625185126E+01               0
GRID*               3265               01.2666666795E+03-1.501639465E+01+
*       -3.625183209E+01               0
GRID*               3266               01.2500000130E+03-1.501643445E+01+
*       -3.625181561E+01               0
GRID*               3267               01.2333333465E+03-1.501646714E+01+
*       -3.625180207E+01               0
GRID*               3268               01.2166666799E+03-1.501649208E+01+
*       -3.625179175E+01               0
GRID*               3269               01.2000000133E+03-1.501650863E+01+
*       -3.625178489E+01               0
GRID*               3270               01.1833333466E+03-1.501651613E+01+
*       -3.625178179E+01               0
GRID*               3271               01.1666666799E+03-1.501651389E+01+
*       -3.625178271E+01               0
GRID*               3272               01.1500000131E+03-1.501650120E+01+
*       -3.625178797E+01               0
GRID*               3273               01.1333333463E+03-1.501647733E+01+
*       -3.625179785E+01               0
GRID*               3274               01.1166666793E+03-1.501644152E+01+
*       -3.625181268E+01               0
GRID*               3275               01.1000000123E+03-1.501639298E+01+
*       -3.625183278E+01               0
GRID*               3276               01.0833333452E+03-1.501633089E+01+
*       -3.625185849E+01               0
GRID*               3277               01.0666666780E+03-1.501625442E+01+
*       -3.625189016E+01               0
GRID*               3278               01.0500000108E+03-1.501616266E+01+
*       -3.625192815E+01               0
GRID*               3279               01.0333333434E+03-1.501605471E+01+
*       -3.625197285E+01               0
GRID*               3280               01.0166666759E+03-1.501592959E+01+
*       -3.625202466E+01               0
GRID*               3281               01.0000000083E+03-1.501578630E+01+
*       -3.625208399E+01               0
GRID*               3282               09.8333334059E+02-1.501562379E+01+
*       -3.625215128E+01               0
GRID*               3283               09.6666667276E+02-1.501544095E+01+
*       -3.625222699E+01               0
GRID*               3284               09.5000000479E+02-1.501523661E+01+
*       -3.625231160E+01               0
GRID*               3285               09.3333333668E+02-1.501500954E+01+
*       -3.625240563E+01               0
GRID*               3286               09.1666666843E+02-1.501475846E+01+
*       -3.625250959E+01               0
GRID*               3287               09.0000000002E+02-1.501448199E+01+
*       -3.625262407E+01               0
GRID*               3288               08.8333333160E+02-1.501420505E+01+
*       -3.625273875E+01               0
GRID*               3289               08.6666666335E+02-1.501395352E+01+
*       -3.625284290E+01               0
GRID*               3290               08.4999999524E+02-1.501372603E+01+
*       -3.625293710E+01               0
GRID*               3291               08.3333332727E+02-1.501352129E+01+
*       -3.625302187E+01               0
GRID*               3292               08.1666666124E+02-1.479474446E+01+
*       -3.572615004E+01               0
GRID*               3293               07.9999999378E+02-1.479462231E+01+
*       -3.572620061E+01               0
GRID*               3294               07.8333332412E+02-1.501303161E+01+
*       -3.625322464E+01               0
GRID*               3295               07.6666665663E+02-1.501290620E+01+
*       -3.625327657E+01               0
GRID*               3296               07.4999998925E+02-1.501279796E+01+
*       -3.625332138E+01               0
GRID*               3297               07.3333332197E+02-1.501270595E+01+
*       -3.625335948E+01               0
GRID*               3298               07.1666665478E+02-1.501262923E+01+
*       -3.625339125E+01               0
GRID*               3299               06.9999998769E+02-1.501256693E+01+
*       -3.625341705E+01               0
GRID*               3300               06.8333332067E+02-1.501251819E+01+
*       -3.625343723E+01               0
GRID*               3301               06.6666665374E+02-1.501248219E+01+
*       -3.625345214E+01               0
GRID*               3302               06.4999998687E+02-1.501245815E+01+
*       -3.625346209E+01               0
GRID*               3303               06.3333332008E+02-1.501244530E+01+
*       -3.625346741E+01               0
GRID*               3304               06.1666665335E+02-1.501244292E+01+
*       -3.625346840E+01               0
GRID*               3305               05.9999998669E+02-1.501245029E+01+
*       -3.625346535E+01               0
GRID*               3306               05.8333332008E+02-1.501246673E+01+
*       -3.625345854E+01               0
GRID*               3307               05.6666665352E+02-1.501249157E+01+
*       -3.625344825E+01               0
GRID*               3308               05.4999998701E+02-1.501252417E+01+
*       -3.625343476E+01               0
GRID*               3309               05.3333332055E+02-1.501256389E+01+
*       -3.625341831E+01               0
GRID*               3310               05.1666665412E+02-1.501261013E+01+
*       -3.625339916E+01               0
GRID*               3311               04.9999998774E+02-1.501266229E+01+
*       -3.625337756E+01               0
GRID*               3312               04.8333332139E+02-1.501271979E+01+
*       -3.625335375E+01               0
GRID*               3313               04.6666665797E+02-1.479432745E+01+
*       -3.572632271E+01               0
GRID*               3314               04.4999998879E+02-1.501284856E+01+
*       -3.625330043E+01               0
GRID*               3315               04.3333332252E+02-1.501291875E+01+
*       -3.625327137E+01               0
GRID*               3316               04.1666665628E+02-1.501299208E+01+
*       -3.625324100E+01               0
GRID*               3317               03.9999999006E+02-1.501306806E+01+
*       -3.625320954E+01               0
GRID*               3318               03.8333332385E+02-1.501314616E+01+
*       -3.625317720E+01               0
GRID*               3319               03.6666665766E+02-1.501322590E+01+
*       -3.625314419E+01               0
GRID*               3320               03.4999999148E+02-1.501330677E+01+
*       -3.625311070E+01               0
GRID*               3321               03.3333332531E+02-1.501338832E+01+
*       -3.625307693E+01               0
GRID*               3322               03.1666665914E+02-1.501347005E+01+
*       -3.625304309E+01               0
GRID*               3323               02.9999999298E+02-1.501355152E+01+
*       -3.625300936E+01               0
GRID*               3324               02.8333332682E+02-1.501363225E+01+
*       -3.625297593E+01               0
GRID*               3325               02.6666666065E+02-1.501371181E+01+
*       -3.625294298E+01               0
GRID*               3326               02.4999999448E+02-1.501378975E+01+
*       -3.625291071E+01               0
GRID*               3327               02.3333332956E+02-1.479514012E+01+
*       -3.572598620E+01               0
GRID*               3328               02.1666666440E+02-1.457645131E+01+
*       -3.519907791E+01               0
GRID*               3329               01.9999999797E+02-1.457648655E+01+
*       -3.519906332E+01               0
GRID*               3330               01.8333332972E+02-1.501407663E+01+
*       -3.625279192E+01               0
GRID*               3331               01.6666666350E+02-1.501414002E+01+
*       -3.625276567E+01               0
GRID*               3332               01.4999999726E+02-1.501419925E+01+
*       -3.625274115E+01               0
GRID*               3333               01.3333333100E+02-1.501425391E+01+
*       -3.625271851E+01               0
GRID*               3334               01.1666666472E+02-1.501430360E+01+
*       -3.625269794E+01               0
GRID*               3335               09.9999998414E+01-1.501434792E+01+
*       -3.625267959E+01               0
GRID*               3336               08.3333332085E+01-1.501438648E+01+
*       -3.625266362E+01               0
GRID*               3337               06.6666665728E+01-1.501441889E+01+
*       -3.625265020E+01               0
GRID*               3338               04.9999999343E+01-1.501444476E+01+
*       -3.625263949E+01               0
GRID*               3339               03.3333332928E+01-1.501446371E+01+
*       -3.625263164E+01               0
GRID*               3340               01.6666666481E+01-1.501447535E+01+
*       -3.625262682E+01               0
GRID*               3341               01.6666666667E+01-2.827792721E+01+
*       -2.829061384E+01               0
GRID*               3342               01.6666666419E+01-3.695643820E+01+
*       -1.530300109E+01               0
GRID*               3343               01.6666666667E+01-3.999999984E+01+
*       -3.587426594E-03               0
GRID*               3344               01.6666666770E+01-3.695467805E+01+
*       1.5308085345E+01               0
GRID*               3345               01.6666666666E+01-2.828807292E+01+
*       2.8280469044E+01               0
GRID*               3346               01.6666666479E+01-1.531092638E+01+
*       3.6953672070E+01               0
GRID*               3347               01.6666666667E+011.2546262891E-14+
*       4.0000000000E+01               0
GRID*               3348               01.6666666479E+011.5310923811E+01+
*       3.6953672978E+01               0
GRID*               3349               01.6666666667E+012.8288072930E+01+
*       2.8280469040E+01               0
GRID*               3350               01.6666666780E+013.6954675632E+01+
*       1.5308090775E+01               0
GRID*               3351               01.6666666667E+013.9999999839E+01+
*       -3.587434164E-03               0
GRID*               3352               01.6666666419E+013.6956442574E+01+
*       -1.530299052E+01               0
GRID*               3353               01.6666666667E+012.8277927160E+01+
*       -2.829061389E+01               0
GRID*               3354               01.6666666481E+011.5014483277E+01+
*       -3.625262354E+01               0
GRID*               3355               03.3333332929E+011.5014494912E+01+
*       -3.625261872E+01               0
GRID*               3356               04.9999999344E+011.5014513849E+01+
*       -3.625261088E+01               0
GRID*               3357               06.6666665729E+011.5014539705E+01+
*       -3.625260018E+01               0
GRID*               3358               08.3333332086E+011.5014572097E+01+
*       -3.625258676E+01               0
GRID*               3359               09.9999998415E+011.5014610638E+01+
*       -3.625257080E+01               0
GRID*               3360               01.1666666472E+021.5014654939E+01+
*       -3.625255246E+01               0
GRID*               3361               01.3333333100E+021.5014704605E+01+
*       -3.625253189E+01               0
GRID*               3362               01.4999999863E+021.4576861409E+01+
*       -3.519890811E+01               0
GRID*               3363               01.6666666508E+021.4576891010E+01+
*       -3.519889585E+01               0
GRID*               3364               01.8333332972E+021.5014881804E+01+
*       -3.625245852E+01               0
GRID*               3365               01.9999999593E+021.5014948917E+01+
*       -3.625243073E+01               0
GRID*               3366               02.1666666213E+021.5015019366E+01+
*       -3.625240156E+01               0
GRID*               3367               02.3333332831E+021.5015092730E+01+
*       -3.625237118E+01               0
GRID*               3368               02.4999999449E+021.5015168584E+01+
*       -3.625233977E+01               0
GRID*               3369               02.6666666065E+021.5015246499E+01+
*       -3.625230751E+01               0
GRID*               3370               02.8333332682E+021.5015326036E+01+
*       -3.625227458E+01               0
GRID*               3371               02.9999999649E+021.4577185167E+01+
*       -3.519877405E+01               0
GRID*               3372               03.1666666416E+021.4431138455E+01+
*       -3.484760710E+01               0
GRID*               3373               03.3333332799E+021.4723367811E+01+
*       -3.554988471E+01               0
GRID*               3374               03.4999999574E+021.4577307521E+01+
*       -3.519872338E+01               0
GRID*               3375               03.6666665766E+021.5015732335E+01+
*       -3.625210634E+01               0
GRID*               3376               03.8333332386E+021.5015812071E+01+
*       -3.625207332E+01               0
GRID*               3377               03.9999999006E+021.5015890180E+01+
*       -3.625204098E+01               0
GRID*               3378               04.1666665628E+021.5015966166E+01+
*       -3.625200951E+01               0
GRID*               3379               04.3333332613E+021.4723680875E+01+
*       -3.554975507E+01               0
GRID*               3380               04.4999999253E+021.4723727680E+01+
*       -3.554973569E+01               0
GRID*               3381               04.6666665508E+021.5016176261E+01+
*       -3.625192252E+01               0
GRID*               3382               04.8333332139E+021.5016238578E+01+
*       -3.625189671E+01               0
GRID*               3383               04.9999998774E+021.5016296128E+01+
*       -3.625187288E+01               0
GRID*               3384               05.1666665412E+021.5016348346E+01+
*       -3.625185126E+01               0
GRID*               3385               05.3333332055E+021.5016394653E+01+
*       -3.625183209E+01               0
GRID*               3386               05.4999998701E+021.5016434454E+01+
*       -3.625181561E+01               0
GRID*               3387               05.6666665352E+021.5016467139E+01+
*       -3.625180207E+01               0
GRID*               3388               05.8333332007E+021.5016492081E+01+
*       -3.625179175E+01               0
GRID*               3389               05.9999998668E+021.5016508634E+01+
*       -3.625178489E+01               0
GRID*               3390               06.1666665335E+021.5016516133E+01+
*       -3.625178179E+01               0
GRID*               3391               06.3333332671E+021.4577738740E+01+
*       -3.519854483E+01               0
GRID*               3392               06.4999999343E+021.4577732395E+01+
*       -3.519854745E+01               0
GRID*               3393               06.6666666020E+021.4577720459E+01+
*       -3.519855239E+01               0
GRID*               3394               06.8333332067E+021.5016441517E+01+
*       -3.625181268E+01               0
GRID*               3395               06.9999998768E+021.5016392977E+01+
*       -3.625183278E+01               0
GRID*               3396               07.1666665478E+021.5016330893E+01+
*       -3.625185849E+01               0
GRID*               3397               07.3333332196E+021.5016254416E+01+
*       -3.625189016E+01               0
GRID*               3398               07.4999998924E+021.5016162661E+01+
*       -3.625192815E+01               0
GRID*               3399               07.6666665662E+021.5016054706E+01+
*       -3.625197285E+01               0
GRID*               3400               07.8333332410E+021.5015929590E+01+
*       -3.625202466E+01               0
GRID*               3401               07.9999999169E+021.5015786303E+01+
*       -3.625208399E+01               0
GRID*               3402               08.1666665941E+021.5015623791E+01+
*       -3.625215128E+01               0
GRID*               3403               08.3333332724E+021.5015440947E+01+
*       -3.625222699E+01               0
GRID*               3404               08.4999999521E+021.5015236606E+01+
*       -3.625231160E+01               0
GRID*               3405               08.6666666332E+021.5015009541E+01+
*       -3.625240563E+01               0
GRID*               3406               08.8333333157E+021.5014758460E+01+
*       -3.625250959E+01               0
GRID*               3407               08.9999999998E+021.5014481994E+01+
*       -3.625262407E+01               0
GRID*               3408               09.1666666840E+021.5014205049E+01+
*       -3.625273875E+01               0
GRID*               3409               09.3333333665E+021.5013953517E+01+
*       -3.625284290E+01               0
GRID*               3410               09.5000000476E+021.5013726029E+01+
*       -3.625293710E+01               0
GRID*               3411               09.6666667273E+021.5013521292E+01+
*       -3.625302187E+01               0
GRID*               3412               09.8333334057E+021.5013338078E+01+
*       -3.625309774E+01               0
GRID*               3413               01.0000000083E+031.5013175221E+01+
*       -3.625316517E+01               0
GRID*               3414               01.0166666759E+031.5013031612E+01+
*       -3.625322464E+01               0
GRID*               3415               01.0333333434E+031.5012906195E+01+
*       -3.625327657E+01               0
GRID*               3416               01.0500000107E+031.5012797963E+01+
*       -3.625332138E+01               0
GRID*               3417               01.0666666780E+031.5012705950E+01+
*       -3.625335948E+01               0
GRID*               3418               01.0833333452E+031.5012629234E+01+
*       -3.625339125E+01               0
GRID*               3419               01.1000000123E+031.5012566929E+01+
*       -3.625341705E+01               0
GRID*               3420               01.1166666793E+031.5012518187E+01+
*       -3.625343723E+01               0
GRID*               3421               01.1333333463E+031.5012482189E+01+
*       -3.625345214E+01               0
GRID*               3422               01.1500000131E+031.5012458147E+01+
*       -3.625346209E+01               0
GRID*               3423               01.1666666799E+031.5012445302E+01+
*       -3.625346741E+01               0
GRID*               3424               01.1833333466E+031.5012442920E+01+
*       -3.625346840E+01               0
GRID*               3425               01.2000000133E+031.5012450292E+01+
*       -3.625346535E+01               0
GRID*               3426               01.2166666799E+031.5012466732E+01+
*       -3.625345854E+01               0
GRID*               3427               01.2333333465E+031.5012491572E+01+
*       -3.625344825E+01               0
GRID*               3428               01.2500000130E+031.5012524168E+01+
*       -3.625343476E+01               0
GRID*               3429               01.2666666795E+031.5012563890E+01+
*       -3.625341831E+01               0
GRID*               3430               01.2833333459E+031.5012610128E+01+
*       -3.625339916E+01               0
GRID*               3431               01.3000000123E+031.5012662288E+01+
*       -3.625337756E+01               0
GRID*               3432               01.3166666786E+031.5012719789E+01+
*       -3.625335375E+01               0
GRID*               3433               01.3333333449E+031.5012782065E+01+
*       -3.625332797E+01               0
GRID*               3434               01.3500000112E+031.5012848564E+01+
*       -3.625330043E+01               0
GRID*               3435               01.3666666775E+031.5012918747E+01+
*       -3.625327137E+01               0
GRID*               3436               01.3833333437E+031.5012992084E+01+
*       -3.625324100E+01               0
GRID*               3437               01.4000000099E+031.5013068057E+01+
*       -3.625320954E+01               0
GRID*               3438               01.4166666761E+031.5013146160E+01+
*       -3.625317720E+01               0
GRID*               3439               01.4333333423E+031.5013225896E+01+
*       -3.625314419E+01               0
GRID*               3440               01.4500000085E+031.5013306775E+01+
*       -3.625311070E+01               0
GRID*               3441               01.4666666747E+031.5013388318E+01+
*       -3.625307693E+01               0
GRID*               3442               01.4833333409E+031.5013470053E+01+
*       -3.625304309E+01               0
GRID*               3443               01.5000000070E+031.5013551517E+01+
*       -3.625300936E+01               0
GRID*               3444               01.5166666732E+031.5013632253E+01+
*       -3.625297593E+01               0
GRID*               3445               01.5333333393E+031.5013711811E+01+
*       -3.625294298E+01               0
GRID*               3446               01.5500000055E+031.5013789749E+01+
*       -3.625291071E+01               0
GRID*               3447               01.5666666717E+031.5013865628E+01+
*       -3.625287929E+01               0
GRID*               3448               01.5833333379E+031.5013939018E+01+
*       -3.625284890E+01               0
GRID*               3449               01.6000000041E+031.5014009493E+01+
*       -3.625281972E+01               0
GRID*               3450               01.6166666703E+031.5014076632E+01+
*       -3.625279192E+01               0
GRID*               3451               01.6333333365E+031.5014140021E+01+
*       -3.625276567E+01               0
GRID*               3452               01.6500000027E+031.5014199249E+01+
*       -3.625274115E+01               0
GRID*               3453               01.6666666690E+031.5014253908E+01+
*       -3.625271851E+01               0
GRID*               3454               01.6833333353E+031.5014303598E+01+
*       -3.625269794E+01               0
GRID*               3455               01.7000000016E+031.5014347920E+01+
*       -3.625267959E+01               0
GRID*               3456               01.7166666679E+031.5014386481E+01+
*       -3.625266362E+01               0
GRID*               3457               01.7333333343E+031.5014418890E+01+
*       -3.625265020E+01               0
GRID*               3458               01.7500000007E+031.5014444760E+01+
*       -3.625263949E+01               0
GRID*               3459               01.7666666671E+031.5014463707E+01+
*       -3.625263164E+01               0
GRID*               3460               01.7833333333E+032.8277927210E+01+
*       -2.829061384E+01               0
GRID*               3461               01.7833333335E+031.5014475352E+01+
*       -3.625262682E+01               0
GRID*               3462               01.7833333333E+033.9999999839E+01+
*       -3.587426594E-03               0
GRID*               3463               01.7833333336E+033.6956438197E+01+
*       -1.530300109E+01               0
GRID*               3464               01.7833333333E+032.8288072925E+01+
*       2.8280469044E+01               0
GRID*               3465               01.7833333332E+033.6954678048E+01+
*       1.5308085345E+01               0
GRID*               3466               01.7833333333E+03-4.874452047E-15+
*       4.0000000000E+01               0
GRID*               3467               01.7833333335E+031.5310926377E+01+
*       3.6953672070E+01               0
GRID*               3468               01.7833333333E+03-2.828807293E+01+
*       2.8280469040E+01               0
GRID*               3469               01.7833333335E+03-1.531092381E+01+
*       3.6953672978E+01               0
GRID*               3470               01.7833333333E+03-3.999999984E+01+
*       -3.587434164E-03               0
GRID*               3471               01.7833333332E+03-3.695467563E+01+
*       1.5308090775E+01               0
GRID*               3472               01.7833333336E+03-3.695644257E+01+
*       -1.530299052E+01               0
GRID*               3473               01.7653846156E+033.2141518623E+01+
*       -3.829999603E+01               0
GRID*               3474               01.7653846157E+034.9240123412E+01+
*       -8.681073569E+00               0
GRID*               3475               01.7653846154E+034.3305920756E+01+
*       2.4991942109E+01               0
GRID*               3476               01.7653846155E+031.7107805686E+01+
*       4.6982148597E+01               0
GRID*               3477               01.7653846155E+03-1.710780992E+01+
*       4.6982147213E+01               0
GRID*               3478               01.7653846154E+03-4.330592075E+01+
*       2.4991942129E+01               0
GRID*               3479               01.7653846159E+03-4.924011532E+01+
*       -8.681135059E+00               0
GRID*               3480               01.7653846155E+03-3.214148561E+01+
*       -3.830002219E+01               0
GRID*               3481               01.7307692315E+033.2141582819E+01+
*       -3.829994518E+01               0
GRID*               3482               01.7307692316E+034.9240129171E+01+
*       -8.681029820E+00               0
GRID*               3483               01.7307692308E+034.3305920757E+01+
*       2.4991942108E+01               0
GRID*               3484               01.7307692309E+031.7107804653E+01+
*       4.6982148934E+01               0
GRID*               3485               01.7307692309E+03-1.710781986E+01+
*       4.6982143966E+01               0
GRID*               3486               01.7307692308E+03-4.330592075E+01+
*       2.4991942129E+01               0
GRID*               3487               01.7307692324E+03-4.924009834E+01+
*       -8.681263975E+00               0
GRID*               3488               01.7307692311E+03-3.214145617E+01+
*       -3.830004550E+01               0
GRID*               3489               01.6961538477E+033.2141681609E+01+
*       -3.829986692E+01               0
GRID*               3490               01.6961538476E+034.9240138451E+01+
*       -8.680959335E+00               0
GRID*               3491               01.6961538462E+034.3305920757E+01+
*       2.4991942108E+01               0
GRID*               3492               01.6961538464E+031.7107802971E+01+
*       4.6982149484E+01               0
GRID*               3493               01.6961538464E+03-1.710783325E+01+
*       4.6982139589E+01               0
GRID*               3494               01.6961538462E+03-4.330592075E+01+
*       2.4991942129E+01               0
GRID*               3495               01.6961538494E+03-4.924007261E+01+
*       -8.681459417E+00               0
GRID*               3496               01.6961538469E+03-3.214140895E+01+
*       -3.830008291E+01               0
GRID*               3497               01.6615384642E+033.2141808151E+01+
*       -3.829976669E+01               0
GRID*               3498               01.6615384638E+034.9240150983E+01+
*       -8.680864140E+00               0
GRID*               3499               01.6615384615E+034.3305920757E+01+
*       2.4991942108E+01               0
GRID*               3500               01.6615384618E+031.7107800675E+01+
*       4.6982150234E+01               0
GRID*               3501               01.6615384618E+03-1.710784748E+01+
*       4.6982134938E+01               0
GRID*               3502               01.6615384615E+03-4.330592075E+01+
*       2.4991942128E+01               0
GRID*               3503               01.6615384666E+03-4.924004026E+01+
*       -8.681705199E+00               0
GRID*               3504               01.6615384628E+03-3.214134545E+01+
*       -3.830013321E+01               0
GRID*               3505               01.6269230808E+033.2141955470E+01+
*       -3.829964999E+01               0
GRID*               3506               01.6269230801E+034.9240166497E+01+
*       -8.680746298E+00               0
GRID*               3507               01.6269230769E+034.3305920757E+01+
*       2.4991942108E+01               0
GRID*               3508               01.6269230772E+031.7107797796E+01+
*       4.6982151175E+01               0
GRID*               3509               01.6269230772E+03-1.710785989E+01+
*       4.6982130883E+01               0
GRID*               3510               01.6269230769E+03-4.330592075E+01+
*       2.4991942128E+01               0
GRID*               3511               01.6269230841E+03-4.924000344E+01+
*       -8.681984843E+00               0
GRID*               3512               01.6269230788E+03-3.214126725E+01+
*       -3.830019516E+01               0
GRID*               3513               01.5923076975E+033.2142116451E+01+
*       -3.829952247E+01               0
GRID*               3514               01.5923076966E+034.9240184716E+01+
*       -8.680607913E+00               0
GRID*               3515               01.5923076923E+034.3305920756E+01+
*       2.4991942109E+01               0
GRID*               3516               01.5923076927E+031.7107794370E+01+
*       4.6982152295E+01               0
GRID*               3517               01.5923076926E+03-1.710786778E+01+
*       4.6982128305E+01               0
GRID*               3518               01.5923076923E+03-4.330592075E+01+
*       2.4991942128E+01               0
GRID*               3519               01.5923077017E+03-4.923996438E+01+
*       -8.682281543E+00               0
GRID*               3520               01.5923076949E+03-3.214117592E+01+
*       -3.830026750E+01               0
GRID*               3521               01.5576923143E+033.2142283817E+01+
*       -3.829938989E+01               0
GRID*               3522               01.5576923132E+034.9240205357E+01+
*       -8.680451132E+00               0
GRID*               3523               01.5576923077E+034.3305920756E+01+
*       2.4991942109E+01               0
GRID*               3524               01.5576923081E+031.7107790432E+01+
*       4.6982153581E+01               0
GRID*               3525               01.5576923079E+03-1.710786841E+01+
*       4.6982128101E+01               0
GRID*               3526               01.5576923077E+03-4.330592075E+01+
*       2.4991942128E+01               0
GRID*               3527               01.5576923192E+03-4.923992533E+01+
*       -8.682578131E+00               0
GRID*               3528               01.5576923111E+03-3.214107309E+01+
*       -3.830034896E+01               0
GRID*               3529               01.5230769310E+033.2142450113E+01+
*       -3.829925816E+01               0
GRID*               3530               01.5230769299E+034.9240228129E+01+
*       -8.680278155E+00               0
GRID*               3531               01.5230769231E+034.3305920756E+01+
*       2.4991942110E+01               0
GRID*               3532               01.5230769235E+031.7107786017E+01+
*       4.6982155024E+01               0
GRID*               3533               01.5230769233E+03-1.710785898E+01+
*       4.6982131182E+01               0
GRID*               3534               01.5230769231E+03-4.330592075E+01+
*       2.4991942128E+01               0
GRID*               3535               01.5230769366E+03-4.923988862E+01+
*       -8.682857039E+00               0
GRID*               3536               01.5230769274E+03-3.214096043E+01+
*       -3.830043820E+01               0
GRID*               3537               01.4884615477E+033.2142607687E+01+
*       -3.829913334E+01               0
GRID*               3538               01.4884615466E+034.9240252737E+01+
*       -8.680091237E+00               0
GRID*               3539               01.4884615385E+034.3305920756E+01+
*       2.4991942110E+01               0
GRID*               3540               01.4884615389E+031.7107781161E+01+
*       4.6982156611E+01               0
GRID*               3541               01.4884615386E+03-1.710783666E+01+
*       4.6982138477E+01               0
GRID*               3542               01.4884615385E+03-4.330592075E+01+
*       2.4991942128E+01               0
GRID*               3543               01.4884615537E+03-4.923985660E+01+
*       -8.683100247E+00               0
GRID*               3544               01.4884615437E+03-3.214083963E+01+
*       -3.830053389E+01               0
GRID*               3545               01.4538461642E+033.2142748663E+01+
*       -3.829902167E+01               0
GRID*               3546               01.4538461635E+034.9240278875E+01+
*       -8.679892698E+00               0
GRID*               3547               01.4538461538E+034.3305920755E+01+
*       2.4991942111E+01               0
GRID*               3548               01.4538461543E+031.7107775900E+01+
*       4.6982158330E+01               0
GRID*               3549               01.4538461538E+03-1.710779894E+01+
*       4.6982150803E+01               0
GRID*               3550               01.4538461538E+03-4.330592075E+01+
*       2.4991942127E+01               0
GRID*               3551               01.4538461704E+03-4.923983172E+01+
*       -8.683289232E+00               0
GRID*               3552               01.4538461601E+03-3.214071246E+01+
*       -3.830063463E+01               0
GRID*               3553               01.4192307806E+033.2142864916E+01+
*       -3.829892958E+01               0
GRID*               3554               01.4192307804E+034.9240306229E+01+
*       -8.679684925E+00               0
GRID*               3555               01.4192307692E+034.3305920755E+01+
*       2.4991942111E+01               0
GRID*               3556               01.4192307697E+031.7107770273E+01+
*       4.6982160169E+01               0
GRID*               3557               01.4192307691E+03-1.710776178E+01+
*       4.6982162944E+01               0
GRID*               3558               01.4192307692E+03-4.330592075E+01+
*       2.4991942127E+01               0
GRID*               3559               01.4192307866E+03-4.923981649E+01+
*       -8.683404907E+00               0
GRID*               3560               01.4192307766E+03-3.214058073E+01+
*       -3.830073898E+01               0
GRID*               3561               01.3846153966E+033.2142948041E+01+
*       -3.829886373E+01               0
GRID*               3562               01.3846153973E+034.9240334473E+01+
*       -8.679470388E+00               0
GRID*               3563               01.3846153846E+034.3305920755E+01+
*       2.4991942112E+01               0
GRID*               3564               01.3846153851E+031.7107764319E+01+
*       4.6982162115E+01               0
GRID*               3565               01.3846153844E+03-1.710773293E+01+
*       4.6982172372E+01               0
GRID*               3566               01.3846153846E+03-4.330592075E+01+
*       2.4991942127E+01               0
GRID*               3567               01.3846154020E+03-4.923981351E+01+
*       -8.683427548E+00               0
GRID*               3568               01.3846153930E+03-3.214044631E+01+
*       -3.830084546E+01               0
GRID*               3569               01.3500000123E+033.2142989317E+01+
*       -3.829883103E+01               0
GRID*               3570               01.3500000142E+034.9240363271E+01+
*       -8.679251645E+00               0
GRID*               3571               01.3500000000E+034.3305920754E+01+
*       2.4991942112E+01               0
GRID*               3572               01.3500000005E+031.7107758076E+01+
*       4.6982164155E+01               0
GRID*               3573               01.3499999997E+03-1.710771052E+01+
*       4.6982179694E+01               0
GRID*               3574               01.3500000000E+03-4.330592075E+01+
*       2.4991942126E+01               0
GRID*               3575               01.3500000167E+03-4.923982547E+01+
*       -8.683336718E+00               0
GRID*               3576               01.3500000095E+03-3.214031115E+01+
*       -3.830095252E+01               0
GRID*               3577               01.3153846276E+033.2142979663E+01+
*       -3.829883868E+01               0
GRID*               3578               01.3153846312E+034.9240392272E+01+
*       -8.679031355E+00               0
GRID*               3579               01.3153846154E+034.3305920754E+01+
*       2.4991942113E+01               0
GRID*               3580               01.3153846159E+031.7107751587E+01+
*       4.6982166275E+01               0
GRID*               3581               01.3153846150E+03-1.710769322E+01+
*       4.6982185347E+01               0
GRID*               3582               01.3153846154E+03-4.330592075E+01+
*       2.4991942126E+01               0
GRID*               3583               01.3153846303E+03-4.923985516E+01+
*       -8.683111166E+00               0
GRID*               3584               01.3153846260E+03-3.214017727E+01+
*       -3.830105857E+01               0
GRID*               3585               01.2807692424E+033.2142909593E+01+
*       -3.829889419E+01               0
GRID*               3586               01.2807692482E+034.9240421112E+01+
*       -8.678812295E+00               0
GRID*               3587               01.2807692308E+034.3305920754E+01+
*       2.4991942114E+01               0
GRID*               3588               01.2807692313E+031.7107744892E+01+
*       4.6982168463E+01               0
GRID*               3589               01.2807692303E+03-1.710768004E+01+
*       4.6982189655E+01               0
GRID*               3590               01.2807692308E+03-4.330592075E+01+
*       2.4991942125E+01               0
GRID*               3591               01.2807692429E+03-4.923990551E+01+
*       -8.682728721E+00               0
GRID*               3592               01.2807692424E+03-3.214004680E+01+
*       -3.830116193E+01               0
GRID*               3593               01.2461538566E+033.2142769159E+01+
*       -3.829900543E+01               0
GRID*               3594               01.2461538651E+034.9240449407E+01+
*       -8.678597369E+00               0
GRID*               3595               01.2461538462E+034.3305920753E+01+
*       2.4991942114E+01               0
GRID*               3596               01.2461538467E+031.7107738037E+01+
*       4.6982170703E+01               0
GRID*               3597               01.2461538457E+03-1.710767023E+01+
*       4.6982192861E+01               0
GRID*               3598               01.2461538462E+03-4.330592075E+01+
*       2.4991942125E+01               0
GRID*               3599               01.2461538541E+03-4.923997957E+01+
*       -8.682166164E+00               0
GRID*               3600               01.2461538588E+03-3.213992194E+01+
*       -3.830126084E+01               0
GRID*               3601               01.2115384702E+033.2142547881E+01+
*       -3.829918071E+01               0
GRID*               3602               01.2115384819E+034.9240476755E+01+
*       -8.678389635E+00               0
GRID*               3603               01.2115384615E+034.3305920753E+01+
*       2.4991942115E+01               0
GRID*               3604               01.2115384621E+031.7107731068E+01+
*       4.6982172981E+01               0
GRID*               3605               01.2115384610E+03-1.710766321E+01+
*       4.6982195155E+01               0
GRID*               3606               01.2115384615E+03-4.330592075E+01+
*       2.4991942125E+01               0
GRID*               3607               01.2115384638E+03-4.924008056E+01+
*       -8.681399078E+00               0
GRID*               3608               01.2115384752E+03-3.213980504E+01+
*       -3.830135344E+01               0
GRID*               3609               01.1769230830E+033.2142234673E+01+
*       -3.829942882E+01               0
GRID*               3610               01.1769230987E+034.9240502732E+01+
*       -8.678192320E+00               0
GRID*               3611               01.1769230769E+034.3305920753E+01+
*       2.4991942115E+01               0
GRID*               3612               01.1769230775E+031.7107724031E+01+
*       4.6982175280E+01               0
GRID*               3613               01.1769230764E+03-1.710765853E+01+
*       4.6982196686E+01               0
GRID*               3614               01.1769230769E+03-4.330592075E+01+
*       2.4991942124E+01               0
GRID*               3615               01.1769230726E+03-4.924019969E+01+
*       -8.680494208E+00               0
GRID*               3616               01.1769230914E+03-3.213969856E+01+
*       -3.830143778E+01               0
GRID*               3617               01.1423076949E+033.2141817753E+01+
*       -3.829975908E+01               0
GRID*               3618               01.1423077154E+034.9240526886E+01+
*       -8.678008850E+00               0
GRID*               3619               01.1423076923E+034.3305920752E+01+
*       2.4991942116E+01               0
GRID*               3620               01.1423076929E+031.7107716978E+01+
*       4.6982177585E+01               0
GRID*               3621               01.1423076918E+03-1.710765581E+01+
*       4.6982197573E+01               0
GRID*               3622               01.1423076923E+03-4.330592075E+01+
*       2.4991942124E+01               0
GRID*               3623               01.1423076823E+03-4.924030017E+01+
*       -8.679730939E+00               0
GRID*               3624               01.1423077076E+03-3.213960515E+01+
*       -3.830151178E+01               0
GRID*               3625               01.1076923061E+033.2141300004E+01+
*       -3.830016921E+01               0
GRID*               3626               01.1076923320E+034.9240548736E+01+
*       -8.677842882E+00               0
GRID*               3627               01.1076923077E+034.3305920752E+01+
*       2.4991942117E+01               0
GRID*               3628               01.1076923083E+031.7107709961E+01+
*       4.6982179878E+01               0
GRID*               3629               01.1076923071E+03-1.710765476E+01+
*       4.6982197915E+01               0
GRID*               3630               01.1076923077E+03-4.330592075E+01+
*       2.4991942123E+01               0
GRID*               3631               01.1076922932E+03-4.924038196E+01+
*       -8.679109676E+00               0
GRID*               3632               01.1076923236E+03-3.213952760E+01+
*       -3.830157320E+01               0
GRID*               3633               01.0730769177E+033.2140834479E+01+
*       -3.830053797E+01               0
GRID*               3634               01.0730769484E+034.9240567766E+01+
*       -8.677698337E+00               0
GRID*               3635               01.0730769231E+034.3305920752E+01+
*       2.4991942117E+01               0
GRID*               3636               01.0730769237E+031.7107703037E+01+
*       4.6982182140E+01               0
GRID*               3637               01.0730769225E+03-1.710765514E+01+
*       4.6982197792E+01               0
GRID*               3638               01.0730769231E+03-4.330592075E+01+
*       2.4991942123E+01               0
GRID*               3639               01.0730769049E+03-4.924044764E+01+
*       -8.678610790E+00               0
GRID*               3640               01.0730769395E+03-3.213946894E+01+
*       -3.830161967E+01               0
GRID*               3641               01.0384615299E+033.2140453679E+01+
*       -3.830083962E+01               0
GRID*               3642               01.0384615646E+034.9240583418E+01+
*       -8.677579446E+00               0
GRID*               3643               01.0384615385E+034.3305920751E+01+
*       2.4991942118E+01               0
GRID*               3644               01.0384615391E+031.7107696266E+01+
*       4.6982184353E+01               0
GRID*               3645               01.0384615379E+03-1.710765673E+01+
*       4.6982197271E+01               0
GRID*               3646               01.0384615385E+03-4.330592075E+01+
*       2.4991942122E+01               0
GRID*               3647               01.0384615173E+03-4.924049936E+01+
*       -8.678217933E+00               0
GRID*               3648               01.0384615552E+03-3.213943243E+01+
*       -3.830164860E+01               0
GRID*               3649               01.0038461428E+033.2140146824E+01+
*       -3.830108269E+01               0
GRID*               3650               01.0038461806E+034.9240595088E+01+
*       -8.677490805E+00               0
GRID*               3651               01.0038461538E+034.3305920751E+01+
*       2.4991942118E+01               0
GRID*               3652               01.0038461545E+031.7107689713E+01+
*       4.6982186495E+01               0
GRID*               3653               01.0038461532E+03-1.710765937E+01+
*       4.6982196411E+01               0
GRID*               3654               01.0038461538E+03-4.330592075E+01+
*       2.4991942122E+01               0
GRID*               3655               01.0038461305E+03-4.924053894E+01+
*       -8.677917321E+00               0
GRID*               3656               01.0038461707E+03-3.213942161E+01+
*       -3.830165717E+01               0
GRID*               3657               09.6923075624E+023.2139904734E+01+
*       -3.830127446E+01               0
GRID*               3658               09.6923079628E+024.9240602113E+01+
*       -8.677437437E+00               0
GRID*               3659               09.6923076923E+024.3305920751E+01+
*       2.4991942119E+01               0
GRID*               3660               09.6923076986E+021.7107683446E+01+
*       4.6982188542E+01               0
GRID*               3661               09.6923076861E+02-1.710766289E+01+
*       4.6982195260E+01               0
GRID*               3662               09.6923076923E+02-4.330592075E+01+
*       2.4991942121E+01               0
GRID*               3663               09.6923074424E+02-4.924056791E+01+
*       -8.677697204E+00               0
GRID*               3664               09.6923078595E+02-3.213944037E+01+
*       -3.830164230E+01               0
GRID*               3665               09.3461537013E+023.2139719507E+01+
*       -3.830142119E+01               0
GRID*               3666               09.3461541172E+024.9240603767E+01+
*       -8.677424877E+00               0
GRID*               3667               09.3461538462E+024.3305920751E+01+
*       2.4991942120E+01               0
GRID*               3668               09.3461538525E+021.7107677543E+01+
*       4.6982190471E+01               0
GRID*               3669               09.3461538399E+02-1.710766717E+01+
*       4.6982193862E+01               0
GRID*               3670               09.3461538462E+02-4.330592075E+01+
*       2.4991942121E+01               0
GRID*               3671               09.3461535849E+02-4.924058763E+01+
*       -8.677547455E+00               0
GRID*               3672               09.3461540092E+02-3.213949301E+01+
*       -3.830160061E+01               0
GRID*               3673               08.9999998442E+023.2139584274E+01+
*       -3.830152831E+01               0
GRID*               3674               09.0000002681E+024.9240599240E+01+
*       -8.677459261E+00               0
GRID*               3675               09.0000000000E+024.3305920750E+01+
*       2.4991942120E+01               0
GRID*               3676               09.0000000063E+021.7107672085E+01+
*       4.6982192255E+01               0
GRID*               3677               08.9999999937E+02-1.710767209E+01+
*       4.6982192255E+01               0
GRID*               3678               09.0000000000E+02-4.330592075E+01+
*       2.4991942120E+01               0
GRID*               3679               08.9999997319E+02-4.924059924E+01+
*       -8.677459261E+00               0
GRID*               3680               09.0000001558E+02-3.213958427E+01+
*       -3.830152831E+01               0
GRID*               3681               08.6538459908E+023.2139493008E+01+
*       -3.830160061E+01               0
GRID*               3682               08.6538464151E+024.9240587629E+01+
*       -8.677547455E+00               0
GRID*               3683               08.6538461538E+024.3305920750E+01+
*       2.4991942121E+01               0
GRID*               3684               08.6538461601E+021.7107667166E+01+
*       4.6982193862E+01               0
GRID*               3685               08.6538461475E+02-1.710767754E+01+
*       4.6982190471E+01               0
GRID*               3686               08.6538461538E+02-4.330592075E+01+
*       2.4991942120E+01               0
GRID*               3687               08.6538458828E+02-4.924060377E+01+
*       -8.677424877E+00               0
GRID*               3688               08.6538462987E+02-3.213971951E+01+
*       -3.830142119E+01               0
GRID*               3689               08.3076921405E+023.2139440375E+01+
*       -3.830164230E+01               0
GRID*               3690               08.3076925576E+024.9240567915E+01+
*       -8.677697204E+00               0
GRID*               3691               08.3076923077E+024.3305920750E+01+
*       2.4991942121E+01               0
GRID*               3692               08.3076923139E+021.7107662888E+01+
*       4.6982195260E+01               0
GRID*               3693               08.3076923014E+02-1.710768345E+01+
*       4.6982188542E+01               0
GRID*               3694               08.3076923077E+02-4.330592075E+01+
*       2.4991942119E+01               0
GRID*               3695               08.3076920372E+02-4.924060211E+01+
*       -8.677437437E+00               0
GRID*               3696               08.3076924376E+02-3.213990473E+01+
*       -3.830127446E+01               0
GRID*               3697               07.9615382930E+023.2139421610E+01+
*       -3.830165717E+01               0
GRID*               3698               07.9615386950E+024.9240538936E+01+
*       -8.677917321E+00               0
GRID*               3699               07.9615384615E+024.3305920749E+01+
*       2.4991942122E+01               0
GRID*               3700               07.9615384677E+021.7107659367E+01+
*       4.6982196411E+01               0
GRID*               3701               07.9615384552E+02-1.710768971E+01+
*       4.6982186495E+01               0
GRID*               3702               07.9615384615E+02-4.330592075E+01+
*       2.4991942118E+01               0
GRID*               3703               07.9615381945E+02-4.924059509E+01+
*       -8.677490805E+00               0
GRID*               3704               07.9615385717E+02-3.214014682E+01+
*       -3.830108269E+01               0
GRID*               3705               07.6153844479E+023.2139432428E+01+
*       -3.830164860E+01               0
GRID*               3706               07.6153848265E+024.9240499360E+01+
*       -8.678217933E+00               0
GRID*               3707               07.6153846154E+024.3305920749E+01+
*       2.4991942122E+01               0
GRID*               3708               07.6153846214E+021.7107656734E+01+
*       4.6982197271E+01               0
GRID*               3709               07.6153846091E+02-1.710769627E+01+
*       4.6982184353E+01               0
GRID*               3710               07.6153846154E+02-4.330592075E+01+
*       2.4991942118E+01               0
GRID*               3711               07.6153843543E+02-4.924058342E+01+
*       -8.677579446E+00               0
GRID*               3712               07.6153847006E+02-3.214045368E+01+
*       -3.830083962E+01               0
GRID*               3713               07.2692306049E+023.2139468942E+01+
*       -3.830161967E+01               0
GRID*               3714               07.2692309513E+024.9240447640E+01+
*       -8.678610790E+00               0
GRID*               3715               07.2692307692E+024.3305920749E+01+
*       2.4991942123E+01               0
GRID*               3716               07.2692307751E+021.7107655141E+01+
*       4.6982197792E+01               0
GRID*               3717               07.2692307630E+02-1.710770304E+01+
*       4.6982182140E+01               0
GRID*               3718               07.2692307692E+02-4.330592075E+01+
*       2.4991942117E+01               0
GRID*               3719               07.2692305164E+02-4.924056777E+01+
*       -8.677698337E+00               0
GRID*               3720               07.2692308233E+02-3.214083448E+01+
*       -3.830053797E+01               0
GRID*               3721               06.9230767636E+023.2139527604E+01+
*       -3.830157320E+01               0
GRID*               3722               06.9230770684E+024.9240381961E+01+
*       -8.679109675E+00               0
GRID*               3723               06.9230769231E+024.3305920749E+01+
*       2.4991942123E+01               0
GRID*               3724               06.9230769288E+021.7107654764E+01+
*       4.6982197915E+01               0
GRID*               3725               06.9230769169E+02-1.710770996E+01+
*       4.6982179878E+01               0
GRID*               3726               06.9230769231E+02-4.330592075E+01+
*       2.4991942117E+01               0
GRID*               3727               06.9230766803E+02-4.924054874E+01+
*       -8.677842882E+00               0
GRID*               3728               06.9230769391E+02-3.214130000E+01+
*       -3.830016921E+01               0
GRID*               3729               06.5769229240E+023.2139605151E+01+
*       -3.830151178E+01               0
GRID*               3730               06.5769231766E+024.9240300171E+01+
*       -8.679730939E+00               0
GRID*               3731               06.5769230769E+024.3305920748E+01+
*       2.4991942124E+01               0
GRID*               3732               06.5769230825E+021.7107655810E+01+
*       4.6982197573E+01               0
GRID*               3733               06.5769230708E+02-1.710771698E+01+
*       4.6982177585E+01               0
GRID*               3734               06.5769230769E+02-4.330592075E+01+
*       2.4991942116E+01               0
GRID*               3735               06.5769228459E+02-4.924052689E+01+
*       -8.678008850E+00               0
GRID*               3736               06.5769230506E+02-3.214181775E+01+
*       -3.829975908E+01               0
GRID*               3737               06.2307690855E+023.2139698565E+01+
*       -3.830143778E+01               0
GRID*               3738               06.2307692744E+024.9240199685E+01+
*       -8.680494208E+00               0
GRID*               3739               06.2307692308E+024.3305920748E+01+
*       2.4991942124E+01               0
GRID*               3740               06.2307692361E+021.7107658526E+01+
*       4.6982196686E+01               0
GRID*               3741               06.2307692247E+02-1.710772403E+01+
*       4.6982175280E+01               0
GRID*               3742               06.2307692308E+02-4.330592075E+01+
*       2.4991942115E+01               0
GRID*               3743               06.2307690127E+02-4.924050273E+01+
*       -8.678192320E+00               0
GRID*               3744               06.2307691702E+02-3.214223467E+01+
*       -3.829942882E+01               0
GRID*               3745               05.8846152482E+023.2139805037E+01+
*       -3.830135344E+01               0
GRID*               3746               05.8846153618E+024.9240080558E+01+
*       -8.681399078E+00               0
GRID*               3747               05.8846153846E+024.3305920748E+01+
*       2.4991942125E+01               0
GRID*               3748               05.8846153896E+021.7107663211E+01+
*       4.6982195155E+01               0
GRID*               3749               05.8846153787E+02-1.710773107E+01+
*       4.6982172981E+01               0
GRID*               3750               05.8846153846E+02-4.330592075E+01+
*       2.4991942115E+01               0
GRID*               3751               05.8846151805E+02-4.924047676E+01+
*       -8.678389635E+00               0
GRID*               3752               05.8846152983E+02-3.214254788E+01+
*       -3.829918071E+01               0
GRID*               3753               05.5384614116E+023.2139921938E+01+
*       -3.830126084E+01               0
GRID*               3754               05.5384614592E+024.9239979570E+01+
*       -8.682166164E+00               0
GRID*               3755               05.5384615385E+024.3305920748E+01+
*       2.4991942125E+01               0
GRID*               3756               05.5384615431E+021.7107670231E+01+
*       4.6982192861E+01               0
GRID*               3757               05.5384615326E+02-1.710773804E+01+
*       4.6982170703E+01               0
GRID*               3758               05.5384615385E+02-4.330592075E+01+
*       2.4991942114E+01               0
GRID*               3759               05.5384613491E+02-4.924044941E+01+
*       -8.678597369E+00               0
GRID*               3760               05.5384614339E+02-3.214276916E+01+
*       -3.829900543E+01               0
GRID*               3761               05.1923075757E+023.2140046795E+01+
*       -3.830116193E+01               0
GRID*               3762               05.1923075714E+024.9239905509E+01+
*       -8.682728721E+00               0
GRID*               3763               05.1923076923E+024.3305920747E+01+
*       2.4991942125E+01               0
GRID*               3764               05.1923076966E+021.7107680042E+01+
*       4.6982189655E+01               0
GRID*               3765               05.1923076866E+02-1.710774489E+01+
*       4.6982168463E+01               0
GRID*               3766               05.1923076923E+02-4.330592075E+01+
*       2.4991942114E+01               0
GRID*               3767               05.1923075183E+02-4.924042111E+01+
*       -8.678812295E+00               0
GRID*               3768               05.1923075760E+02-3.214290959E+01+
*       -3.829889419E+01               0
GRID*               3769               04.8461537402E+023.2140177272E+01+
*       -3.830105857E+01               0
GRID*               3770               04.8461536966E+024.9239855160E+01+
*       -8.683111166E+00               0
GRID*               3771               04.8461538462E+024.3305920747E+01+
*       2.4991942126E+01               0
GRID*               3772               04.8461538499E+021.7107693223E+01+
*       4.6982185347E+01               0
GRID*               3773               04.8461538406E+02-1.710775159E+01+
*       4.6982166275E+01               0
GRID*               3774               04.8461538462E+02-4.330592075E+01+
*       2.4991942113E+01               0
GRID*               3775               04.8461536878E+02-4.924039227E+01+
*       -8.679031356E+00               0
GRID*               3776               04.8461537240E+02-3.214297966E+01+
*       -3.829883868E+01               0
GRID*               3777               04.4999999049E+023.2140311149E+01+
*       -3.830095252E+01               0
GRID*               3778               04.4999998332E+024.9239825465E+01+
*       -8.683336718E+00               0
GRID*               3779               04.5000000000E+024.3305920747E+01+
*       2.4991942126E+01               0
GRID*               3780               04.5000000031E+021.7107710523E+01+
*       4.6982179694E+01               0
GRID*               3781               04.4999999946E+02-1.710775808E+01+
*       4.6982164155E+01               0
GRID*               3782               04.5000000000E+02-4.330592075E+01+
*       2.4991942112E+01               0
GRID*               3783               04.4999998575E+02-4.924036327E+01+
*       -8.679251645E+00               0
GRID*               3784               04.4999998768E+02-3.214298932E+01+
*       -3.829883103E+01               0
GRID*               3785               04.1538460697E+023.2140446310E+01+
*       -3.830084546E+01               0
GRID*               3786               04.1538459797E+024.9239813507E+01+
*       -8.683427548E+00               0
GRID*               3787               04.1538461538E+024.3305920747E+01+
*       2.4991942127E+01               0
GRID*               3788               04.1538461562E+021.7107732930E+01+
*       4.6982172372E+01               0
GRID*               3789               04.1538461486E+02-1.710776432E+01+
*       4.6982162115E+01               0
GRID*               3790               04.1538461538E+02-4.330592075E+01+
*       2.4991942112E+01               0
GRID*               3791               04.1538460271E+02-4.924033447E+01+
*       -8.679470388E+00               0
GRID*               3792               04.1538460339E+02-3.214294804E+01+
*       -3.829886373E+01               0
GRID*               3793               03.8076922344E+023.2140580729E+01+
*       -3.830073898E+01               0
GRID*               3794               03.8076921344E+024.9239816488E+01+
*       -8.683404906E+00               0
GRID*               3795               03.8076923077E+024.3305920747E+01+
*       2.4991942127E+01               0
GRID*               3796               03.8076923091E+021.7107761780E+01+
*       4.6982162944E+01               0
GRID*               3797               03.8076923027E+02-1.710777027E+01+
*       4.6982160169E+01               0
GRID*               3798               03.8076923077E+02-4.330592075E+01+
*       2.4991942111E+01               0
GRID*               3799               03.8076921965E+02-4.924030623E+01+
*       -8.679684925E+00               0
GRID*               3800               03.8076921944E+02-3.214286492E+01+
*       -3.829892958E+01               0
GRID*               3801               03.4615383989E+023.2140712462E+01+
*       -3.830063463E+01               0
GRID*               3802               03.4615382959E+024.9239831717E+01+
*       -8.683289232E+00               0
GRID*               3803               03.4615384615E+024.3305920746E+01+
*       2.4991942127E+01               0
GRID*               3804               03.4615384618E+021.7107798936E+01+
*       4.6982150803E+01               0
GRID*               3805               03.4615384567E+02-1.710777590E+01+
*       4.6982158330E+01               0
GRID*               3806               03.4615384615E+02-4.330592076E+01+
*       2.4991942111E+01               0
GRID*               3807               03.4615383654E+02-4.924027888E+01+
*       -8.679892698E+00               0
GRID*               3808               03.4615383577E+02-3.214274866E+01+
*       -3.829902167E+01               0
GRID*               3809               03.1153845630E+023.2140839632E+01+
*       -3.830053389E+01               0
GRID*               3810               03.1153844630E+024.9239856597E+01+
*       -8.683100247E+00               0
GRID*               3811               03.1153846154E+024.3305920746E+01+
*       2.4991942128E+01               0
GRID*               3812               03.1153846144E+021.7107836655E+01+
*       4.6982138477E+01               0
GRID*               3813               03.1153846108E+02-1.710778116E+01+
*       4.6982156611E+01               0
GRID*               3814               03.1153846154E+02-4.330592076E+01+
*       2.4991942110E+01               0
GRID*               3815               03.1153845338E+02-4.924025274E+01+
*       -8.680091237E+00               0
GRID*               3816               03.1153845230E+02-3.214260769E+01+
*       -3.829913334E+01               0
GRID*               3817               02.7692307265E+023.2140960429E+01+
*       -3.830043820E+01               0
GRID*               3818               02.7692306341E+024.9239888616E+01+
*       -8.682857039E+00               0
GRID*               3819               02.7692307692E+024.3305920746E+01+
*       2.4991942128E+01               0
GRID*               3820               02.7692307673E+021.7107858979E+01+
*       4.6982131182E+01               0
GRID*               3821               02.7692307650E+02-1.710778602E+01+
*       4.6982155024E+01               0
GRID*               3822               02.7692307692E+02-4.330592076E+01+
*       2.4991942110E+01               0
GRID*               3823               02.7692307014E+02-4.924022813E+01+
*       -8.680278155E+00               0
GRID*               3824               02.7692306897E+02-3.214245011E+01+
*       -3.829925816E+01               0
GRID*               3825               02.4230768893E+023.2141073095E+01+
*       -3.830034896E+01               0
GRID*               3826               02.4230768080E+024.9239925334E+01+
*       -8.682578131E+00               0
GRID*               3827               02.4230769231E+024.3305920746E+01+
*       2.4991942128E+01               0
GRID*               3828               02.4230769206E+021.7107868406E+01+
*       4.6982128101E+01               0
GRID*               3829               02.4230769191E+02-1.710779043E+01+
*       4.6982153581E+01               0
GRID*               3830               02.4230769231E+02-4.330592076E+01+
*       2.4991942109E+01               0
GRID*               3831               02.4230768682E+02-4.924020536E+01+
*       -8.680451132E+00               0
GRID*               3832               02.4230768572E+02-3.214228382E+01+
*       -3.829938989E+01               0
GRID*               3833               02.0769230513E+023.2141175923E+01+
*       -3.830026750E+01               0
GRID*               3834               02.0769229834E+024.9239964381E+01+
*       -8.682281543E+00               0
GRID*               3835               02.0769230769E+024.3305920746E+01+
*       2.4991942128E+01               0
GRID*               3836               02.0769230742E+021.7107867781E+01+
*       4.6982128305E+01               0
GRID*               3837               02.0769230733E+02-1.710779437E+01+
*       4.6982152295E+01               0
GRID*               3838               02.0769230769E+02-4.330592076E+01+
*       2.4991942109E+01               0
GRID*               3839               02.0769230339E+02-4.924018472E+01+
*       -8.680607913E+00               0
GRID*               3840               02.0769230249E+02-3.214211645E+01+
*       -3.829952247E+01               0
GRID*               3841               01.7307692124E+023.2141267250E+01+
*       -3.830019516E+01               0
GRID*               3842               01.7307691590E+024.9240003441E+01+
*       -8.681984843E+00               0
GRID*               3843               01.7307692308E+024.3305920746E+01+
*       2.4991942128E+01               0
GRID*               3844               01.7307692280E+021.7107859893E+01+
*       4.6982130883E+01               0
GRID*               3845               01.7307692276E+02-1.710779780E+01+
*       4.6982151175E+01               0
GRID*               3846               01.7307692308E+02-4.330592076E+01+
*       2.4991942108E+01               0
GRID*               3847               01.7307691985E+02-4.924016650E+01+
*       -8.680746298E+00               0
GRID*               3848               01.7307691920E+02-3.214195547E+01+
*       -3.829964999E+01               0
GRID*               3849               01.3846153724E+023.2141345454E+01+
*       -3.830013321E+01               0
GRID*               3850               01.3846153337E+024.9240040257E+01+
*       -8.681705199E+00               0
GRID*               3851               01.3846153846E+024.3305920746E+01+
*       2.4991942128E+01               0
GRID*               3852               01.3846153821E+021.7107847484E+01+
*       4.6982134938E+01               0
GRID*               3853               01.3846153819E+02-1.710780067E+01+
*       4.6982150234E+01               0
GRID*               3854               01.3846153846E+02-4.330592076E+01+
*       2.4991942108E+01               0
GRID*               3855               01.3846153618E+02-4.924015098E+01+
*       -8.680864140E+00               0
GRID*               3856               01.3846153581E+02-3.214180815E+01+
*       -3.829976669E+01               0
GRID*               3857               01.0384615313E+023.2141408947E+01+
*       -3.830008291E+01               0
GRID*               3858               01.0384615064E+024.9240072614E+01+
*       -8.681459417E+00               0
GRID*               3859               01.0384615385E+024.3305920746E+01+
*       2.4991942129E+01               0
GRID*               3860               01.0384615363E+021.7107833252E+01+
*       4.6982139589E+01               0
GRID*               3861               01.0384615363E+02-1.710780297E+01+
*       4.6982149484E+01               0
GRID*               3862               01.0384615385E+02-4.330592076E+01+
*       2.4991942108E+01               0
GRID*               3863               01.0384615237E+02-4.924013845E+01+
*       -8.680959335E+00               0
GRID*               3864               01.0384615225E+02-3.214168161E+01+
*       -3.829986692E+01               0
GRID*               3865               06.9230768893E+013.2141456174E+01+
*       -3.830004550E+01               0
GRID*               3866               06.9230767569E+014.9240098345E+01+
*       -8.681263975E+00               0
GRID*               3867               06.9230769230E+014.3305920746E+01+
*       2.4991942129E+01               0
GRID*               3868               06.9230769072E+011.7107819856E+01+
*       4.6982143966E+01               0
GRID*               3869               06.9230769075E+01-1.710780465E+01+
*       4.6982148934E+01               0
GRID*               3870               06.9230769231E+01-4.330592076E+01+
*       2.4991942108E+01               0
GRID*               3871               06.9230768408E+01-4.924012917E+01+
*       -8.681029820E+00               0
GRID*               3872               06.9230768470E+01-3.214158282E+01+
*       -3.829994518E+01               0
GRID*               3873               03.4615384519E+013.2141485607E+01+
*       -3.830002219E+01               0
GRID*               3874               03.4615384061E+014.9240115317E+01+
*       -8.681135059E+00               0
GRID*               3875               03.4615384615E+014.3305920746E+01+
*       2.4991942129E+01               0
GRID*               3876               03.4615384529E+011.7107809921E+01+
*       4.6982147213E+01               0
GRID*               3877               03.4615384531E+01-1.710780569E+01+
*       4.6982148597E+01               0
GRID*               3878               03.4615384615E+01-4.330592076E+01+
*       2.4991942109E+01               0
GRID*               3879               03.4615384288E+01-4.924012341E+01+
*       -8.681073569E+00               0
GRID*               3880               03.4615384405E+01-3.214151862E+01+
*       -3.829999603E+01               0
GRID*               3881               01.7480769235E+033.2141545974E+01+
*       -3.829997437E+01               0
GRID*               3882               01.7307692308E+034.3296226434E+01+
*       -2.500873286E+01               0
GRID*               3883               01.7480769231E+034.3296226434E+01+
*       -2.500873286E+01               0
GRID*               3884               01.7480769236E+034.9240125835E+01+
*       -8.681055162E+00               0
GRID*               3885               01.7653846154E+034.3296226435E+01+
*       -2.500873286E+01               0
GRID*               3886               01.7307692319E+034.9240186581E+01+
*       8.6829281502E+00               0
GRID*               3887               01.7480769239E+034.9240188853E+01+
*       8.6829154546E+00               0
GRID*               3888               01.7480769231E+034.3305920757E+01+
*       2.4991942108E+01               0
GRID*               3889               01.7653846160E+034.9240190518E+01+
*       8.6829061566E+00               0
GRID*               3890               01.7307692315E+033.2139317164E+01+
*       3.8302135479E+01               0
GRID*               3891               01.7480769236E+033.2139321307E+01+
*       3.8302132450E+01               0
GRID*               3892               01.7480769232E+031.7107805253E+01+
*       4.6982148738E+01               0
GRID*               3893               01.7653846158E+033.2139324302E+01+
*       3.8302130261E+01               0
GRID*               3894               01.7307692308E+03-2.189711471E-11+
*       5.0000000000E+01               0
GRID*               3895               01.7480769231E+03-2.703141272E-11+
*       5.0000000000E+01               0
GRID*               3896               01.7480769232E+03-1.710781429E+01+
*       4.6982145784E+01               0
GRID*               3897               01.7653846154E+03-2.199075788E-11+
*       5.0000000000E+01               0
GRID*               3898               01.7307692320E+03-3.213942093E+01+
*       3.8302059621E+01               0
GRID*               3899               01.7480769240E+03-3.213938298E+01+
*       3.8302087366E+01               0
GRID*               3900               01.7480769231E+03-4.330592075E+01+
*       2.4991942129E+01               0
GRID*               3901               01.7653846159E+03-3.213935317E+01+
*       3.8302109154E+01               0
GRID*               3902               01.7307692319E+03-4.924019772E+01+
*       8.6828658856E+00               0
GRID*               3903               01.7480769239E+03-4.924019523E+01+
*       8.6828798201E+00               0
GRID*               3904               01.7480769241E+03-4.924010806E+01+
*       -8.681190200E+00               0
GRID*               3905               01.7653846160E+03-4.924019340E+01+
*       8.6828900487E+00               0
GRID*               3906               01.7307692308E+03-4.329622647E+01+
*       -2.500873281E+01               0
GRID*               3907               01.7480769231E+03-4.329622647E+01+
*       -2.500873281E+01               0
GRID*               3908               01.7480769233E+03-3.214147321E+01+
*       -3.830003201E+01               0
GRID*               3909               01.7653846154E+03-4.329622647E+01+
*       -2.500873281E+01               0
GRID*               3910               01.7134615396E+033.2141628315E+01+
*       -3.829990914E+01               0
GRID*               3911               01.6961538462E+034.3296226434E+01+
*       -2.500873286E+01               0
GRID*               3912               01.7134615385E+034.3296226434E+01+
*       -2.500873286E+01               0
GRID*               3913               01.7134615396E+034.9240133388E+01+
*       -8.680997794E+00               0
GRID*               3914               01.6961538478E+034.9240180348E+01+
*       8.6829629809E+00               0
GRID*               3915               01.7134615398E+034.9240183735E+01+
*       8.6829440555E+00               0
GRID*               3916               01.7134615385E+034.3305920757E+01+
*       2.4991942108E+01               0
GRID*               3917               01.6961538472E+033.2139305545E+01+
*       3.8302143973E+01               0
GRID*               3918               01.7134615394E+033.2139311900E+01+
*       3.8302139327E+01               0
GRID*               3919               01.7134615386E+031.7107803891E+01+
*       4.6982149183E+01               0
GRID*               3920               01.6961538462E+03-2.180410733E-11+
*       5.0000000000E+01               0
GRID*               3921               01.7134615385E+03-2.693840534E-11+
*       5.0000000000E+01               0
GRID*               3922               01.7134615387E+03-1.710782628E+01+
*       4.6982141866E+01               0
GRID*               3923               01.6961538481E+03-3.213951248E+01+
*       3.8301992686E+01               0
GRID*               3924               01.7134615401E+03-3.213946483E+01+
*       3.8302027523E+01               0
GRID*               3925               01.7134615385E+03-4.330592075E+01+
*       2.4991942129E+01               0
GRID*               3926               01.6961538478E+03-4.924020454E+01+
*       8.6828278017E+00               0
GRID*               3927               01.7134615399E+03-4.924020084E+01+
*       8.6828484703E+00               0
GRID*               3928               01.7134615408E+03-4.924008644E+01+
*       -8.681354385E+00               0
GRID*               3929               01.6961538462E+03-4.329622647E+01+
*       -2.500873281E+01               0
GRID*               3930               01.7134615385E+03-4.329622647E+01+
*       -2.500873281E+01               0
GRID*               3931               01.7134615390E+03-3.214143469E+01+
*       -3.830006252E+01               0
GRID*               3932               01.6788461559E+033.2141741844E+01+
*       -3.829981921E+01               0
GRID*               3933               01.6615384615E+034.3296226435E+01+
*       -2.500873286E+01               0
GRID*               3934               01.6788461538E+034.3296226435E+01+
*       -2.500873286E+01               0
GRID*               3935               01.6788461557E+034.9240144327E+01+
*       -8.680914699E+00               0
GRID*               3936               01.6615384637E+034.9240172089E+01+
*       8.6830091239E+00               0
GRID*               3937               01.6788461557E+034.9240176454E+01+
*       8.6829847348E+00               0
GRID*               3938               01.6788461538E+034.3305920757E+01+
*       2.4991942108E+01               0
GRID*               3939               01.6615384629E+033.2139289677E+01+
*       3.8302155574E+01               0
GRID*               3940               01.6788461550E+033.2139298128E+01+
*       3.8302149396E+01               0
GRID*               3941               01.6788461541E+031.7107801898E+01+
*       4.6982149835E+01               0
GRID*               3942               01.6615384615E+03-2.168203514E-11+
*       5.0000000000E+01               0
GRID*               3943               01.6788461538E+03-2.684539796E-11+
*       5.0000000000E+01               0
GRID*               3944               01.6788461541E+03-1.710784043E+01+
*       4.6982137244E+01               0
GRID*               3945               01.6615384642E+03-3.213961012E+01+
*       3.8301921306E+01               0
GRID*               3946               01.6788461562E+03-3.213956166E+01+
*       3.8301956735E+01               0
GRID*               3947               01.6788461538E+03-4.330592075E+01+
*       2.4991942129E+01               0
GRID*               3948               01.6615384637E+03-4.924021352E+01+
*       8.6827776245E+00               0
GRID*               3949               01.6788461558E+03-4.924020878E+01+
*       8.6828041092E+00               0
GRID*               3950               01.6788461580E+03-4.924005713E+01+
*       -8.681577038E+00               0
GRID*               3951               01.6615384615E+03-4.329622647E+01+
*       -2.500873281E+01               0
GRID*               3952               01.6788461538E+03-4.329622647E+01+
*       -2.500873281E+01               0
GRID*               3953               01.6788461548E+03-3.214137914E+01+
*       -3.830010653E+01               0
GRID*               3954               01.6442307725E+033.2141879654E+01+
*       -3.829971004E+01               0
GRID*               3955               01.6269230769E+034.3296226436E+01+
*       -2.500873285E+01               0
GRID*               3956               01.6442307692E+034.3296226435E+01+
*       -2.500873285E+01               0
GRID*               3957               01.6442307720E+034.9240158385E+01+
*       -8.680807920E+00               0
GRID*               3958               01.6269230795E+034.9240162085E+01+
*       8.6830650247E+00               0
GRID*               3959               01.6442307716E+034.9240167288E+01+
*       8.6830359531E+00               0
GRID*               3960               01.6442307692E+034.3305920757E+01+
*       2.4991942108E+01               0
GRID*               3961               01.6269230785E+033.2139269793E+01+
*       3.8302170111E+01               0
GRID*               3962               01.6442307707E+033.2139280222E+01+
*       3.8302162486E+01               0
GRID*               3963               01.6442307695E+031.7107799306E+01+
*       4.6982150682E+01               0
GRID*               3964               01.6269230769E+03-2.161663933E-11+
*       5.0000000000E+01               0
GRID*               3965               01.6442307692E+03-2.672332578E-11+
*       5.0000000000E+01               0
GRID*               3966               01.6442307695E+03-1.710785408E+01+
*       4.6982132781E+01               0
GRID*               3967               01.6269230802E+03-3.213969588E+01+
*       3.8301858612E+01               0
GRID*               3968               01.6442307722E+03-3.213965562E+01+
*       3.8301888045E+01               0
GRID*               3969               01.6442307692E+03-4.330592075E+01+
*       2.4991942128E+01               0
GRID*               3970               01.6269230796E+03-4.924022433E+01+
*       8.6827172172E+00               0
GRID*               3971               01.6442307716E+03-4.924021872E+01+
*       8.6827485816E+00               0
GRID*               3972               01.6442307753E+03-4.924002227E+01+
*       -8.681841831E+00               0
GRID*               3973               01.6269230769E+03-4.329622647E+01+
*       -2.500873281E+01               0
GRID*               3974               01.6442307692E+03-4.329622647E+01+
*       -2.500873281E+01               0
GRID*               3975               01.6442307707E+03-3.214130809E+01+
*       -3.830016280E+01               0
GRID*               3976               01.6096153891E+033.2142034704E+01+
*       -3.829958722E+01               0
GRID*               3977               01.5923076923E+034.3296226436E+01+
*       -2.500873285E+01               0
GRID*               3978               01.6096153846E+034.3296226436E+01+
*       -2.500873285E+01               0
GRID*               3979               01.6096153884E+034.9240175286E+01+
*       -8.680679540E+00               0
GRID*               3980               01.5923076953E+034.9240150618E+01+
*       8.6831290949E+00               0
GRID*               3981               01.6096153874E+034.9240156516E+01+
*       8.6830961393E+00               0
GRID*               3982               01.6096153846E+034.3305920756E+01+
*       2.4991942109E+01               0
GRID*               3983               01.5923076942E+033.2139246130E+01+
*       3.8302187410E+01               0
GRID*               3984               01.6096153864E+033.2139258419E+01+
*       3.8302178426E+01               0
GRID*               3985               01.6096153850E+031.7107796150E+01+
*       4.6982151713E+01               0
GRID*               3986               01.5923076923E+03-2.149602038E-11+
*       5.0000000000E+01               0
GRID*               3987               01.6096153846E+03-2.665792996E-11+
*       5.0000000000E+01               0
GRID*               3988               01.6096153849E+03-1.710786457E+01+
*       4.6982129354E+01               0
GRID*               3989               01.5923076958E+03-3.213975152E+01+
*       3.8301817930E+01               0
GRID*               3990               01.6096153881E+03-3.213972861E+01+
*       3.8301834679E+01               0
GRID*               3991               01.6096153846E+03-4.330592075E+01+
*       2.4991942128E+01               0
GRID*               3992               01.5923076954E+03-4.924023663E+01+
*       8.6826484838E+00               0
GRID*               3993               01.6096153875E+03-4.924023032E+01+
*       8.6826837706E+00               0
GRID*               3994               01.6096153929E+03-4.923998405E+01+
*       -8.682132125E+00               0
GRID*               3995               01.5923076923E+03-4.329622647E+01+
*       -2.500873281E+01               0
GRID*               3996               01.6096153846E+03-4.329622647E+01+
*       -2.500873281E+01               0
GRID*               3997               01.6096153868E+03-3.214122313E+01+
*       -3.830023011E+01               0
GRID*               3998               01.5750000059E+033.2142199798E+01+
*       -3.829945645E+01               0
GRID*               3999               01.5576923077E+034.3296226437E+01+
*       -2.500873285E+01               0
GRID*               4000               01.5750000000E+034.3296226437E+01+
*       -2.500873285E+01               0
GRID*               4001               01.5750000049E+034.9240194752E+01+
*       -8.680531685E+00               0
GRID*               4002               01.5576923111E+034.9240137980E+01+
*       8.6831997089E+00               0
GRID*               4003               01.5750000032E+034.9240144427E+01+
*       8.6831636871E+00               0
GRID*               4004               01.5750000000E+034.3305920756E+01+
*       2.4991942109E+01               0
GRID*               4005               01.5576923098E+033.2139218930E+01+
*       3.8302207295E+01               0
GRID*               4006               01.5750000020E+033.2139232957E+01+
*       3.8302197041E+01               0
GRID*               4007               01.5750000004E+031.7107792463E+01+
*       4.6982152918E+01               0
GRID*               4008               01.5576923077E+03-2.143062457E-11+
*       5.0000000000E+01               0
GRID*               4009               01.5750000000E+03-2.653585778E-11+
*       5.0000000000E+01               0
GRID*               4010               01.5750000003E+03-1.710786917E+01+
*       4.6982127850E+01               0
GRID*               4011               01.5576923111E+03-3.213975854E+01+
*       3.8301812800E+01               0
GRID*               4012               01.5750000036E+03-3.213976228E+01+
*       3.8301810066E+01               0
GRID*               4013               01.5750000000E+03-4.330592075E+01+
*       2.4991942128E+01               0
GRID*               4014               01.5576923112E+03-4.924025008E+01+
*       8.6825733727E+00               0
GRID*               4015               01.5750000033E+03-4.924024323E+01+
*       8.6826116018E+00               0
GRID*               4016               01.5750000104E+03-4.923994471E+01+
*       -8.682430939E+00               0
GRID*               4017               01.5576923077E+03-4.329622646E+01+
*       -2.500873281E+01               0
GRID*               4018               01.5750000000E+03-4.329622647E+01+
*       -2.500873281E+01               0
GRID*               4019               01.5750000030E+03-3.214112584E+01+
*       -3.830030717E+01               0
GRID*               4020               01.5403846227E+033.2142367572E+01+
*       -3.829932354E+01               0
GRID*               4021               01.5230769231E+034.3296226438E+01+
*       -2.500873285E+01               0
GRID*               4022               01.5403846154E+034.3296226437E+01+
*       -2.500873285E+01               0
GRID*               4023               01.5403846215E+034.9240216495E+01+
*       -8.680366528E+00               0
GRID*               4024               01.5230769269E+034.9240124470E+01+
*       8.6832751995E+00               0
GRID*               4025               01.5403846190E+034.9240131315E+01+
*       8.6832369506E+00               0
GRID*               4026               01.5403846154E+034.3305920756E+01+
*       2.4991942109E+01               0
GRID*               4027               01.5230769255E+033.2139188438E+01+
*       3.8302229587E+01               0
GRID*               4028               01.5403846177E+033.2139204080E+01+
*       3.8302218152E+01               0
GRID*               4029               01.5403846158E+031.7107788282E+01+
*       4.6982154284E+01               0
GRID*               4030               01.5230769231E+03-2.130855238E-11+
*       5.0000000000E+01               0
GRID*               4031               01.5403846154E+03-2.647191520E-11+
*       5.0000000000E+01               0
GRID*               4032               01.5403846156E+03-1.710786513E+01+
*       4.6982129173E+01               0
GRID*               4033               01.5230769260E+03-3.213969808E+01+
*       3.8301857000E+01               0
GRID*               4034               01.5403846186E+03-3.213973794E+01+
*       3.8301827862E+01               0
GRID*               4035               01.5403846154E+03-4.330592075E+01+
*       2.4991942128E+01               0
GRID*               4036               01.5230769270E+03-4.924026430E+01+
*       8.6824938821E+00               0
GRID*               4037               01.5403846191E+03-4.924025711E+01+
*       8.6825340478E+00               0
GRID*               4038               01.5403846279E+03-4.923990654E+01+
*       -8.682720910E+00               0
GRID*               4039               01.5230769231E+03-4.329622646E+01+
*       -2.500873281E+01               0
GRID*               4040               01.5403846154E+03-4.329622646E+01+
*       -2.500873281E+01               0
GRID*               4041               01.5403846192E+03-3.214101789E+01+
*       -3.830039269E+01               0
GRID*               4042               01.5057692394E+033.2142530477E+01+
*       -3.829919450E+01               0
GRID*               4043               01.4884615385E+034.3296226439E+01+
*       -2.500873285E+01               0
GRID*               4044               01.5057692308E+034.3296226438E+01+
*       -2.500873285E+01               0
GRID*               4045               01.5057692382E+034.9240240223E+01+
*       -8.680186295E+00               0
GRID*               4046               01.4884615426E+034.9240110393E+01+
*       8.6833538530E+00               0
GRID*               4047               01.5057692348E+034.9240117482E+01+
*       8.6833142399E+00               0
GRID*               4048               01.5057692308E+034.3305920756E+01+
*       2.4991942110E+01               0
GRID*               4049               01.4884615412E+033.2139154905E+01+
*       3.8302254102E+01               0
GRID*               4050               01.5057692333E+033.2139172036E+01+
*       3.8302241578E+01               0
GRID*               4051               01.5057692312E+031.7107783642E+01+
*       4.6982155800E+01               0
GRID*               4052               01.4884615385E+03-2.127222138E-11+
*       5.0000000000E+01               0
GRID*               4053               01.5057692308E+03-2.640651939E-11+
*       5.0000000000E+01               0
GRID*               4054               01.5057692309E+03-1.710784961E+01+
*       4.6982134244E+01               0
GRID*               4055               01.4884615402E+03-3.213955093E+01+
*       3.8301964578E+01               0
GRID*               4056               01.5057692331E+03-3.213963656E+01+
*       3.8301901978E+01               0
GRID*               4057               01.5057692308E+03-4.330592075E+01+
*       2.4991942128E+01               0
GRID*               4058               01.4884615428E+03-4.924027895E+01+
*       8.6824120659E+00               0
GRID*               4059               01.5057692349E+03-4.924027160E+01+
*       8.6824531340E+00               0
GRID*               4060               01.5057692452E+03-4.923987187E+01+
*       -8.682984251E+00               0
GRID*               4061               01.4884615385E+03-4.329622646E+01+
*       -2.500873281E+01               0
GRID*               4062               01.5057692308E+03-4.329622646E+01+
*       -2.500873281E+01               0
GRID*               4063               01.5057692355E+03-3.214090094E+01+
*       -3.830048533E+01               0
GRID*               4064               01.4711538560E+033.2142680751E+01+
*       -3.829907546E+01               0
GRID*               4065               01.4538461538E+034.3296226439E+01+
*       -2.500873285E+01               0
GRID*               4066               01.4711538462E+034.3296226439E+01+
*       -2.500873285E+01               0
GRID*               4067               01.4711538550E+034.9240265634E+01+
*       -8.679993273E+00               0
GRID*               4068               01.4538461584E+034.9240096066E+01+
*       8.6834339041E+00               0
GRID*               4069               01.4711538505E+034.9240103241E+01+
*       8.6833938164E+00               0
GRID*               4070               01.4711538462E+034.3305920755E+01+
*       2.4991942111E+01               0
GRID*               4071               01.4538461568E+033.2139118587E+01+
*       3.8302280654E+01               0
GRID*               4072               01.4711538490E+033.2139137078E+01+
*       3.8302267135E+01               0
GRID*               4073               01.4711538466E+031.7107778579E+01+
*       4.6982157455E+01               0
GRID*               4074               01.4538461538E+03-2.118066724E-11+
*       5.0000000000E+01               0
GRID*               4075               01.4711538462E+03-2.628590044E-11+
*       5.0000000000E+01               0
GRID*               4076               01.4711538462E+03-1.710781975E+01+
*       4.6982144000E+01               0
GRID*               4077               01.4538461536E+03-3.213929838E+01+
*       3.8302149209E+01               0
GRID*               4078               01.4711538470E+03-3.213943873E+01+
*       3.8302046605E+01               0
GRID*               4079               01.4711538462E+03-4.330592075E+01+
*       2.4991942127E+01               0
GRID*               4080               01.4538461585E+03-4.924029363E+01+
*       8.6823300403E+00               0
GRID*               4081               01.4711538506E+03-4.924028630E+01+
*       8.6823709444E+00               0
GRID*               4082               01.4711538621E+03-4.923984311E+01+
*       -8.683202696E+00               0
GRID*               4083               01.4538461538E+03-4.329622646E+01+
*       -2.500873281E+01               0
GRID*               4084               01.4711538462E+03-4.329622646E+01+
*       -2.500873281E+01               0
GRID*               4085               01.4711538519E+03-3.214077673E+01+
*       -3.830058372E+01               0
GRID*               4086               01.4365384724E+033.2142810398E+01+
*       -3.829897276E+01               0
GRID*               4087               01.4192307692E+034.3296226440E+01+
*       -2.500873285E+01               0
GRID*               4088               01.4365384615E+034.3296226440E+01+
*       -2.500873285E+01               0
GRID*               4089               01.4365384719E+034.9240292420E+01+
*       -8.679789813E+00               0
GRID*               4090               01.4192307740E+034.9240081816E+01+
*       8.6835135291E+00               0
GRID*               4091               01.4365384662E+034.9240088910E+01+
*       8.6834738863E+00               0
GRID*               4092               01.4365384615E+034.3305920755E+01+
*       2.4991942111E+01               0
GRID*               4093               01.4192307725E+033.2139079744E+01+
*       3.8302309051E+01               0
GRID*               4094               01.4365384646E+033.2139099464E+01+
*       3.8302294634E+01               0
GRID*               4095               01.4365384620E+031.7107773130E+01+
*       4.6982159235E+01               0
GRID*               4096               01.4192307692E+03-2.105859505E-11+
*       5.0000000000E+01               0
GRID*               4097               01.4365384615E+03-2.622050463E-11+
*       5.0000000000E+01               0
GRID*               4098               01.4365384615E+03-1.710777918E+01+
*       4.6982157260E+01               0
GRID*               4099               01.4192307671E+03-3.213903889E+01+
*       3.8302338921E+01               0
GRID*               4100               01.4365384603E+03-3.213916040E+01+
*       3.8302250083E+01               0
GRID*               4101               01.4365384615E+03-4.330592075E+01+
*       2.4991942127E+01               0
GRID*               4102               01.4192307741E+03-4.924030795E+01+
*       8.6822499910E+00               0
GRID*               4103               01.4365384663E+03-4.924030086E+01+
*       8.6822896290E+00               0
GRID*               4104               01.4365384786E+03-4.923982274E+01+
*       -8.683357450E+00               0
GRID*               4105               01.4192307692E+03-4.329622646E+01+
*       -2.500873281E+01               0
GRID*               4106               01.4365384615E+03-4.329622646E+01+
*       -2.500873281E+01               0
GRID*               4107               01.4365384683E+03-3.214064705E+01+
*       -3.830068644E+01               0
GRID*               4108               01.4019230886E+033.2142911157E+01+
*       -3.829889295E+01               0
GRID*               4109               01.3846153846E+034.3296226441E+01+
*       -2.500873285E+01               0
GRID*               4110               01.4019230769E+034.3296226441E+01+
*       -2.500873285E+01               0
GRID*               4111               01.4019230888E+034.9240320260E+01+
*       -8.679578345E+00               0
GRID*               4112               01.3846153897E+034.9240067979E+01+
*       8.6835908387E+00               0
GRID*               4113               01.4019230819E+034.9240074824E+01+
*       8.6835525942E+00               0
GRID*               4114               01.4019230769E+034.3305920755E+01+
*       2.4991942112E+01               0
GRID*               4115               01.3846153882E+033.2139038644E+01+
*       3.8302339097E+01               0
GRID*               4116               01.4019230803E+033.2139059459E+01+
*       3.8302323881E+01               0
GRID*               4117               01.4019230774E+031.7107767335E+01+
*       4.6982161129E+01               0
GRID*               4118               01.3846153846E+03-2.099319924E-11+
*       5.0000000000E+01               0
GRID*               4119               01.4019230769E+03-2.609988568E-11+
*       5.0000000000E+01               0
GRID*               4120               01.4019230767E+03-1.710774645E+01+
*       4.6982167955E+01               0
GRID*               4121               01.3846153810E+03-3.213883723E+01+
*       3.8302486344E+01               0
GRID*               4122               01.4019230740E+03-3.213893174E+01+
*       3.8302417251E+01               0
GRID*               4123               01.4019230769E+03-4.330592075E+01+
*       2.4991942127E+01               0
GRID*               4124               01.3846153898E+03-4.924032152E+01+
*       8.6821741825E+00               0
GRID*               4125               01.4019230820E+03-4.924031486E+01+
*       8.6822114118E+00               0
GRID*               4126               01.4019230944E+03-4.923981330E+01+
*       -8.683429116E+00               0
GRID*               4127               01.3846153846E+03-4.329622646E+01+
*       -2.500873281E+01               0
GRID*               4128               01.4019230769E+03-4.329622646E+01+
*       -2.500873281E+01               0
GRID*               4129               01.4019230848E+03-3.214051374E+01+
*       -3.830079205E+01               0
GRID*               4130               01.3673077045E+033.2142974468E+01+
*       -3.829884280E+01               0
GRID*               4131               01.3500000000E+034.3296226442E+01+
*       -2.500873284E+01               0
GRID*               4132               01.3673076923E+034.3296226441E+01+
*       -2.500873285E+01               0
GRID*               4133               01.3673077058E+034.9240348824E+01+
*       -8.679361379E+00               0
GRID*               4134               01.3500000053E+034.9240054909E+01+
*       8.6836638698E+00               0
GRID*               4135               01.3673076975E+034.9240061326E+01+
*       8.6836280149E+00               0
GRID*               4136               01.3673076923E+034.3305920754E+01+
*       2.4991942112E+01               0
GRID*               4137               01.3500000038E+033.2138995565E+01+
*       3.8302370591E+01               0
GRID*               4138               01.3673076960E+033.2139017335E+01+
*       3.8302354676E+01               0
GRID*               4139               01.3673076928E+031.7107761231E+01+
*       4.6982163124E+01               0
GRID*               4140               01.3500000000E+03-2.092925666E-11+
*       5.0000000000E+01               0
GRID*               4141               01.3673076923E+03-2.603448987E-11+
*       5.0000000000E+01               0
GRID*               4142               01.3673076920E+03-1.710772101E+01+
*       4.6982176266E+01               0
GRID*               4143               01.3499999952E+03-3.213868046E+01+
*       3.8302600956E+01               0
GRID*               4144               01.3673076880E+03-3.213875389E+01+
*       3.8302547276E+01               0
GRID*               4145               01.3673076923E+03-4.330592075E+01+
*       2.4991942126E+01               0
GRID*               4146               01.3500000053E+03-4.924033391E+01+
*       8.6821049676E+00               0
GRID*               4147               01.3673076976E+03-4.924032789E+01+
*       8.6821386000E+00               0
GRID*               4148               01.3673077095E+03-4.923981745E+01+
*       -8.683397625E+00               0
GRID*               4149               01.3500000000E+03-4.329622646E+01+
*       -2.500873281E+01               0
GRID*               4150               01.3673076923E+03-4.329622646E+01+
*       -2.500873281E+01               0
GRID*               4151               01.3673077013E+03-3.214037870E+01+
*       -3.830089902E+01               0
GRID*               4152               01.3326923200E+033.2142991439E+01+
*       -3.829882935E+01               0
GRID*               4153               01.3153846154E+034.3296226443E+01+
*       -2.500873284E+01               0
GRID*               4154               01.3326923077E+034.3296226442E+01+
*       -2.500873284E+01               0
GRID*               4155               01.3326923227E+034.9240377768E+01+
*       -8.679141523E+00               0
GRID*               4156               01.3153846209E+034.9240042971E+01+
*       8.6837305757E+00               0
GRID*               4157               01.3326923131E+034.9240048775E+01+
*       8.6836981449E+00               0
GRID*               4158               01.3326923077E+034.3305920754E+01+
*       2.4991942113E+01               0
GRID*               4159               01.3153846195E+033.2138950791E+01+
*       3.8302403325E+01               0
GRID*               4160               01.3326923117E+033.2138973372E+01+
*       3.8302386817E+01               0
GRID*               4161               01.3326923082E+031.7107754860E+01+
*       4.6982165206E+01               0
GRID*               4162               01.3153846154E+03-2.080718448E-11+
*       5.0000000000E+01               0
GRID*               4163               01.3326923077E+03-2.596909405E-11+
*       5.0000000000E+01               0
GRID*               4164               01.3326923073E+03-1.710770130E+01+
*       4.6982182707E+01               0
GRID*               4165               01.3153846096E+03-3.213855926E+01+
*       3.8302689565E+01               0
GRID*               4166               01.3326923024E+03-3.213861589E+01+
*       3.8302648162E+01               0
GRID*               4167               01.3326923077E+03-4.330592075E+01+
*       2.4991942126E+01               0
GRID*               4168               01.3153846209E+03-4.924034468E+01+
*       8.6820447997E+00               0
GRID*               4169               01.3326923131E+03-4.924033952E+01+
*       8.6820735952E+00               0
GRID*               4170               01.3326923236E+03-4.923983792E+01+
*       -8.683242145E+00               0
GRID*               4171               01.3153846154E+03-4.329622646E+01+
*       -2.500873281E+01               0
GRID*               4172               01.3326923077E+03-4.329622646E+01+
*       -2.500873281E+01               0
GRID*               4173               01.3326923177E+03-3.214024392E+01+
*       -3.830100578E+01               0
GRID*               4174               01.2980769351E+033.2142952790E+01+
*       -3.829885997E+01               0
GRID*               4175               01.2807692308E+034.3296226444E+01+
*       -2.500873284E+01               0
GRID*               4176               01.2980769231E+034.3296226443E+01+
*       -2.500873284E+01               0
GRID*               4177               01.2980769397E+034.9240406735E+01+
*       -8.678921493E+00               0
GRID*               4178               01.2807692364E+034.9240032547E+01+
*       8.6837888146E+00               0
GRID*               4179               01.2980769286E+034.9240037545E+01+
*       8.6837608914E+00               0
GRID*               4180               01.2980769231E+034.3305920754E+01+
*       2.4991942113E+01               0
GRID*               4181               01.2807692352E+033.2138904615E+01+
*       3.8302437083E+01               0
GRID*               4182               01.2980769274E+033.2138927859E+01+
*       3.8302420090E+01               0
GRID*               4183               01.2980769236E+031.7107748262E+01+
*       4.6982167362E+01               0
GRID*               4184               01.2807692308E+03-2.071417710E-11+
*       5.0000000000E+01               0
GRID*               4185               01.2980769231E+03-2.584847511E-11+
*       5.0000000000E+01               0
GRID*               4186               01.2980769227E+03-1.710768617E+01+
*       4.6982187652E+01               0
GRID*               4187               01.2807692243E+03-3.213846674E+01+
*       3.8302757205E+01               0
GRID*               4188               01.2980769170E+03-3.213850977E+01+
*       3.8302725744E+01               0
GRID*               4189               01.2980769231E+03-4.330592075E+01+
*       2.4991942126E+01               0
GRID*               4190               01.2807692363E+03-4.924035336E+01+
*       8.6819962457E+00               0
GRID*               4191               01.2980769286E+03-4.924034931E+01+
*       8.6820189057E+00               0
GRID*               4192               01.2980769368E+03-4.923987756E+01+
*       -8.682940980E+00               0
GRID*               4193               01.2807692308E+03-4.329622646E+01+
*       -2.500873282E+01               0
GRID*               4194               01.2980769231E+03-4.329622646E+01+
*       -2.500873282E+01               0
GRID*               4195               01.2980769342E+03-3.214011147E+01+
*       -3.830111070E+01               0
GRID*               4196               01.2634615496E+033.2142848813E+01+
*       -3.829894233E+01               0
GRID*               4197               01.2461538462E+034.3296226445E+01+
*       -2.500873284E+01               0
GRID*               4198               01.2634615385E+034.3296226444E+01+
*       -2.500873284E+01               0
GRID*               4199               01.2634615566E+034.9240435352E+01+
*       -8.678704128E+00               0
GRID*               4200               01.2461538518E+034.9240024042E+01+
*       8.6838363369E+00               0
GRID*               4201               01.2634615441E+034.9240028029E+01+
*       8.6838140606E+00               0
GRID*               4202               01.2634615385E+034.3305920754E+01+
*       2.4991942114E+01               0
GRID*               4203               01.2461538509E+033.2138857343E+01+
*       3.8302471642E+01               0
GRID*               4204               01.2634615430E+033.2138881096E+01+
*       3.8302454277E+01               0
GRID*               4205               01.2634615390E+031.7107741482E+01+
*       4.6982169577E+01               0
GRID*               4206               01.2461538462E+03-2.061971648E-11+
*       5.0000000000E+01               0
GRID*               4207               01.2634615385E+03-2.575401449E-11+
*       5.0000000000E+01               0
GRID*               4208               01.2634615380E+03-1.710767475E+01+
*       4.6982191383E+01               0
GRID*               4209               01.2461538392E+03-3.213839769E+01+
*       3.8302807683E+01               0
GRID*               4210               01.2634615317E+03-3.213842955E+01+
*       3.8302784388E+01               0
GRID*               4211               01.2634615385E+03-4.330592075E+01+
*       2.4991942125E+01               0
GRID*               4212               01.2461538517E+03-4.924035949E+01+
*       8.6819620022E+00               0
GRID*               4213               01.2634615440E+03-4.924035678E+01+
*       8.6819771611E+00               0
GRID*               4214               01.2634615486E+03-4.923993938E+01+
*       -8.682471453E+00               0
GRID*               4215               01.2461538462E+03-4.329622646E+01+
*       -2.500873282E+01               0
GRID*               4216               01.2634615385E+03-4.329622646E+01+
*       -2.500873282E+01               0
GRID*               4217               01.2634615506E+03-3.213998352E+01+
*       -3.830121205E+01               0
GRID*               4218               01.2288461635E+033.2142669303E+01+
*       -3.829908453E+01               0
GRID*               4219               01.2115384615E+034.3296226445E+01+
*       -2.500873284E+01               0
GRID*               4220               01.2288461538E+034.3296226445E+01+
*       -2.500873284E+01               0
GRID*               4221               01.2288461735E+034.9240463225E+01+
*       -8.678492405E+00               0
GRID*               4222               01.2115384672E+034.9240017880E+01+
*       8.6838707691E+00               0
GRID*               4223               01.2288461595E+034.9240020641E+01+
*       8.6838553429E+00               0
GRID*               4224               01.2288461538E+034.3305920753E+01+
*       2.4991942115E+01               0
GRID*               4225               01.2115384666E+033.2138809293E+01+
*       3.8302506770E+01               0
GRID*               4226               01.2288461587E+033.2138833395E+01+
*       3.8302489150E+01               0
GRID*               4227               01.2288461544E+031.7107734564E+01+
*       4.6982171838E+01               0
GRID*               4228               01.2115384615E+03-2.052670910E-11+
*       5.0000000000E+01               0
GRID*               4229               01.2288461538E+03-2.566246035E-11+
*       5.0000000000E+01               0
GRID*               4230               01.2288461534E+03-1.710766640E+01+
*       4.6982194112E+01               0
GRID*               4231               01.2115384541E+03-3.213834809E+01+
*       3.8302843947E+01               0
GRID*               4232               01.2288461466E+03-3.213837067E+01+
*       3.8302827434E+01               0
GRID*               4233               01.2288461538E+03-4.330592075E+01+
*       2.4991942125E+01               0
GRID*               4234               01.2115384670E+03-4.924036255E+01+
*       8.6819449139E+00               0
GRID*               4235               01.2288461594E+03-4.924036144E+01+
*       8.6819511295E+00               0
GRID*               4236               01.2288461591E+03-4.924002649E+01+
*       -8.681809765E+00               0
GRID*               4237               01.2115384615E+03-4.329622646E+01+
*       -2.500873282E+01               0
GRID*               4238               01.2288461538E+03-4.329622646E+01+
*       -2.500873282E+01               0
GRID*               4239               01.2288461670E+03-3.213986234E+01+
*       -3.830130804E+01               0
GRID*               4240               01.1942307767E+033.2142403487E+01+
*       -3.829929509E+01               0
GRID*               4241               01.1769230769E+034.3296226446E+01+
*       -2.500873284E+01               0
GRID*               4242               01.1942307692E+034.3296226446E+01+
*       -2.500873284E+01               0
GRID*               4243               01.1942307904E+034.9240489943E+01+
*       -8.678289465E+00               0
GRID*               4244               01.1769230825E+034.9240014511E+01+
*       8.6838895961E+00               0
GRID*               4245               01.1942307749E+034.9240015817E+01+
*       8.6838822965E+00               0
GRID*               4246               01.1942307692E+034.3305920753E+01+
*       2.4991942115E+01               0
GRID*               4247               01.1769230823E+033.2138760798E+01+
*       3.8302542224E+01               0
GRID*               4248               01.1942307744E+033.2138785080E+01+
*       3.8302524472E+01               0
GRID*               4249               01.1942307698E+031.7107727555E+01+
*       4.6982174129E+01               0
GRID*               4250               01.1769230769E+03-2.049037809E-11+
*       5.0000000000E+01               0
GRID*               4251               01.1942307692E+03-2.559706454E-11+
*       5.0000000000E+01               0
GRID*               4252               01.1942307687E+03-1.710766060E+01+
*       4.6982196008E+01               0
GRID*               4253               01.1769230692E+03-3.213831475E+01+
*       3.8302868319E+01               0
GRID*               4254               01.1942307617E+03-3.213832956E+01+
*       3.8302857494E+01               0
GRID*               4255               01.1942307692E+03-4.330592075E+01+
*       2.4991942124E+01               0
GRID*               4256               01.1769230822E+03-4.924036200E+01+
*       8.6819479952E+00               0
GRID*               4257               01.1942307746E+03-4.924036276E+01+
*       8.6819437376E+00               0
GRID*               4258               01.1942307681E+03-4.924014148E+01+
*       -8.680936356E+00               0
GRID*               4259               01.1769230769E+03-4.329622646E+01+
*       -2.500873282E+01               0
GRID*               4260               01.1942307692E+03-4.329622646E+01+
*       -2.500873282E+01               0
GRID*               4261               01.1942307833E+03-3.213975034E+01+
*       -3.830139677E+01               0
GRID*               4262               01.1596153891E+033.2142039944E+01+
*       -3.829958307E+01               0
GRID*               4263               01.1423076923E+034.3296226447E+01+
*       -2.500873284E+01               0
GRID*               4264               01.1596153846E+034.3296226447E+01+
*       -2.500873284E+01               0
GRID*               4265               01.1596154071E+034.9240515066E+01+
*       -8.678098631E+00               0
GRID*               4266               01.1423076978E+034.9240014413E+01+
*       8.6838901396E+00               0
GRID*               4267               01.1596153902E+034.9240014022E+01+
*       8.6838923277E+00               0
GRID*               4268               01.1596153846E+034.3305920753E+01+
*       2.4991942116E+01               0
GRID*               4269               01.1423076979E+033.2138712207E+01+
*       3.8302577747E+01               0
GRID*               4270               01.1596153901E+033.2138736492E+01+
*       3.8302559993E+01               0
GRID*               4271               01.1596153852E+031.7107720503E+01+
*       4.6982176433E+01               0
GRID*               4272               01.1423076923E+03-2.036975914E-11+
*       5.0000000000E+01               0
GRID*               4273               01.1596153846E+03-2.553166872E-11+
*       5.0000000000E+01               0
GRID*               4274               01.1596153841E+03-1.710765694E+01+
*       4.6982197203E+01               0
GRID*               4275               01.1423076844E+03-3.213829513E+01+
*       3.8302882664E+01               0
GRID*               4276               01.1596153768E+03-3.213830336E+01+
*       3.8302876643E+01               0
GRID*               4277               01.1596153846E+03-4.330592075E+01+
*       2.4991942124E+01               0
GRID*               4278               01.1423076973E+03-4.924035726E+01+
*       8.6819744564E+00               0
GRID*               4279               01.1596153898E+03-4.924036019E+01+
*       8.6819580943E+00               0
GRID*               4280               01.1596153773E+03-4.924025245E+01+
*       -8.680093444E+00               0
GRID*               4281               01.1423076923E+03-4.329622646E+01+
*       -2.500873282E+01               0
GRID*               4282               01.1596153846E+03-4.329622646E+01+
*       -2.500873282E+01               0
GRID*               4283               01.1596153995E+03-3.213965005E+01+
*       -3.830147621E+01               0
GRID*               4284               01.1250000006E+033.2141566499E+01+
*       -3.829995811E+01               0
GRID*               4285               01.1076923077E+034.3296226448E+01+
*       -2.500873284E+01               0
GRID*               4286               01.1250000000E+034.3296226448E+01+
*       -2.500873284E+01               0
GRID*               4287               01.1250000237E+034.9240538130E+01+
*       -8.677923440E+00               0
GRID*               4288               01.1076923129E+034.9240018101E+01+
*       8.6838695327E+00               0
GRID*               4289               01.1250000053E+034.9240015751E+01+
*       8.6838826673E+00               0
GRID*               4290               01.1250000000E+034.3305920752E+01+
*       2.4991942116E+01               0
GRID*               4291               01.1076923136E+033.2138663888E+01+
*       3.8302613072E+01               0
GRID*               4292               01.1250000058E+033.2138687990E+01+
*       3.8302595452E+01               0
GRID*               4293               01.1250000006E+031.7107713462E+01+
*       4.6982178734E+01               0
GRID*               4294               01.1076923077E+03-2.030581657E-11+
*       5.0000000000E+01               0
GRID*               4295               01.1250000000E+03-2.543866134E-11+
*       5.0000000000E+01               0
GRID*               4296               01.1249999994E+03-1.710765509E+01+
*       4.6982197807E+01               0
GRID*               4297               01.1076922997E+03-3.213828714E+01+
*       3.8302888502E+01               0
GRID*               4298               01.1249999921E+03-3.213828979E+01+
*       3.8302886563E+01               0
GRID*               4299               01.1250000000E+03-4.330592075E+01+
*       2.4991942123E+01               0
GRID*               4300               01.1076923123E+03-4.924034773E+01+
*       8.6820277339E+00               0
GRID*               4301               01.1250000048E+03-4.924035314E+01+
*       8.6819975186E+00               0
GRID*               4302               01.1249999876E+03-4.924034323E+01+
*       -8.679403870E+00               0
GRID*               4303               01.1076923077E+03-4.329622646E+01+
*       -2.500873282E+01               0
GRID*               4304               01.1250000000E+03-4.329622646E+01+
*       -2.500873282E+01               0
GRID*               4305               01.1250000156E+03-3.213956421E+01+
*       -3.830154421E+01               0
GRID*               4306               01.0903846118E+033.2141055904E+01+
*       -3.830036257E+01               0
GRID*               4307               01.0730769231E+034.3296226449E+01+
*       -2.500873283E+01               0
GRID*               4308               01.0903846154E+034.3296226448E+01+
*       -2.500873284E+01               0
GRID*               4309               01.0903846402E+034.9240558637E+01+
*       -8.677767675E+00               0
GRID*               4310               01.0730769279E+034.9240026127E+01+
*       8.6838246891E+00               0
GRID*               4311               01.0903846204E+034.9240021536E+01+
*       8.6838503429E+00               0
GRID*               4312               01.0903846154E+034.3305920752E+01+
*       2.4991942117E+01               0
GRID*               4313               01.0730769293E+033.2138616234E+01+
*       3.8302647911E+01               0
GRID*               4314               01.0903846215E+033.2138639952E+01+
*       3.8302630571E+01               0
GRID*               4315               01.0903846160E+031.7107706484E+01+
*       4.6982181014E+01               0
GRID*               4316               01.0730769231E+03-2.018374438E-11+
*       5.0000000000E+01               0
GRID*               4317               01.0903846154E+03-2.534710720E-11+
*       5.0000000000E+01               0
GRID*               4318               01.0903846148E+03-1.710765479E+01+
*       4.6982197907E+01               0
GRID*               4319               01.0730769151E+03-3.213828907E+01+
*       3.8302887090E+01               0
GRID*               4320               01.0903846074E+03-3.213828696E+01+
*       3.8302888632E+01               0
GRID*               4321               01.0903846154E+03-4.330592075E+01+
*       2.4991942123E+01               0
GRID*               4322               01.0730769271E+03-4.924033273E+01+
*       8.6821115266E+00               0
GRID*               4323               01.0903846197E+03-4.924034096E+01+
*       8.6820655732E+00               0
GRID*               4324               01.0903845989E+03-4.924041667E+01+
*       -8.678846025E+00               0
GRID*               4325               01.0730769231E+03-4.329622646E+01+
*       -2.500873282E+01               0
GRID*               4326               01.0903846154E+03-4.329622646E+01+
*       -2.500873282E+01               0
GRID*               4327               01.0903846316E+03-3.213949571E+01+
*       -3.830159847E+01               0
GRID*               4328               01.0557692237E+033.2140634204E+01+
*       -3.830069662E+01               0
GRID*               4329               01.0384615385E+034.3296226450E+01+
*       -2.500873283E+01               0
GRID*               4330               01.0557692308E+034.3296226449E+01+
*       -2.500873283E+01               0
GRID*               4331               01.0557692565E+034.9240576050E+01+
*       -8.677635407E+00               0
GRID*               4332               01.0384615428E+034.9240039088E+01+
*       8.6837522670E+00               0
GRID*               4333               01.0557692354E+034.9240031951E+01+
*       8.6837921454E+00               0
GRID*               4334               01.0557692308E+034.3305920752E+01+
*       2.4991942117E+01               0
GRID*               4335               01.0384615450E+033.2138569660E+01+
*       3.8302681960E+01               0
GRID*               4336               01.0557692371E+033.2138592784E+01+
*       3.8302665054E+01               0
GRID*               4337               01.0557692314E+031.7107699629E+01+
*       4.6982183254E+01               0
GRID*               4338               01.0384615385E+03-2.009073700E-11+
*       5.0000000000E+01               0
GRID*               4339               01.0557692308E+03-2.522503502E-11+
*       5.0000000000E+01               0
GRID*               4340               01.0557692302E+03-1.710765580E+01+
*       4.6982197577E+01               0
GRID*               4341               01.0384615305E+03-3.213829948E+01+
*       3.8302879481E+01               0
GRID*               4342               01.0557692227E+03-3.213829330E+01+
*       3.8302884001E+01               0
GRID*               4343               01.0557692308E+03-4.330592075E+01+
*       2.4991942122E+01               0
GRID*               4344               01.0384615418E+03-4.924031156E+01+
*       8.6822298400E+00               0
GRID*               4345               01.0557692345E+03-4.924032297E+01+
*       8.6821661045E+00               0
GRID*               4346               01.0557692110E+03-4.924047512E+01+
*       -8.678402022E+00               0
GRID*               4347               01.0384615385E+03-4.329622646E+01+
*       -2.500873282E+01               0
GRID*               4348               01.0557692308E+03-4.329622646E+01+
*       -2.500873282E+01               0
GRID*               4349               01.0557692474E+03-3.213944770E+01+
*       -3.830163650E+01               0
GRID*               4350               01.0211538363E+033.2140291615E+01+
*       -3.830096800E+01               0
GRID*               4351               01.0038461538E+034.3296226451E+01+
*       -2.500873283E+01               0
GRID*               4352               01.0211538462E+034.3296226450E+01+
*       -2.500873283E+01               0
GRID*               4353               01.0211538726E+034.9240589790E+01+
*       -8.677531041E+00               0
GRID*               4354               01.0038461576E+034.9240057637E+01+
*       8.6836486249E+00               0
GRID*               4355               01.0211538503E+034.9240047621E+01+
*       8.6837045891E+00               0
GRID*               4356               01.0211538462E+034.3305920751E+01+
*       2.4991942118E+01               0
GRID*               4357               01.0038461606E+033.2138524616E+01+
*       3.8302714890E+01               0
GRID*               4358               01.0211538528E+033.2138546918E+01+
*       3.8302698586E+01               0
GRID*               4359               01.0211538468E+031.7107692958E+01+
*       4.6982185434E+01               0
GRID*               4360               01.0038461538E+03-1.996866482E-11+
*       5.0000000000E+01               0
GRID*               4361               01.0211538462E+03-2.510296283E-11+
*       5.0000000000E+01               0
GRID*               4362               01.0211538455E+03-1.710765793E+01+
*       4.6982196880E+01               0
GRID*               4363               01.0038461459E+03-3.213831714E+01+
*       3.8302866573E+01               0
GRID*               4364               01.0211538382E+03-3.213830747E+01+
*       3.8302873639E+01               0
GRID*               4365               01.0211538462E+03-4.330592075E+01+
*       2.4991942122E+01               0
GRID*               4366               01.0038461564E+03-4.924028342E+01+
*       8.6823870388E+00               0
GRID*               4367               01.0211538491E+03-4.924029841E+01+
*       8.6823032902E+00               0
GRID*               4368               01.0211538238E+03-4.924052056E+01+
*       -8.678056873E+00               0
GRID*               4369               01.0038461538E+03-4.329622646E+01+
*       -2.500873282E+01               0
GRID*               4370               01.0211538462E+03-4.329622646E+01+
*       -2.500873282E+01               0
GRID*               4371               01.0211538630E+03-3.213942357E+01+
*       -3.830165561E+01               0
GRID*               4372               09.8653844947E+023.2140018204E+01+
*       -3.830118458E+01               0
GRID*               4373               09.6923076923E+024.3296226452E+01+
*       -2.500873283E+01               0
GRID*               4374               09.8653846154E+024.3296226451E+01+
*       -2.500873283E+01               0
GRID*               4375               09.8653848845E+024.9240599225E+01+
*       -8.677459379E+00               0
GRID*               4376               09.6923077226E+024.9240082489E+01+
*       8.6835097678E+00               0
GRID*               4377               09.8653846497E+024.9240069228E+01+
*       8.6835838634E+00               0
GRID*               4378               09.8653846154E+024.3305920751E+01+
*       2.4991942119E+01               0
GRID*               4379               09.6923077626E+023.2138481586E+01+
*       3.8302746348E+01               0
GRID*               4380               09.8653846844E+023.2138502818E+01+
*       3.8302730826E+01               0
GRID*               4381               09.8653846217E+021.7107686539E+01+
*       4.6982187532E+01               0
GRID*               4382               09.6923076923E+02-1.990472224E-11+
*       5.0000000000E+01               0
GRID*               4383               09.8653846154E+02-2.500850221E-11+
*       5.0000000000E+01               0
GRID*               4384               09.8653846092E+02-1.710766103E+01+
*       4.6982195869E+01               0
GRID*               4385               09.6923076142E+02-3.213834099E+01+
*       3.8302849135E+01               0
GRID*               4386               09.8653845366E+02-3.213832835E+01+
*       3.8302858376E+01               0
GRID*               4387               09.8653846154E+02-4.330592075E+01+
*       2.4991942121E+01               0
GRID*               4388               09.6923077074E+02-4.924024747E+01+
*       8.6825879112E+00               0
GRID*               4389               09.8653846358E+02-4.924026648E+01+
*       8.6824816980E+00               0
GRID*               4390               09.8653843730E+02-4.924055466E+01+
*       -8.677797868E+00               0
GRID*               4391               09.6923076923E+02-4.329622645E+01+
*       -2.500873283E+01               0
GRID*               4392               09.8653846154E+02-4.329622646E+01+
*       -2.500873282E+01               0
GRID*               4393               09.8653847836E+02-3.213942704E+01+
*       -3.830165287E+01               0
GRID*               4394               09.5192306313E+023.2139805463E+01+
*       -3.830135310E+01               0
GRID*               4395               09.3461538462E+024.3296226452E+01+
*       -2.500873283E+01               0
GRID*               4396               09.5192307692E+024.3296226452E+01+
*       -2.500873283E+01               0
GRID*               4397               09.5192310404E+024.9240603660E+01+
*       -8.677425688E+00               0
GRID*               4398               09.3461538673E+024.9240114432E+01+
*       8.6833312823E+00               0
GRID*               4399               09.5192307952E+024.9240097521E+01+
*       8.6834257729E+00               0
GRID*               4400               09.5192307692E+024.3305920751E+01+
*       2.4991942119E+01               0
GRID*               4401               09.3461539188E+023.2138441098E+01+
*       3.8302775948E+01               0
GRID*               4402               09.5192308407E+023.2138460990E+01+
*       3.8302761406E+01               0
GRID*               4403               09.5192307756E+021.7107680444E+01+
*       4.6982189523E+01               0
GRID*               4404               09.3461538462E+02-1.975358525E-11+
*       5.0000000000E+01               0
GRID*               4405               09.5192307692E+02-2.491694807E-11+
*       5.0000000000E+01               0
GRID*               4406               09.5192307630E+02-1.710766494E+01+
*       4.6982194590E+01               0
GRID*               4407               09.3461537696E+02-3.213837012E+01+
*       3.8302827837E+01               0
GRID*               4408               09.5192306918E+02-3.213835495E+01+
*       3.8302838930E+01               0
GRID*               4409               09.5192307692E+02-4.330592075E+01+
*       2.4991942121E+01               0
GRID*               4410               09.3461538491E+02-4.924020276E+01+
*       8.6828377472E+00               0
GRID*               4411               09.5192307785E+02-4.924022628E+01+
*       8.6827063561E+00               0
GRID*               4412               09.5192305131E+02-4.924057885E+01+
*       -8.677614112E+00               0
GRID*               4413               09.3461538462E+02-4.329622645E+01+
*       -2.500873283E+01               0
GRID*               4414               09.5192307692E+02-4.329622645E+01+
*       -2.500873283E+01               0
GRID*               4415               09.5192309347E+02-3.213946217E+01+
*       -3.830162504E+01               0
GRID*               4416               09.1730767723E+023.2139646035E+01+
*       -3.830147939E+01               0
GRID*               4417               09.0000000000E+024.3296226453E+01+
*       -2.500873283E+01               0
GRID*               4418               09.1730769231E+024.3296226453E+01+
*       -2.500873283E+01               0
GRID*               4419               09.1730771931E+024.9240602330E+01+
*       -8.677435790E+00               0
GRID*               4420               09.0000000101E+024.9240154348E+01+
*       8.6831082555E+00               0
GRID*               4421               09.1730769390E+024.9240133335E+01+
*       8.6832256657E+00               0
GRID*               4422               09.1730769231E+024.3305920750E+01+
*       2.4991942120E+01               0
GRID*               4423               09.0000000747E+023.2138403730E+01+
*       3.8302803267E+01               0
GRID*               4424               09.1730769968E+023.2138421985E+01+
*       3.8302789921E+01               0
GRID*               4425               09.1730769294E+021.7107674753E+01+
*       4.6982191383E+01               0
GRID*               4426               09.0000000000E+02-1.966057787E-11+
*       5.0000000000E+01               0
GRID*               4427               09.1730769231E+02-2.479487588E-11+
*       5.0000000000E+01               0
GRID*               4428               09.1730769168E+02-1.710766955E+01+
*       4.6982193083E+01               0
GRID*               4429               08.9999999253E+02-3.213840373E+01+
*       3.8302803267E+01               0
GRID*               4430               09.1730768474E+02-3.213838641E+01+
*       3.8302815927E+01               0
GRID*               4431               09.1730769231E+02-4.330592075E+01+
*       2.4991942120E+01               0
GRID*               4432               08.9999999899E+02-4.924015435E+01+
*       8.6831082554E+00               0
GRID*               4433               09.1730769192E+02-4.924017760E+01+
*       8.6829783432E+00               0
GRID*               4434               09.1730766579E+02-4.924059438E+01+
*       -8.677496170E+00               0
GRID*               4435               09.0000000000E+02-4.329622645E+01+
*       -2.500873283E+01               0
GRID*               4436               09.1730769231E+02-4.329622645E+01+
*       -2.500873283E+01               0
GRID*               4437               09.1730770829E+02-3.213953349E+01+
*       -3.830156854E+01               0
GRID*               4438               08.8269229171E+023.2139533493E+01+
*       -3.830156854E+01               0
GRID*               4439               08.6538461538E+024.3296226454E+01+
*       -2.500873283E+01               0
GRID*               4440               08.8269230769E+024.3296226454E+01+
*       -2.500873283E+01               0
GRID*               4441               08.8269233421E+024.9240594381E+01+
*       -8.677496170E+00               0
GRID*               4442               08.6538461509E+024.9240202761E+01+
*       8.6828377474E+00               0
GRID*               4443               08.8269230807E+024.9240177598E+01+
*       8.6829783434E+00               0
GRID*               4444               08.8269230769E+024.3305920750E+01+
*       2.4991942120E+01               0
GRID*               4445               08.6538462304E+023.2138370122E+01+
*       3.8302827837E+01               0
GRID*               4446               08.8269231526E+023.2138386413E+01+
*       3.8302815927E+01               0
GRID*               4447               08.8269230832E+021.7107669552E+01+
*       4.6982193083E+01               0
GRID*               4448               08.6538461538E+02-1.953777907E-11+
*       5.0000000000E+01               0
GRID*               4449               08.8269230769E+02-2.467280370E-11+
*       5.0000000000E+01               0
GRID*               4450               08.8269230706E+02-1.710767475E+01+
*       4.6982191383E+01               0
GRID*               4451               08.6538460812E+02-3.213844110E+01+
*       3.8302775948E+01               0
GRID*               4452               08.8269230032E+02-3.213842199E+01+
*       3.8302789921E+01               0
GRID*               4453               08.8269230769E+02-4.330592075E+01+
*       2.4991942120E+01               0
GRID*               4454               08.6538461327E+02-4.924011443E+01+
*       8.6833312822E+00               0
GRID*               4455               08.8269230610E+02-4.924013333E+01+
*       8.6832256656E+00               0
GRID*               4456               08.8269228069E+02-4.924060233E+01+
*       -8.677435790E+00               0
GRID*               4457               08.6538461538E+02-4.329622645E+01+
*       -2.500873283E+01               0
GRID*               4458               08.8269230769E+02-4.329622645E+01+
*       -2.500873283E+01               0
GRID*               4459               08.8269232277E+02-3.213964604E+01+
*       -3.830147939E+01               0
GRID*               4460               08.4807690653E+023.2139462172E+01+
*       -3.830162504E+01               0
GRID*               4461               08.3076923077E+024.3296226455E+01+
*       -2.500873283E+01               0
GRID*               4462               08.4807692308E+024.3296226454E+01+
*       -2.500873283E+01               0
GRID*               4463               08.4807694869E+024.9240578854E+01+
*       -8.677614112E+00               0
GRID*               4464               08.3076922926E+024.9240247474E+01+
*       8.6825879114E+00               0
GRID*               4465               08.4807692215E+024.9240226276E+01+
*       8.6827063562E+00               0
GRID*               4466               08.4807692308E+024.3305920750E+01+
*       2.4991942121E+01               0
GRID*               4467               08.3076923858E+023.2138340989E+01+
*       3.8302849135E+01               0
GRID*               4468               08.4807693082E+023.2138354948E+01+
*       3.8302838930E+01               0
GRID*               4469               08.4807692370E+021.7107664940E+01+
*       4.6982194590E+01               0
GRID*               4470               08.3076923077E+02-1.950217468E-11+
*       5.0000000000E+01               0
GRID*               4471               08.4807692308E+02-2.463719931E-11+
*       5.0000000000E+01               0
GRID*               4472               08.4807692244E+02-1.710768044E+01+
*       4.6982189523E+01               0
GRID*               4473               08.3076922374E+02-3.213848159E+01+
*       3.8302746348E+01               0
GRID*               4474               08.4807691593E+02-3.213846099E+01+
*       3.8302761406E+01               0
GRID*               4475               08.4807692308E+02-4.330592075E+01+
*       2.4991942119E+01               0
GRID*               4476               08.3076922774E+02-4.924008249E+01+
*       8.6835097677E+00               0
GRID*               4477               08.4807692048E+02-4.924009752E+01+
*       8.6834257728E+00               0
GRID*               4478               08.4807689596E+02-4.924060366E+01+
*       -8.677425688E+00               0
GRID*               4479               08.3076923077E+02-4.329622645E+01+
*       -2.500873283E+01               0
GRID*               4480               08.4807692308E+02-4.329622645E+01+
*       -2.500873283E+01               0
GRID*               4481               08.4807693687E+02-3.213980546E+01+
*       -3.830135310E+01               0
GRID*               4482               08.1346152164E+023.2139427037E+01+
*       -3.830165287E+01               0
GRID*               4483               07.9615384615E+024.3296226456E+01+
*       -2.500873282E+01               0
GRID*               4484               08.1346153846E+024.3296226455E+01+
*       -2.500873282E+01               0
GRID*               4485               08.1346156270E+024.9240554662E+01+
*       -8.677797868E+00               0
GRID*               4486               07.9615384362E+024.9240283424E+01+
*       8.6823870389E+00               0
GRID*               4487               08.1346153642E+024.9240266483E+01+
*       8.6824816981E+00               0
GRID*               4488               08.1346153846E+024.3305920750E+01+
*       2.4991942121E+01               0
GRID*               4489               07.9615385408E+023.2138317137E+01+
*       3.8302866573E+01               0
GRID*               4490               08.1346154634E+023.2138328349E+01+
*       3.8302858376E+01               0
GRID*               4491               08.1346153908E+021.7107661025E+01+
*       4.6982195869E+01               0
GRID*               4492               07.9615384615E+02-1.938228235E-11+
*       5.0000000000E+01               0
GRID*               4493               08.1346153846E+02-2.454346531E-11+
*       5.0000000000E+01               0
GRID*               4494               08.1346153783E+02-1.710768654E+01+
*       4.6982187532E+01               0
GRID*               4495               07.9615383938E+02-3.213852462E+01+
*       3.8302714890E+01               0
GRID*               4496               08.1346153156E+02-3.213850282E+01+
*       3.8302730826E+01               0
GRID*               4497               08.1346153846E+02-4.330592075E+01+
*       2.4991942119E+01               0
GRID*               4498               07.9615384237E+02-4.924005764E+01+
*       8.6836486247E+00               0
GRID*               4499               08.1346153503E+02-4.924006923E+01+
*       8.6835838633E+00               0
GRID*               4500               08.1346151155E+02-4.924059922E+01+
*       -8.677459379E+00               0
GRID*               4501               07.9615384615E+02-4.329622645E+01+
*       -2.500873283E+01               0
GRID*               4502               08.1346153846E+02-4.329622645E+01+
*       -2.500873283E+01               0
GRID*               4503               08.1346155053E+02-3.214001820E+01+
*       -3.830118458E+01               0
GRID*               4504               07.7884613701E+023.2139423572E+01+
*       -3.830165561E+01               0
GRID*               4505               07.6153846154E+024.3296226456E+01+
*       -2.500873282E+01               0
GRID*               4506               07.7884615385E+024.3296226456E+01+
*       -2.500873282E+01               0
GRID*               4507               07.7884617615E+024.9240520564E+01+
*       -8.678056873E+00               0
GRID*               4508               07.6153845817E+024.9240311558E+01+
*       8.6822298401E+00               0
GRID*               4509               07.7884615088E+024.9240298413E+01+
*       8.6823032904E+00               0
GRID*               4510               07.7884615385E+024.3305920749E+01+
*       2.4991942122E+01               0
GRID*               4511               07.7884616182E+023.2138307472E+01+
*       3.8302873639E+01               0
GRID*               4512               07.6153846954E+023.2138299480E+01+
*       3.8302879481E+01               0
GRID*               4513               07.7884615445E+021.7107657931E+01+
*       4.6982196880E+01               0
GRID*               4514               07.7884615385E+02-1.427486929E-11+
*       5.0000000000E+01               0
GRID*               4515               07.6153846154E+02-1.931615992E-11+
*       5.0000000000E+01               0
GRID*               4516               07.7884615322E+02-1.710769296E+01+
*       4.6982185434E+01               0
GRID*               4517               07.6153845503E+02-3.213856966E+01+
*       3.8302681960E+01               0
GRID*               4518               07.7884614721E+02-3.213854692E+01+
*       3.8302698586E+01               0
GRID*               4519               07.7884615385E+02-4.330592075E+01+
*       2.4991942118E+01               0
GRID*               4520               07.6153845715E+02-4.924003909E+01+
*       8.6837522669E+00               0
GRID*               4521               07.7884614974E+02-4.924004762E+01+
*       8.6837045890E+00               0
GRID*               4522               07.7884612741E+02-4.924058979E+01+
*       -8.677531041E+00               0
GRID*               4523               07.6153846154E+02-4.329622645E+01+
*       -2.500873283E+01               0
GRID*               4524               07.7884615385E+02-4.329622645E+01+
*       -2.500873283E+01               0
GRID*               4525               07.7884616369E+02-3.214029162E+01+
*       -3.830096800E+01               0
GRID*               4526               07.4423075261E+023.2139447702E+01+
*       -3.830163650E+01               0
GRID*               4527               07.2692307692E+024.3296226457E+01+
*       -2.500873282E+01               0
GRID*               4528               07.4423076923E+024.3296226457E+01+
*       -2.500873282E+01               0
GRID*               4529               07.4423078898E+024.9240475125E+01+
*       -8.678402022E+00               0
GRID*               4530               07.4423076551E+024.9240322965E+01+
*       8.6821661046E+00               0
GRID*               4531               07.2692307288E+024.9240332733E+01+
*       8.6821115267E+00               0
GRID*               4532               07.4423076923E+024.3305920749E+01+
*       2.4991942122E+01               0
GRID*               4533               07.4423077725E+023.2138293298E+01+
*       3.8302884001E+01               0
GRID*               4534               07.2692308495E+023.2138289073E+01+
*       3.8302887090E+01               0
GRID*               4535               07.4423076983E+021.7107655797E+01+
*       4.6982197577E+01               0
GRID*               4536               07.4423076923E+02-1.421020009E-11+
*       5.0000000000E+01               0
GRID*               4537               07.2692307692E+02-1.925294397E-11+
*       5.0000000000E+01               0
GRID*               4538               07.4423076860E+02-1.710769963E+01+
*       4.6982183254E+01               0
GRID*               4539               07.2692307070E+02-3.213861623E+01+
*       3.8302647911E+01               0
GRID*               4540               07.4423076286E+02-3.213859278E+01+
*       3.8302665054E+01               0
GRID*               4541               07.4423076923E+02-4.330592075E+01+
*       2.4991942117E+01               0
GRID*               4542               07.2692307206E+02-4.924002613E+01+
*       8.6838246890E+00               0
GRID*               4543               07.4423076459E+02-4.924003195E+01+
*       8.6837921452E+00               0
GRID*               4544               07.4423074351E+02-4.924057605E+01+
*       -8.677635407E+00               0
GRID*               4545               07.2692307692E+02-4.329622645E+01+
*       -2.500873283E+01               0
GRID*               4546               07.4423076923E+02-4.329622645E+01+
*       -2.500873283E+01               0
GRID*               4547               07.4423077628E+02-3.214063420E+01+
*       -3.830069662E+01               0
GRID*               4548               07.0961536840E+023.2139495715E+01+
*       -3.830159847E+01               0
GRID*               4549               07.0961538462E+024.3296226458E+01+
*       -2.500873282E+01               0
GRID*               4550               06.9230769231E+024.3296226458E+01+
*       -2.500873282E+01               0
GRID*               4551               07.0961540109E+024.9240416671E+01+
*       -8.678846025E+00               0
GRID*               4552               07.0961538029E+024.9240340957E+01+
*       8.6820655734E+00               0
GRID*               4553               06.9230768773E+024.9240347730E+01+
*       8.6820277340E+00               0
GRID*               4554               07.0961538462E+024.3305920749E+01+
*       2.4991942123E+01               0
GRID*               4555               07.0961539263E+023.2138286963E+01+
*       3.8302888632E+01               0
GRID*               4556               06.9230770030E+023.2138287141E+01+
*       3.8302888502E+01               0
GRID*               4557               07.0961538520E+021.7107654788E+01+
*       4.6982197907E+01               0
GRID*               4558               07.0961538462E+02-1.408885453E-11+
*       5.0000000000E+01               0
GRID*               4559               06.9230769231E+02-1.907419541E-11+
*       5.0000000000E+01               0
GRID*               4560               07.0961538399E+02-1.710770648E+01+
*       4.6982181014E+01               0
GRID*               4561               07.0961537853E+02-3.213863995E+01+
*       3.8302630571E+01               0
GRID*               4562               06.9230768637E+02-3.213866389E+01+
*       3.8302613072E+01               0
GRID*               4563               07.0961538462E+02-4.330592075E+01+
*       2.4991942117E+01               0
GRID*               4564               06.9230768710E+02-4.924001810E+01+
*       8.6838695326E+00               0
GRID*               4565               07.0961537957E+02-4.924002154E+01+
*       8.6838503427E+00               0
GRID*               4566               07.0961535982E+02-4.924055864E+01+
*       -8.677767675E+00               0
GRID*               4567               06.9230769231E+02-4.329622645E+01+
*       -2.500873284E+01               0
GRID*               4568               07.0961538462E+02-4.329622645E+01+
*       -2.500873284E+01               0
GRID*               4569               07.0961538821E+02-3.214105590E+01+
*       -3.830036257E+01               0
GRID*               4570               06.7499998436E+023.2139564211E+01+
*       -3.830154421E+01               0
GRID*               4571               06.7500000000E+024.3296226458E+01+
*       -2.500873282E+01               0
GRID*               4572               06.5769230769E+024.3296226459E+01+
*       -2.500873282E+01               0
GRID*               4573               06.7500001237E+024.9240343230E+01+
*       -8.679403870E+00               0
GRID*               4574               06.7499999521E+024.9240353137E+01+
*       8.6819975187E+00               0
GRID*               4575               06.5769230271E+024.9240357265E+01+
*       8.6819744566E+00               0
GRID*               4576               06.7500000000E+024.3305920748E+01+
*       2.4991942123E+01               0
GRID*               4577               06.7500000794E+023.2138289793E+01+
*       3.8302886563E+01               0
GRID*               4578               06.5769231557E+023.2138295126E+01+
*       3.8302882665E+01               0
GRID*               4579               06.7500000056E+021.7107655095E+01+
*       4.6982197807E+01               0
GRID*               4580               06.7500000000E+02-1.396605572E-11+
*       5.0000000000E+01               0
GRID*               4581               06.5769230769E+02-1.903786440E-11+
*       5.0000000000E+01               0
GRID*               4582               06.7499999938E+02-1.710771346E+01+
*       4.6982178734E+01               0
GRID*               4583               06.7499999421E+02-3.213868799E+01+
*       3.8302595452E+01               0
GRID*               4584               06.5769230205E+02-3.213871221E+01+
*       3.8302577747E+01               0
GRID*               4585               06.7500000000E+02-4.330592075E+01+
*       2.4991942116E+01               0
GRID*               4586               06.5769230223E+02-4.924001441E+01+
*       8.6838901395E+00               0
GRID*               4587               06.7499999465E+02-4.924001575E+01+
*       8.6838826672E+00               0
GRID*               4588               06.7499997629E+02-4.924053813E+01+
*       -8.677923440E+00               0
GRID*               4589               06.5769230769E+02-4.329622645E+01+
*       -2.500873284E+01               0
GRID*               4590               06.7500000000E+02-4.329622645E+01+
*       -2.500873284E+01               0
GRID*               4591               06.7499999942E+02-3.214156650E+01+
*       -3.829995811E+01               0
GRID*               4592               06.4038460046E+023.2139650055E+01+
*       -3.830147621E+01               0
GRID*               4593               06.4038461538E+024.3296226459E+01+
*       -2.500873282E+01               0
GRID*               4594               06.2307692308E+024.3296226459E+01+
*       -2.500873282E+01               0
GRID*               4595               06.4038462269E+024.9240252447E+01+
*       -8.680093444E+00               0
GRID*               4596               06.4038461025E+024.9240360193E+01+
*       8.6819580944E+00               0
GRID*               4597               06.2307691781E+024.9240362000E+01+
*       8.6819479953E+00               0
GRID*               4598               06.4038461538E+024.3305920748E+01+
*       2.4991942124E+01               0
GRID*               4599               06.4038462318E+023.2138303362E+01+
*       3.8302876643E+01               0
GRID*               4600               06.2307693077E+023.2138314748E+01+
*       3.8302868319E+01               0
GRID*               4601               06.4038461593E+021.7107656942E+01+
*       4.6982197203E+01               0
GRID*               4602               06.4038461538E+02-1.390283977E-11+
*       5.0000000000E+01               0
GRID*               4603               06.2307692308E+02-1.897246859E-11+
*       5.0000000000E+01               0
GRID*               4604               06.4038461478E+02-1.710772050E+01+
*       4.6982176433E+01               0
GRID*               4605               06.4038460989E+02-3.213873649E+01+
*       3.8302559993E+01               0
GRID*               4606               06.2307691774E+02-3.213876080E+01+
*       3.8302542224E+01               0
GRID*               4607               06.4038461538E+02-4.330592075E+01+
*       2.4991942116E+01               0
GRID*               4608               06.4038460984E+02-4.924001402E+01+
*       8.6838923276E+00               0
GRID*               4609               06.2307691746E+02-4.924001451E+01+
*       8.6838895960E+00               0
GRID*               4610               06.4038459291E+02-4.924051507E+01+
*       -8.678098632E+00               0
GRID*               4611               06.2307692308E+02-4.329622645E+01+
*       -2.500873284E+01               0
GRID*               4612               06.4038461538E+02-4.329622645E+01+
*       -2.500873284E+01               0
GRID*               4613               06.4038461093E+02-3.214203994E+01+
*       -3.829958307E+01               0
GRID*               4614               06.0576921667E+023.2139750337E+01+
*       -3.830139677E+01               0
GRID*               4615               06.0576923077E+024.3296226460E+01+
*       -2.500873282E+01               0
GRID*               4616               05.8846153846E+024.3296226460E+01+
*       -2.500873282E+01               0
GRID*               4617               06.0576923189E+024.9240141476E+01+
*       -8.680936356E+00               0
GRID*               4618               06.0576922540E+024.9240362762E+01+
*       8.6819437377E+00               0
GRID*               4619               05.8846153301E+024.9240362552E+01+
*       8.6819449140E+00               0
GRID*               4620               06.0576923077E+024.3305920748E+01+
*       2.4991942124E+01               0
GRID*               4621               06.0576923833E+023.2138329556E+01+
*       3.8302857494E+01               0
GRID*               4622               05.8846154586E+023.2138348086E+01+
*       3.8302843947E+01               0
GRID*               4623               06.0576923129E+021.7107660601E+01+
*       4.6982196008E+01               0
GRID*               4624               06.0576923077E+02-1.381055901E-11+
*       5.0000000000E+01               0
GRID*               4625               05.8846153846E+02-1.882205821E-11+
*       5.0000000000E+01               0
GRID*               4626               06.0576923017E+02-1.710772755E+01+
*       4.6982174129E+01               0
GRID*               4627               06.0576922558E+02-3.213878508E+01+
*       3.8302524472E+01               0
GRID*               4628               05.8846153343E+02-3.213880929E+01+
*       3.8302506770E+01               0
GRID*               4629               06.0576923077E+02-4.330592075E+01+
*       2.4991942115E+01               0
GRID*               4630               06.0576922511E+02-4.924001582E+01+
*       8.6838822964E+00               0
GRID*               4631               05.8846153278E+02-4.924001788E+01+
*       8.6838707690E+00               0
GRID*               4632               06.0576920965E+02-4.924048994E+01+
*       -8.678289465E+00               0
GRID*               4633               05.8846153846E+02-4.329622645E+01+
*       -2.500873284E+01               0
GRID*               4634               06.0576923077E+02-4.329622645E+01+
*       -2.500873284E+01               0
GRID*               4635               06.0576922332E+02-3.214240349E+01+
*       -3.829929509E+01               0
GRID*               4636               05.7115383298E+023.2139862341E+01+
*       -3.830130804E+01               0
GRID*               4637               05.7115384615E+024.3296226460E+01+
*       -2.500873282E+01               0
GRID*               4638               05.5384615385E+024.3296226461E+01+
*       -2.500873282E+01               0
GRID*               4639               05.7115384086E+024.9240026491E+01+
*       -8.681809765E+00               0
GRID*               4640               05.7115384065E+024.9240361439E+01+
*       8.6819511296E+00               0
GRID*               4641               05.5384614831E+024.9240359494E+01+
*       8.6819620023E+00               0
GRID*               4642               05.7115384615E+024.3305920748E+01+
*       2.4991942125E+01               0
GRID*               4643               05.7115385337E+023.2138370673E+01+
*       3.8302827434E+01               0
GRID*               4644               05.5384616085E+023.2138397689E+01+
*       3.8302807683E+01               0
GRID*               4645               05.7115384664E+021.7107666403E+01+
*       4.6982194112E+01               0
GRID*               4646               05.7115384615E+02-1.374443657E-11+
*       5.0000000000E+01               0
GRID*               4647               05.5384615385E+02-1.881551863E-11+
*       5.0000000000E+01               0
GRID*               4648               05.7115384556E+02-1.710773456E+01+
*       4.6982171838E+01               0
GRID*               4649               05.7115384127E+02-3.213883340E+01+
*       3.8302489150E+01               0
GRID*               4650               05.5384614911E+02-3.213885734E+01+
*       3.8302471642E+01               0
GRID*               4651               05.7115384615E+02-4.330592075E+01+
*       2.4991942115E+01               0
GRID*               4652               05.7115384046E+02-4.924002064E+01+
*       8.6838553428E+00               0
GRID*               4653               05.5384614816E+02-4.924002404E+01+
*       8.6838363368E+00               0
GRID*               4654               05.7115382648E+02-4.924046323E+01+
*       -8.678492405E+00               0
GRID*               4655               05.5384615385E+02-4.329622644E+01+
*       -2.500873284E+01               0
GRID*               4656               05.7115384615E+02-4.329622644E+01+
*       -2.500873284E+01               0
GRID*               4657               05.7115383652E+02-3.214266930E+01+
*       -3.829908453E+01               0
GRID*               4658               05.3653844936E+023.2139983521E+01+
*       -3.830121205E+01               0
GRID*               4659               05.3653846154E+024.3296226461E+01+
*       -2.500873282E+01               0
GRID*               4660               05.1923076923E+024.3296226461E+01+
*       -2.500873282E+01               0
GRID*               4661               05.3653845136E+024.9239939379E+01+
*       -8.682471453E+00               0
GRID*               4662               05.3653845598E+024.9240356781E+01+
*       8.6819771612E+00               0
GRID*               4663               05.1923076368E+024.9240353365E+01+
*       8.6819962458E+00               0
GRID*               4664               05.3653846154E+024.3305920747E+01+
*       2.4991942125E+01               0
GRID*               4665               05.3653846829E+023.2138429554E+01+
*       3.8302784388E+01               0
GRID*               4666               05.1923077569E+023.2138466736E+01+
*       3.8302757205E+01               0
GRID*               4667               05.3653846199E+021.7107674755E+01+
*       4.6982191383E+01               0
GRID*               4668               05.3653846154E+02-1.362236439E-11+
*       5.0000000000E+01               0
GRID*               4669               05.1923076923E+02-1.863677007E-11+
*       5.0000000000E+01               0
GRID*               4670               05.3653846096E+02-1.710774148E+01+
*       4.6982169577E+01               0
GRID*               4671               05.3653845696E+02-3.213888110E+01+
*       3.8302454277E+01               0
GRID*               4672               05.1923076480E+02-3.213890462E+01+
*       3.8302437083E+01               0
GRID*               4673               05.3653846154E+02-4.330592075E+01+
*       2.4991942114E+01               0
GRID*               4674               05.3653845588E+02-4.924002803E+01+
*       8.6838140605E+00               0
GRID*               4675               05.1923076362E+02-4.924003255E+01+
*       8.6837888145E+00               0
GRID*               4676               05.3653844337E+02-4.924043535E+01+
*       -8.678704128E+00               0
GRID*               4677               05.3653846154E+02-4.329622644E+01+
*       -2.500873284E+01               0
GRID*               4678               05.1923076923E+02-4.329622644E+01+
*       -2.500873284E+01               0
GRID*               4679               05.3653845042E+02-3.214284881E+01+
*       -3.829894233E+01               0
GRID*               4680               05.0192306579E+023.2140111473E+01+
*       -3.830111070E+01               0
GRID*               4681               05.0192307692E+024.3296226462E+01+
*       -2.500873282E+01               0
GRID*               4682               04.8461538462E+024.3296226462E+01+
*       -2.500873281E+01               0
GRID*               4683               05.0192306325E+024.9239877565E+01+
*       -8.682940980E+00               0
GRID*               4684               05.0192307140E+024.9240349309E+01+
*       8.6820189058E+00               0
GRID*               4685               04.8461537913E+024.9240344675E+01+
*       8.6820447998E+00               0
GRID*               4686               05.0192307692E+024.3305920747E+01+
*       2.4991942126E+01               0
GRID*               4687               05.0192308305E+023.2138509769E+01+
*       3.8302725745E+01               0
GRID*               4688               04.8461539036E+023.2138559257E+01+
*       3.8302689565E+01               0
GRID*               4689               05.0192307732E+021.7107686169E+01+
*       4.6982187652E+01               0
GRID*               4690               05.0192307692E+02-1.350101882E-11+
*       5.0000000000E+01               0
GRID*               4691               04.8461538462E+02-1.856992102E-11+
*       5.0000000000E+01               0
GRID*               4692               05.0192307636E+02-1.710774826E+01+
*       4.6982167362E+01               0
GRID*               4693               05.0192307264E+02-3.213892786E+01+
*       3.8302420090E+01               0
GRID*               4694               04.8461538049E+02-3.213895079E+01+
*       3.8302403325E+01               0
GRID*               4695               05.0192307692E+02-4.330592075E+01+
*       2.4991942113E+01               0
GRID*               4696               05.0192307137E+02-4.924003754E+01+
*       8.6837608913E+00               0
GRID*               4697               04.8461537913E+02-4.924004297E+01+
*       8.6837305756E+00               0
GRID*               4698               05.0192306031E+02-4.924040674E+01+
*       -8.678921493E+00               0
GRID*               4699               05.0192307692E+02-4.329622644E+01+
*       -2.500873284E+01               0
GRID*               4700               04.8461538462E+02-4.329622644E+01+
*       -2.500873284E+01               0
GRID*               4701               05.0192306493E+02-3.214295279E+01+
*       -3.829885997E+01               0
GRID*               4702               04.6730768225E+023.2140243920E+01+
*       -3.830100578E+01               0
GRID*               4703               04.6730769231E+024.3296226462E+01+
*       -2.500873281E+01               0
GRID*               4704               04.5000000000E+024.3296226462E+01+
*       -2.500873281E+01               0
GRID*               4705               04.6730767636E+024.9239837916E+01+
*       -8.683242145E+00               0
GRID*               4706               04.6730768689E+024.9240339522E+01+
*       8.6820735953E+00               0
GRID*               4707               04.4999999465E+024.9240333907E+01+
*       8.6821049677E+00               0
GRID*               4708               04.6730769231E+024.3305920747E+01+
*       2.4991942126E+01               0
GRID*               4709               04.6730769762E+023.2138615890E+01+
*       3.8302648163E+01               0
GRID*               4710               04.5000000482E+023.2138680461E+01+
*       3.8302600956E+01               0
GRID*               4711               04.6730769265E+021.7107701303E+01+
*       4.6982182707E+01               0
GRID*               4712               04.6730769231E+02-1.346541443E-11+
*       5.0000000000E+01               0
GRID*               4713               04.5000000000E+02-1.850670507E-11+
*       5.0000000000E+01               0
GRID*               4714               04.6730769176E+02-1.710775486E+01+
*       4.6982165206E+01               0
GRID*               4715               04.6730768833E+02-3.213897337E+01+
*       3.8302386816E+01               0
GRID*               4716               04.4999999617E+02-3.213899557E+01+
*       3.8302370591E+01               0
GRID*               4717               04.6730769231E+02-4.330592075E+01+
*       2.4991942113E+01               0
GRID*               4718               04.6730768690E+02-4.924004877E+01+
*       8.6836981448E+00               0
GRID*               4719               04.4999999469E+02-4.924005491E+01+
*       8.6836638697E+00               0
GRID*               4720               04.6730767727E+02-4.924037777E+01+
*       -8.679141523E+00               0
GRID*               4721               04.6730769231E+02-4.329622644E+01+
*       -2.500873284E+01               0
GRID*               4722               04.5000000000E+02-4.329622644E+01+
*       -2.500873284E+01               0
GRID*               4723               04.6730767998E+02-3.214299144E+01+
*       -3.829882935E+01               0
GRID*               4724               04.3269229873E+023.2140378698E+01+
*       -3.830089902E+01               0
GRID*               4725               04.3269230769E+024.3296226463E+01+
*       -2.500873281E+01               0
GRID*               4726               04.1538461538E+024.3296226463E+01+
*       -2.500873281E+01               0
GRID*               4727               04.3269229053E+024.9239817447E+01+
*       -8.683397625E+00               0
GRID*               4728               04.3269230243E+024.9240327888E+01+
*       8.6821386001E+00               0
GRID*               4729               04.1538461023E+024.9240321519E+01+
*       8.6821741826E+00               0
GRID*               4730               04.3269230769E+024.3305920747E+01+
*       2.4991942126E+01               0
GRID*               4731               04.3269231196E+023.2138753887E+01+
*       3.8302547276E+01               0
GRID*               4732               04.1538461903E+023.2138837232E+01+
*       3.8302486345E+01               0
GRID*               4733               04.3269230797E+021.7107721014E+01+
*       4.6982176266E+01               0
GRID*               4734               04.3269230769E+02-1.334334225E-11+
*       5.0000000000E+01               0
GRID*               4735               04.1538461538E+02-1.844167256E-11+
*       5.0000000000E+01               0
GRID*               4736               04.3269230716E+02-1.710776123E+01+
*       4.6982163124E+01               0
GRID*               4737               04.3269230401E+02-3.213901733E+01+
*       3.8302354676E+01               0
GRID*               4738               04.1538461184E+02-3.213903864E+01+
*       3.8302339097E+01               0
GRID*               4739               04.3269230769E+02-4.330592075E+01+
*       2.4991942112E+01               0
GRID*               4740               04.3269230249E+02-4.924006133E+01+
*       8.6836280148E+00               0
GRID*               4741               04.1538461030E+02-4.924006798E+01+
*       8.6835908386E+00               0
GRID*               4742               04.3269229423E+02-4.924034882E+01+
*       -8.679361379E+00               0
GRID*               4743               04.3269230769E+02-4.329622644E+01+
*       -2.500873285E+01               0
GRID*               4744               04.1538461538E+02-4.329622644E+01+
*       -2.500873285E+01               0
GRID*               4745               04.3269229549E+02-3.214297447E+01+
*       -3.829884280E+01               0
GRID*               4746               03.9807691521E+023.2140513736E+01+
*       -3.830079205E+01               0
GRID*               4747               03.9807692308E+024.3296226463E+01+
*       -2.500873281E+01               0
GRID*               4748               03.8076923077E+024.3296226463E+01+
*       -2.500873281E+01               0
GRID*               4749               03.9807690561E+024.9239813301E+01+
*       -8.683429116E+00               0
GRID*               4750               03.9807691804E+024.9240314857E+01+
*       8.6822114119E+00               0
GRID*               4751               03.8076922586E+024.9240307952E+01+
*       8.6822499911E+00               0
GRID*               4752               03.9807692308E+024.3305920747E+01+
*       2.4991942127E+01               0
GRID*               4753               03.9807692601E+023.2138931743E+01+
*       3.8302417251E+01               0
GRID*               4754               03.8076923291E+023.2139038885E+01+
*       3.8302338921E+01               0
GRID*               4755               03.9807692327E+021.7107746448E+01+
*       4.6982167955E+01               0
GRID*               4756               03.9807692308E+02-1.327976298E-11+
*       5.0000000000E+01               0
GRID*               4757               03.8076923077E+02-1.831996369E-11+
*       5.0000000000E+01               0
GRID*               4758               03.9807692256E+02-1.710776733E+01+
*       4.6982161129E+01               0
GRID*               4759               03.9807691968E+02-3.213905946E+01+
*       3.8302323881E+01               0
GRID*               4760               03.8076922752E+02-3.213907974E+01+
*       3.8302309051E+01               0
GRID*               4761               03.9807692308E+02-4.330592075E+01+
*       2.4991942112E+01               0
GRID*               4762               03.9807691812E+02-4.924007482E+01+
*       8.6835525941E+00               0
GRID*               4763               03.8076922595E+02-4.924008182E+01+
*       8.6835135290E+00               0
GRID*               4764               03.9807691118E+02-4.924032026E+01+
*       -8.679578345E+00               0
GRID*               4765               03.9807692308E+02-4.329622644E+01+
*       -2.500873285E+01               0
GRID*               4766               03.8076923077E+02-4.329622644E+01+
*       -2.500873285E+01               0
GRID*               4767               03.9807691138E+02-3.214291116E+01+
*       -3.829889295E+01               0
GRID*               4768               03.6346153167E+023.2140647050E+01+
*       -3.830068644E+01               0
GRID*               4769               03.6346153846E+024.3296226464E+01+
*       -2.500873281E+01               0
GRID*               4770               03.4615384615E+024.3296226464E+01+
*       -2.500873281E+01               0
GRID*               4771               03.6346152144E+024.9239822736E+01+
*       -8.683357450E+00               0
GRID*               4772               03.6346153369E+024.9240300858E+01+
*       8.6822896291E+00               0
GRID*               4773               03.4615384153E+024.9240293625E+01+
*       8.6823300404E+00               0
GRID*               4774               03.6346153846E+024.3305920746E+01+
*       2.4991942127E+01               0
GRID*               4775               03.6346153970E+023.2139160403E+01+
*       3.8302250083E+01               0
GRID*               4776               03.4615384636E+023.2139298383E+01+
*       3.8302149210E+01               0
GRID*               4777               03.6346153855E+021.7107779176E+01+
*       4.6982157260E+01               0
GRID*               4778               03.6346153846E+02-1.318457574E-11+
*       5.0000000000E+01               0
GRID*               4779               03.4615384615E+02-1.822659300E-11+
*       5.0000000000E+01               0
GRID*               4780               03.6346153797E+02-1.710777313E+01+
*       4.6982159235E+01               0
GRID*               4781               03.6346153535E+02-3.213909946E+01+
*       3.8302294634E+01               0
GRID*               4782               03.4615384318E+02-3.213911859E+01+
*       3.8302280654E+01               0
GRID*               4783               03.6346153846E+02-4.330592076E+01+
*       2.4991942111E+01               0
GRID*               4784               03.6346153379E+02-4.924008891E+01+
*       8.6834738863E+00               0
GRID*               4785               03.4615384164E+02-4.924009607E+01+
*       8.6834339041E+00               0
GRID*               4786               03.6346152810E+02-4.924029242E+01+
*       -8.679789813E+00               0
GRID*               4787               03.6346153846E+02-4.329622644E+01+
*       -2.500873285E+01               0
GRID*               4788               03.4615384615E+02-4.329622644E+01+
*       -2.500873285E+01               0
GRID*               4789               03.6346152758E+02-3.214281040E+01+
*       -3.829897276E+01               0
GRID*               4790               03.2884614810E+023.2140776732E+01+
*       -3.830058372E+01               0
GRID*               4791               03.2884615385E+024.3296226464E+01+
*       -2.500873281E+01               0
GRID*               4792               03.1153846154E+024.3296226464E+01+
*       -2.500873281E+01               0
GRID*               4793               03.2884613789E+024.9239843109E+01+
*       -8.683202696E+00               0
GRID*               4794               03.2884614938E+024.9240286305E+01+
*       8.6823709445E+00               0
GRID*               4795               03.1153845724E+024.9240278945E+01+
*       8.6824120660E+00               0
GRID*               4796               03.2884615385E+024.3305920746E+01+
*       2.4991942127E+01               0
GRID*               4797               03.2884615301E+023.2139438731E+01+
*       3.8302046605E+01               0
GRID*               4798               03.1153845984E+023.2139550930E+01+
*       3.8301964579E+01               0
GRID*               4799               03.2884615380E+021.7107819752E+01+
*       4.6982144000E+01               0
GRID*               4800               03.2884615385E+02-1.309156836E-11+
*       5.0000000000E+01               0
GRID*               4801               03.1153846154E+02-1.813358562E-11+
*       5.0000000000E+01               0
GRID*               4802               03.2884615338E+02-1.710777858E+01+
*       4.6982157455E+01               0
GRID*               4803               03.2884615102E+02-3.213913708E+01+
*       3.8302267135E+01               0
GRID*               4804               03.1153845885E+02-3.213915491E+01+
*       3.8302254102E+01               0
GRID*               4805               03.2884615385E+02-4.330592076E+01+
*       2.4991942111E+01               0
GRID*               4806               03.2884614949E+02-4.924010324E+01+
*       8.6833938164E+00               0
GRID*               4807               03.1153845736E+02-4.924011039E+01+
*       8.6833538530E+00               0
GRID*               4808               03.2884614497E+02-4.924026563E+01+
*       -8.679993273E+00               0
GRID*               4809               03.2884615385E+02-4.329622644E+01+
*       -2.500873285E+01               0
GRID*               4810               03.1153846154E+02-4.329622644E+01+
*       -2.500873285E+01               0
GRID*               4811               03.2884614401E+02-3.214268075E+01+
*       -3.829907546E+01               0
GRID*               4812               02.9423076448E+023.2140900938E+01+
*       -3.830048533E+01               0
GRID*               4813               02.9423076923E+024.3296226464E+01+
*       -2.500873281E+01               0
GRID*               4814               02.7692307692E+024.3296226465E+01+
*       -2.500873281E+01               0
GRID*               4815               02.9423075481E+024.9239871868E+01+
*       -8.682984251E+00               0
GRID*               4816               02.9423076512E+024.9240271595E+01+
*       8.6824531341E+00               0
GRID*               4817               02.7692307300E+024.9240264303E+01+
*       8.6824938822E+00               0
GRID*               4818               02.9423076923E+024.3305920746E+01+
*       2.4991942128E+01               0
GRID*               4819               02.9423076686E+023.2139636559E+01+
*       3.8301901978E+01               0
GRID*               4820               02.7692307404E+023.2139698081E+01+
*       3.8301857000E+01               0
GRID*               4821               02.9423076908E+021.7107849609E+01+
*       4.6982134244E+01               0
GRID*               4822               02.9423076923E+02-1.302835241E-11+
*       5.0000000000E+01               0
GRID*               4823               02.7692307692E+02-1.806927973E-11+
*       5.0000000000E+01               0
GRID*               4824               02.9423076879E+02-1.710778364E+01+
*       4.6982155800E+01               0
GRID*               4825               02.9423076668E+02-3.213917204E+01+
*       3.8302241578E+01               0
GRID*               4826               02.7692307450E+02-3.213918844E+01+
*       3.8302229587E+01               0
GRID*               4827               02.9423076923E+02-4.330592076E+01+
*       2.4991942110E+01               0
GRID*               4828               02.9423076523E+02-4.924011748E+01+
*       8.6833142399E+00               0
GRID*               4829               02.7692307311E+02-4.924012447E+01+
*       8.6832751994E+00               0
GRID*               4830               02.9423076177E+02-4.924024022E+01+
*       -8.680186295E+00               0
GRID*               4831               02.9423076923E+02-4.329622644E+01+
*       -2.500873285E+01               0
GRID*               4832               02.7692307692E+02-4.329622644E+01+
*       -2.500873285E+01               0
GRID*               4833               02.9423076062E+02-3.214253048E+01+
*       -3.829919450E+01               0
GRID*               4834               02.5961538080E+023.2141017886E+01+
*       -3.830039269E+01               0
GRID*               4835               02.5961538461E+024.3296226465E+01+
*       -2.500873281E+01               0
GRID*               4836               02.4230769231E+024.3296226465E+01+
*       -2.500873281E+01               0
GRID*               4837               02.5961537207E+024.9239906537E+01+
*       -8.682720910E+00               0
GRID*               4838               02.5961538088E+024.9240257114E+01+
*       8.6825340479E+00               0
GRID*               4839               02.4230768878E+024.9240250076E+01+
*       8.6825733727E+00               0
GRID*               4840               02.5961538461E+024.3305920746E+01+
*       2.4991942128E+01               0
GRID*               4841               02.5961538138E+023.2139737938E+01+
*       3.8301827862E+01               0
GRID*               4842               02.4230768885E+023.2139758541E+01+
*       3.8301812800E+01               0
GRID*               4843               02.5961538439E+021.7107865125E+01+
*       4.6982129173E+01               0
GRID*               4844               02.5961538462E+02-1.290555360E-11+
*       5.0000000000E+01               0
GRID*               4845               02.4230769231E+02-1.794684424E-11+
*       5.0000000000E+01               0
GRID*               4846               02.5961538421E+02-1.710778828E+01+
*       4.6982154284E+01               0
GRID*               4847               02.5961538233E+02-3.213920408E+01+
*       3.8302218152E+01               0
GRID*               4848               02.4230769016E+02-3.213921893E+01+
*       3.8302207295E+01               0
GRID*               4849               02.5961538462E+02-4.330592076E+01+
*       2.4991942109E+01               0
GRID*               4850               02.5961538099E+02-4.924013132E+01+
*       8.6832369505E+00               0
GRID*               4851               02.4230768888E+02-4.924013798E+01+
*       8.6831997088E+00               0
GRID*               4852               02.5961537849E+02-4.924021649E+01+
*       -8.680366528E+00               0
GRID*               4853               02.5961538462E+02-4.329622644E+01+
*       -2.500873285E+01               0
GRID*               4854               02.4230769231E+02-4.329622644E+01+
*       -2.500873285E+01               0
GRID*               4855               02.5961537734E+02-3.214236757E+01+
*       -3.829932354E+01               0
GRID*               4856               02.2499999704E+023.2141125843E+01+
*       -3.830030717E+01               0
GRID*               4857               02.2500000000E+024.3296226465E+01+
*       -2.500873281E+01               0
GRID*               4858               02.0769230769E+024.3296226465E+01+
*       -2.500873281E+01               0
GRID*               4859               02.2499998955E+024.9239944712E+01+
*       -8.682430939E+00               0
GRID*               4860               02.2499999668E+024.9240243234E+01+
*       8.6826116019E+00               0
GRID*               4861               02.0769230459E+024.9240236633E+01+
*       8.6826484839E+00               0
GRID*               4862               02.2500000000E+024.3305920746E+01+
*       2.4991942128E+01               0
GRID*               4863               02.2499999645E+023.2139762281E+01+
*       3.8301810066E+01               0
GRID*               4864               02.0769230415E+023.2139751523E+01+
*       3.8301817930E+01               0
GRID*               4865               02.2499999974E+021.7107869174E+01+
*       4.6982127850E+01               0
GRID*               4866               02.2500000000E+02-1.284270096E-11+
*       5.0000000000E+01               0
GRID*               4867               02.0769230769E+02-1.788199339E-11+
*       5.0000000000E+01               0
GRID*               4868               02.2499999962E+02-1.710779246E+01+
*       4.6982152918E+01               0
GRID*               4869               02.2499999799E+02-3.213923296E+01+
*       3.8302197041E+01               0
GRID*               4870               02.0769230581E+02-3.213924613E+01+
*       3.8302187410E+01               0
GRID*               4871               02.2500000000E+02-4.330592076E+01+
*       2.4991942109E+01               0
GRID*               4872               02.2499999678E+02-4.924014443E+01+
*       8.6831636871E+00               0
GRID*               4873               02.0769230468E+02-4.924015062E+01+
*       8.6831290949E+00               0
GRID*               4874               02.2499999512E+02-4.924019475E+01+
*       -8.680531685E+00               0
GRID*               4875               02.2500000000E+02-4.329622644E+01+
*       -2.500873285E+01               0
GRID*               4876               02.0769230769E+02-4.329622644E+01+
*       -2.500873285E+01               0
GRID*               4877               02.2499999411E+02-3.214219980E+01+
*       -3.829945645E+01               0
GRID*               4878               01.9038461320E+023.2141223126E+01+
*       -3.830023011E+01               0
GRID*               4879               01.9038461538E+024.3296226465E+01+
*       -2.500873281E+01               0
GRID*               4880               01.7307692308E+024.3296226466E+01+
*       -2.500873281E+01               0
GRID*               4881               01.9038460712E+024.9239984052E+01+
*       -8.682132125E+00               0
GRID*               4882               01.9038461251E+024.9240230318E+01+
*       8.6826837707E+00               0
GRID*               4883               01.7307692043E+024.9240224332E+01+
*       8.6827172173E+00               0
GRID*               4884               01.9038461538E+024.3305920746E+01+
*       2.4991942128E+01               0
GRID*               4885               01.9038461195E+023.2139728614E+01+
*       3.8301834679E+01               0
GRID*               4886               01.7307691982E+023.2139695876E+01+
*       3.8301858612E+01               0
GRID*               4887               01.9038461511E+021.7107864572E+01+
*       4.6982129354E+01               0
GRID*               4888               01.9038461538E+02-1.274769538E-11+
*       5.0000000000E+01               0
GRID*               4889               01.7307692308E+02-1.776046617E-11+
*       5.0000000000E+01               0
GRID*               4890               01.9038461505E+02-1.710779615E+01+
*       4.6982151713E+01               0
GRID*               4891               01.9038461364E+02-3.213925842E+01+
*       3.8302178426E+01               0
GRID*               4892               01.7307692147E+02-3.213926979E+01+
*       3.8302170111E+01               0
GRID*               4893               01.9038461538E+02-4.330592076E+01+
*       2.4991942109E+01               0
GRID*               4894               01.9038461259E+02-4.924015652E+01+
*       8.6830961393E+00               0
GRID*               4895               01.7307692050E+02-4.924016208E+01+
*       8.6830650247E+00               0
GRID*               4896               01.9038461164E+02-4.924017529E+01+
*       -8.680679540E+00               0
GRID*               4897               01.9038461538E+02-4.329622644E+01+
*       -2.500873285E+01               0
GRID*               4898               01.7307692308E+02-4.329622644E+01+
*       -2.500873285E+01               0
GRID*               4899               01.9038461085E+02-3.214203470E+01+
*       -3.829958722E+01               0
GRID*               4900               01.5576922926E+023.2141308093E+01+
*       -3.830016280E+01               0
GRID*               4901               01.5576923077E+024.3296226466E+01+
*       -2.500873281E+01               0
GRID*               4902               01.3846153846E+024.3296226466E+01+
*       -2.500873281E+01               0
GRID*               4903               01.5576922466E+024.9240022269E+01+
*       -8.681841831E+00               0
GRID*               4904               01.5576922836E+024.9240218719E+01+
*       8.6827485817E+00               0
GRID*               4905               01.3846153630E+024.9240213521E+01+
*       8.6827776245E+00               0
GRID*               4906               01.5576923077E+024.3305920746E+01+
*       2.4991942128E+01               0
GRID*               4907               01.5576922777E+023.2139655617E+01+
*       3.8301888045E+01               0
GRID*               4908               01.3846153576E+023.2139610121E+01+
*       3.8301921306E+01               0
GRID*               4909               01.5576923050E+021.7107854084E+01+
*       4.6982132781E+01               0
GRID*               4910               01.5576923077E+02-1.265486965E-11+
*       5.0000000000E+01               0
GRID*               4911               01.3846153846E+02-1.769543366E-11+
*       5.0000000000E+01               0
GRID*               4912               01.5576923048E+02-1.710779931E+01+
*       4.6982150682E+01               0
GRID*               4913               01.5576922930E+02-3.213928022E+01+
*       3.8302162486E+01               0
GRID*               4914               01.3846153713E+02-3.213928968E+01+
*       3.8302155574E+01               0
GRID*               4915               01.5576923077E+02-4.330592076E+01+
*       2.4991942108E+01               0
GRID*               4916               01.5576922842E+02-4.924016729E+01+
*       8.6830359530E+00               0
GRID*               4917               01.3846153635E+02-4.924017209E+01+
*       8.6830091239E+00               0
GRID*               4918               01.5576922803E+02-4.924015838E+01+
*       -8.680807920E+00               0
GRID*               4919               01.5576923077E+02-4.329622644E+01+
*       -2.500873285E+01               0
GRID*               4920               01.3846153846E+02-4.329622643E+01+
*       -2.500873286E+01               0
GRID*               4921               01.5576922752E+02-3.214187965E+01+
*       -3.829971004E+01               0
GRID*               4922               01.2115384520E+023.2141379137E+01+
*       -3.830010653E+01               0
GRID*               4923               01.2115384615E+024.3296226466E+01+
*       -2.500873281E+01               0
GRID*               4924               01.0384615385E+024.3296226466E+01+
*       -2.500873281E+01               0
GRID*               4925               01.2115384204E+024.9240057129E+01+
*       -8.681577038E+00               0
GRID*               4926               01.2115384424E+024.9240208781E+01+
*       8.6828041093E+00               0
GRID*               4927               01.0384615219E+024.9240204541E+01+
*       8.6828278018E+00               0
GRID*               4928               01.2115384615E+024.3305920746E+01+
*       2.4991942129E+01               0
GRID*               4929               01.2115384379E+023.2139561659E+01+
*       3.8301956735E+01               0
GRID*               4930               01.0384615185E+023.2139512484E+01+
*       3.8301992686E+01               0
GRID*               4931               01.2115384592E+021.7107840429E+01+
*       4.6982137244E+01               0
GRID*               4932               01.2115384615E+02-1.253334243E-11+
*       5.0000000000E+01               0
GRID*               4933               01.0384615385E+02-1.763185440E-11+
*       5.0000000000E+01               0
GRID*               4934               01.2115384591E+02-1.710780190E+01+
*       4.6982149835E+01               0
GRID*               4935               01.2115384496E+02-3.213929813E+01+
*       3.8302149396E+01               0
GRID*               4936               01.0384615280E+02-3.213930555E+01+
*       3.8302143973E+01               0
GRID*               4937               01.2115384615E+02-4.330592076E+01+
*       2.4991942108E+01               0
GRID*               4938               01.2115384428E+02-4.924017645E+01+
*       8.6829847347E+00               0
GRID*               4939               01.0384615222E+02-4.924018035E+01+
*       8.6829629808E+00               0
GRID*               4940               01.2115384429E+02-4.924014433E+01+
*       -8.680914699E+00               0
GRID*               4941               01.2115384615E+02-4.329622643E+01+
*       -2.500873286E+01               0
GRID*               4942               01.0384615385E+02-4.329622643E+01+
*       -2.500873286E+01               0
GRID*               4943               01.2115384406E+02-3.214174184E+01+
*       -3.829981921E+01               0
GRID*               4944               08.6538461029E+013.2141434690E+01+
*       -3.830006252E+01               0
GRID*               4945               08.6538461538E+014.3296226466E+01+
*       -2.500873281E+01               0
GRID*               4946               06.9230769230E+014.3296226466E+01+
*       -2.500873281E+01               0
GRID*               4947               08.6538459150E+014.9240086442E+01+
*       -8.681354385E+00               0
GRID*               4948               08.6538460139E+014.9240200842E+01+
*       8.6828484704E+00               0
GRID*               4949               06.9230768099E+014.9240197725E+01+
*       8.6828658856E+00               0
GRID*               4950               08.6538461538E+014.3305920746E+01+
*       2.4991942129E+01               0
GRID*               4951               08.6538459922E+013.2139464832E+01+
*       3.8302027523E+01               0
GRID*               4952               06.9230767992E+013.2139420927E+01+
*       3.8302059621E+01               0
GRID*               4953               08.6538461349E+011.7107826285E+01+
*       4.6982141866E+01               0
GRID*               4954               08.6538461539E+01-1.249746556E-11+
*       5.0000000000E+01               0
GRID*               4955               06.9230769231E+01-1.751032718E-11+
*       5.0000000000E+01               0
GRID*               4956               08.6538461351E+01-1.710780389E+01+
*       4.6982149183E+01               0
GRID*               4957               08.6538460645E+01-3.213931190E+01+
*       3.8302139327E+01               0
GRID*               4958               06.9230768495E+01-3.213931716E+01+
*       3.8302135479E+01               0
GRID*               4959               08.6538461539E+01-4.330592076E+01+
*       2.4991942108E+01               0
GRID*               4960               08.6538460163E+01-4.924018373E+01+
*       8.6829440555E+00               0
GRID*               4961               06.9230768115E+01-4.924018658E+01+
*       8.6829281502E+00               0
GRID*               4962               08.6538460408E+01-4.924013339E+01+
*       -8.680997794E+00               0
GRID*               4963               08.6538461539E+01-4.329622643E+01+
*       -2.500873286E+01               0
GRID*               4964               06.9230769231E+01-4.329622643E+01+
*       -2.500873286E+01               0
GRID*               4965               08.6538460393E+01-3.214162831E+01+
*       -3.829990914E+01               0
GRID*               4966               05.1923076724E+013.2141473209E+01+
*       -3.830003201E+01               0
GRID*               4967               05.1923076923E+014.3296226466E+01+
*       -2.500873281E+01               0
GRID*               4968               03.4615384615E+014.3296226466E+01+
*       -2.500873281E+01               0
GRID*               4969               05.1923075877E+014.9240108057E+01+
*       -8.681190200E+00               0
GRID*               4970               05.1923076064E+014.9240195231E+01+
*       8.6828798202E+00               0
GRID*               4971               03.4615384036E+014.9240193400E+01+
*       8.6828900488E+00               0
GRID*               4972               05.1923076923E+014.3305920746E+01+
*       2.4991942129E+01               0
GRID*               4973               05.1923076047E+013.2139382976E+01+
*       3.8302087366E+01               0
GRID*               4974               03.4615384075E+013.2139353173E+01+
*       3.8302109154E+01               0
GRID*               4975               05.1923076799E+011.7107814293E+01+
*       4.6982145784E+01               0
GRID*               4976               05.1923076923E+01-1.240477608E-11+
*       5.0000000000E+01               0
GRID*               4977               03.4615384615E+01-1.744497678E-11+
*       5.0000000000E+01               0
GRID*               4978               05.1923076801E+01-1.710780525E+01+
*       4.6982148738E+01               0
GRID*               4979               05.1923076354E+01-3.213932131E+01+
*       3.8302132450E+01               0
GRID*               4980               03.4615384222E+01-3.213932430E+01+
*       3.8302130261E+01               0
GRID*               4981               05.1923076923E+01-4.330592076E+01+
*       2.4991942108E+01               0
GRID*               4982               05.1923076074E+01-4.924018885E+01+
*       8.6829154546E+00               0
GRID*               4983               03.4615384041E+01-4.924019052E+01+
*       8.6829061565E+00               0
GRID*               4984               05.1923076368E+01-4.924012584E+01+
*       -8.681055162E+00               0
GRID*               4985               05.1923076923E+01-4.329622643E+01+
*       -2.500873286E+01               0
GRID*               4986               03.4615384616E+01-4.329622644E+01+
*       -2.500873286E+01               0
GRID*               4987               05.1923076476E+01-3.214154597E+01+
*       -3.829997437E+01               0
GRID*               4988               01.7653846159E+031.7095455495E+01+
*       -4.698612835E+01               0
GRID*               4989               01.7826923079E+031.7095445065E+01+
*       -4.698613267E+01               0
GRID*               4990               01.7826923078E+033.2141501604E+01+
*       -3.830000951E+01               0
GRID*               4991               01.7307692319E+031.7095496147E+01+
*       -4.698611151E+01               0
GRID*               4992               01.7480769239E+031.7095472599E+01+
*       -4.698612126E+01               0
GRID*               4993               01.6961538480E+031.7095561647E+01+
*       -4.698608438E+01               0
GRID*               4994               01.7134615399E+031.7095525908E+01+
*       -4.698609918E+01               0
GRID*               4995               01.6615384643E+031.7095650112E+01+
*       -4.698604773E+01               0
GRID*               4996               01.6788461562E+031.7095603127E+01+
*       -4.698606719E+01               0
GRID*               4997               01.6269230807E+031.7095759630E+01+
*       -4.698600236E+01               0
GRID*               4998               01.6442307725E+031.7095702361E+01+
*       -4.698602609E+01               0
GRID*               4999               01.5923076972E+031.7095888249E+01+
*       -4.698594909E+01               0
GRID*               5000               01.6096153890E+031.7095821676E+01+
*       -4.698597666E+01               0
GRID*               5001               01.5576923138E+031.7096033975E+01+
*       -4.698588872E+01               0
GRID*               5002               01.5750000055E+031.7095959100E+01+
*       -4.698591974E+01               0
GRID*               5003               01.5230769306E+031.7096194767E+01+
*       -4.698582212E+01               0
GRID*               5004               01.5403846222E+031.7096112617E+01+
*       -4.698585615E+01               0
GRID*               5005               01.4884615473E+031.7096368532E+01+
*       -4.698575014E+01               0
GRID*               5006               01.5057692389E+031.7096280161E+01+
*       -4.698578674E+01               0
GRID*               5007               01.4538461642E+031.7096553120E+01+
*       -4.698567368E+01               0
GRID*               5008               01.4711538558E+031.7096459610E+01+
*       -4.698571241E+01               0
GRID*               5009               01.4192307811E+031.7096746313E+01+
*       -4.698559365E+01               0
GRID*               5010               01.4365384726E+031.7096648782E+01+
*       -4.698563405E+01               0
GRID*               5011               01.3846153980E+031.7096945820E+01+
*       -4.698551101E+01               0
GRID*               5012               01.4019230895E+031.7096845423E+01+
*       -4.698555259E+01               0
GRID*               5013               01.3500000149E+031.7097149270E+01+
*       -4.698542673E+01               0
GRID*               5014               01.3673077065E+031.7097047204E+01+
*       -4.698546901E+01               0
GRID*               5015               01.3153846319E+031.7097354192E+01+
*       -4.698534185E+01               0
GRID*               5016               01.3326923234E+031.7097251705E+01+
*       -4.698538430E+01               0
GRID*               5017               01.2807692488E+031.7097558013E+01+
*       -4.698525742E+01               0
GRID*               5018               01.2980769404E+031.7097456406E+01+
*       -4.698529951E+01               0
GRID*               5019               01.2461538657E+031.7097758037E+01+
*       -4.698517456E+01               0
GRID*               5020               01.2634615573E+031.7097658674E+01+
*       -4.698521572E+01               0
GRID*               5021               01.2115384825E+031.7097951428E+01+
*       -4.698509445E+01               0
GRID*               5022               01.2288461741E+031.7097855745E+01+
*       -4.698513409E+01               0
GRID*               5023               01.1769230993E+031.7098135190E+01+
*       -4.698501833E+01               0
GRID*               5024               01.1942307909E+031.7098044707E+01+
*       -4.698505581E+01               0
GRID*               5025               01.1423077159E+031.7098306146E+01+
*       -4.698494752E+01               0
GRID*               5026               01.1596154076E+031.7098222476E+01+
*       -4.698498218E+01               0
GRID*               5027               01.1076923324E+031.7098460904E+01+
*       -4.698488341E+01               0
GRID*               5028               01.1250000242E+031.7098385771E+01+
*       -4.698491453E+01               0
GRID*               5029               01.0730769488E+031.7098595826E+01+
*       -4.698482752E+01               0
GRID*               5030               01.0903846406E+031.7098531083E+01+
*       -4.698485434E+01               0
GRID*               5031               01.0384615649E+031.7098706987E+01+
*       -4.698478148E+01               0
GRID*               5032               01.0557692569E+031.7098654635E+01+
*       -4.698480316E+01               0
GRID*               5033               01.0038461809E+031.7098790124E+01+
*       -4.698474704E+01               0
GRID*               5034               01.0211538729E+031.7098752340E+01+
*       -4.698476269E+01               0
GRID*               5035               09.6923079656E+021.7098840577E+01+
*       -4.698472614E+01               0
GRID*               5036               09.8653848875E+021.7098819745E+01+
*       -4.698473477E+01               0
GRID*               5037               09.3461541196E+021.7098853213E+01+
*       -4.698472090E+01               0
GRID*               5038               09.5192310430E+021.7098851964E+01+
*       -4.698472142E+01               0
GRID*               5039               09.0000002701E+021.7098822339E+01+
*       -4.698473369E+01               0
GRID*               5040               09.1730771953E+021.7098843595E+01+
*       -4.698472489E+01               0
GRID*               5041               08.6538464168E+021.7098741586E+01+
*       -4.698476714E+01               0
GRID*               5042               08.8269233440E+021.7098788625E+01+
*       -4.698474766E+01               0
GRID*               5043               08.3076925591E+021.7098603773E+01+
*       -4.698482423E+01               0
GRID*               5044               08.4807694886E+021.7098680298E+01+
*       -4.698479253E+01               0
GRID*               5045               07.9615386963E+021.7098400724E+01+
*       -4.698490834E+01               0
GRID*               5046               08.1346156284E+021.7098510958E+01+
*       -4.698486268E+01               0
GRID*               5047               07.6153848277E+021.7098123047E+01+
*       -4.698502336E+01               0
GRID*               5048               07.7884617628E+021.7098271856E+01+
*       -4.698496172E+01               0
GRID*               5049               07.2692309525E+021.7097759843E+01+
*       -4.698517381E+01               0
GRID*               5050               07.4423078910E+021.7097952886E+01+
*       -4.698509385E+01               0
GRID*               5051               07.0961540121E+021.7097542260E+01+
*       -4.698526394E+01               0
GRID*               5052               06.9230770697E+021.7097298329E+01+
*       -4.698536499E+01               0
GRID*               5053               06.7500001250E+021.7097026078E+01+
*       -4.698547776E+01               0
GRID*               5054               06.5769231780E+021.7096723343E+01+
*       -4.698560316E+01               0
GRID*               5055               06.4038462284E+021.7096387750E+01+
*       -4.698574218E+01               0
GRID*               5056               06.2307692761E+021.7096016680E+01+
*       -4.698589589E+01               0
GRID*               5057               06.0576923207E+021.7095607236E+01+
*       -4.698606549E+01               0
GRID*               5058               05.8846153636E+021.7095175261E+01+
*       -4.698624443E+01               0
GRID*               5059               05.7115384101E+021.7094790050E+01+
*       -4.698640400E+01               0
GRID*               5060               05.5384614605E+021.7094455614E+01+
*       -4.698654253E+01               0
GRID*               5061               05.3653845146E+021.7094168987E+01+
*       -4.698666126E+01               0
GRID*               5062               05.1923075721E+021.7093927279E+01+
*       -4.698676138E+01               0
GRID*               5063               05.0192306329E+021.7093727677E+01+
*       -4.698684406E+01               0
GRID*               5064               04.8461536967E+021.7093567438E+01+
*       -4.698691044E+01               0
GRID*               5065               04.6730767634E+021.7093443882E+01+
*       -4.698696162E+01               0
GRID*               5066               04.4999998327E+021.7093354393E+01+
*       -4.698699869E+01               0
GRID*               5067               04.3269229044E+021.7093296410E+01+
*       -4.698702271E+01               0
GRID*               5068               04.1538459785E+021.7093267425E+01+
*       -4.698703471E+01               0
GRID*               5069               03.9807690545E+021.7093264984E+01+
*       -4.698703573E+01               0
GRID*               5070               03.8076921325E+021.7093286675E+01+
*       -4.698702674E+01               0
GRID*               5071               03.6346152122E+021.7093330136E+01+
*       -4.698700874E+01               0
GRID*               5072               03.4615382935E+021.7093393042E+01+
*       -4.698698268E+01               0
GRID*               5073               03.2884613761E+021.7093473110E+01+
*       -4.698694951E+01               0
GRID*               5074               03.1153844599E+021.7093568093E+01+
*       -4.698691017E+01               0
GRID*               5075               02.9423075448E+021.7093675778E+01+
*       -4.698686556E+01               0
GRID*               5076               02.7692306306E+021.7093793988E+01+
*       -4.698681660E+01               0
GRID*               5077               02.5961537171E+021.7093920574E+01+
*       -4.698676416E+01               0
GRID*               5078               02.4230768041E+021.7094053418E+01+
*       -4.698670913E+01               0
GRID*               5079               02.2499998916E+021.7094190428E+01+
*       -4.698665238E+01               0
GRID*               5080               02.0769229793E+021.7094329540E+01+
*       -4.698659475E+01               0
GRID*               5081               01.9038460672E+021.7094468714E+01+
*       -4.698653710E+01               0
GRID*               5082               01.7307691550E+021.7094605933E+01+
*       -4.698648026E+01               0
GRID*               5083               01.5576922426E+021.7094739204E+01+
*       -4.698642506E+01               0
GRID*               5084               01.3846153299E+021.7094866553E+01+
*       -4.698637231E+01               0
GRID*               5085               01.2115384167E+021.7094986026E+01+
*       -4.698632282E+01               0
GRID*               5086               01.0384615030E+021.7095095691E+01+
*       -4.698627739E+01               0
GRID*               5087               08.6538458846E+011.7095193631E+01+
*       -4.698623682E+01               0
GRID*               5088               06.9230767307E+011.7095277946E+01+
*       -4.698620189E+01               0
GRID*               5089               05.1923075666E+011.7095346754E+01+
*       -4.698617339E+01               0
GRID*               5090               03.4615383910E+011.7095398188E+01+
*       -4.698615208E+01               0
GRID*               5091               01.7307692025E+011.7095430396E+01+
*       -4.698613874E+01               0
GRID*               5092               01.7307692278E+013.2141493182E+01+
*       -3.830001619E+01               0
GRID*               5093               01.7307692307E+014.3296226466E+01+
*       -2.500873281E+01               0
GRID*               5094               01.7307692106E+014.9240119862E+01+
*       -8.681100533E+00               0
GRID*               5095               01.7307692015E+014.9240192273E+01+
*       8.6828963481E+00               0
GRID*               5096               01.7307692307E+014.3305920746E+01+
*       2.4991942129E+01               0
GRID*               5097               01.7307692064E+013.2139333702E+01+
*       3.8302123388E+01               0
GRID*               5098               01.7307692263E+011.7107807062E+01+
*       4.6982148147E+01               0
GRID*               5099               01.7307692308E+01-1.228315803E-11+
*       5.0000000000E+01               0
GRID*               5100               01.7307692264E+01-1.710780595E+01+
*       4.6982148511E+01               0
GRID*               5101               01.7307692103E+01-3.213932612E+01+
*       3.8302128932E+01               0
GRID*               5102               01.7307692308E+01-4.330592075E+01+
*       2.4991942113E+01               0
GRID*               5103               01.7307692016E+01-4.924019154E+01+
*       8.6829004424E+00               0
GRID*               5104               01.7307692165E+01-4.924012193E+01+
*       -8.681084794E+00               0
GRID*               5105               01.7307692308E+01-4.329622644E+01+
*       -2.500873285E+01               0
GRID*               5106               01.7307692248E+01-3.214150160E+01+
*       -3.830000951E+01               0
GRID*               5107               01.7307692083E+01-1.709544506E+01+
*       -4.698613267E+01               0
GRID*               5108               03.4615384129E+01-1.709545549E+01+
*       -4.698612835E+01               0
GRID*               5109               05.1923076140E+01-1.709547260E+01+
*       -4.698612126E+01               0
GRID*               5110               06.9230768116E+01-1.709549615E+01+
*       -4.698611151E+01               0
GRID*               5111               08.6538460058E+01-1.709552591E+01+
*       -4.698609918E+01               0
GRID*               5112               01.0384615197E+02-1.709556165E+01+
*       -4.698608438E+01               0
GRID*               5113               01.2115384384E+02-1.709560313E+01+
*       -4.698606719E+01               0
GRID*               5114               01.3846153569E+02-1.709565011E+01+
*       -4.698604773E+01               0
GRID*               5115               01.5576922750E+02-1.709570236E+01+
*       -4.698602609E+01               0
GRID*               5116               01.7307691928E+02-1.709575963E+01+
*       -4.698600236E+01               0
GRID*               5117               01.9038461104E+02-1.709582168E+01+
*       -4.698597666E+01               0
GRID*               5118               02.0769230277E+02-1.709588825E+01+
*       -4.698594909E+01               0
GRID*               5119               02.2499999447E+02-1.709595910E+01+
*       -4.698591974E+01               0
GRID*               5120               02.4230768615E+02-1.709603397E+01+
*       -4.698588872E+01               0
GRID*               5121               02.5961537781E+02-1.709611262E+01+
*       -4.698585615E+01               0
GRID*               5122               02.7692306945E+02-1.709619477E+01+
*       -4.698582212E+01               0
GRID*               5123               02.9423076106E+02-1.709628016E+01+
*       -4.698578674E+01               0
GRID*               5124               03.1153845266E+02-1.709636853E+01+
*       -4.698575014E+01               0
GRID*               5125               03.2884614425E+02-1.709645961E+01+
*       -4.698571241E+01               0
GRID*               5126               03.4615383582E+02-1.709655312E+01+
*       -4.698567368E+01               0
GRID*               5127               03.6346152738E+02-1.709664878E+01+
*       -4.698563405E+01               0
GRID*               5128               03.8076921893E+02-1.709674631E+01+
*       -4.698559365E+01               0
GRID*               5129               03.9807691047E+02-1.709684542E+01+
*       -4.698555259E+01               0
GRID*               5130               04.1538460200E+02-1.709694582E+01+
*       -4.698551101E+01               0
GRID*               5131               04.3269229353E+02-1.709704720E+01+
*       -4.698546901E+01               0
GRID*               5132               04.4999998506E+02-1.709714927E+01+
*       -4.698542673E+01               0
GRID*               5133               04.6730767658E+02-1.709725170E+01+
*       -4.698538430E+01               0
GRID*               5134               04.8461536811E+02-1.709735419E+01+
*       -4.698534185E+01               0
GRID*               5135               05.0192305965E+02-1.709745641E+01+
*       -4.698529951E+01               0
GRID*               5136               05.1923075119E+02-1.709755801E+01+
*       -4.698525742E+01               0
GRID*               5137               05.3653844274E+02-1.709765867E+01+
*       -4.698521572E+01               0
GRID*               5138               05.5384613431E+02-1.709775804E+01+
*       -4.698517456E+01               0
GRID*               5139               05.7115382589E+02-1.709785574E+01+
*       -4.698513409E+01               0
GRID*               5140               05.8846151748E+02-1.709795143E+01+
*       -4.698509445E+01               0
GRID*               5141               06.0576920910E+02-1.709804471E+01+
*       -4.698505581E+01               0
GRID*               5142               06.2307690074E+02-1.709813519E+01+
*       -4.698501833E+01               0
GRID*               5143               06.4038459240E+02-1.709822248E+01+
*       -4.698498218E+01               0
GRID*               5144               06.5769228410E+02-1.709830615E+01+
*       -4.698494752E+01               0
GRID*               5145               06.7499997583E+02-1.709838577E+01+
*       -4.698491453E+01               0
GRID*               5146               06.9230766759E+02-1.709846090E+01+
*       -4.698488341E+01               0
GRID*               5147               07.0961535939E+02-1.709853108E+01+
*       -4.698485434E+01               0
GRID*               5148               07.2692305124E+02-1.709859583E+01+
*       -4.698482752E+01               0
GRID*               5149               07.4423074313E+02-1.709865463E+01+
*       -4.698480316E+01               0
GRID*               5150               07.6153843507E+02-1.709870699E+01+
*       -4.698478148E+01               0
GRID*               5151               07.7884612707E+02-1.709875234E+01+
*       -4.698476269E+01               0
GRID*               5152               07.9615381913E+02-1.709879012E+01+
*       -4.698474704E+01               0
GRID*               5153               08.1346151125E+02-1.709881975E+01+
*       -4.698473477E+01               0
GRID*               5154               08.3076920344E+02-1.709884058E+01+
*       -4.698472614E+01               0
GRID*               5155               08.4807689570E+02-1.709885196E+01+
*       -4.698472142E+01               0
GRID*               5156               08.6538458804E+02-1.709885321E+01+
*       -4.698472090E+01               0
GRID*               5157               08.8269228047E+02-1.709884360E+01+
*       -4.698472489E+01               0
GRID*               5158               08.9999997299E+02-1.709882234E+01+
*       -4.698473369E+01               0
GRID*               5159               09.1730766560E+02-1.709878863E+01+
*       -4.698474766E+01               0
GRID*               5160               09.3461535832E+02-1.709874159E+01+
*       -4.698476714E+01               0
GRID*               5161               09.5192305114E+02-1.709868030E+01+
*       -4.698479253E+01               0
GRID*               5162               09.6923074409E+02-1.709860377E+01+
*       -4.698482423E+01               0
GRID*               5163               09.8653843716E+02-1.709851096E+01+
*       -4.698486268E+01               0
GRID*               5164               01.0038461304E+03-1.709840072E+01+
*       -4.698490834E+01               0
GRID*               5165               01.0211538237E+03-1.709827186E+01+
*       -4.698496172E+01               0
GRID*               5166               01.0384615172E+03-1.709812305E+01+
*       -4.698502336E+01               0
GRID*               5167               01.0557692109E+03-1.709795289E+01+
*       -4.698509385E+01               0
GRID*               5168               01.0730769047E+03-1.709775984E+01+
*       -4.698517381E+01               0
GRID*               5169               01.0903845988E+03-1.709754226E+01+
*       -4.698526394E+01               0
GRID*               5170               01.1076922930E+03-1.709729833E+01+
*       -4.698536499E+01               0
GRID*               5171               01.1249999875E+03-1.709702608E+01+
*       -4.698547776E+01               0
GRID*               5172               01.1423076822E+03-1.709672334E+01+
*       -4.698560316E+01               0
GRID*               5173               01.1596153772E+03-1.709638775E+01+
*       -4.698574218E+01               0
GRID*               5174               01.1769230724E+03-1.709601668E+01+
*       -4.698589589E+01               0
GRID*               5175               01.1942307679E+03-1.709560724E+01+
*       -4.698606549E+01               0
GRID*               5176               01.2115384636E+03-1.709517526E+01+
*       -4.698624443E+01               0
GRID*               5177               01.2288461590E+03-1.709479005E+01+
*       -4.698640400E+01               0
GRID*               5178               01.2461538539E+03-1.709445561E+01+
*       -4.698654253E+01               0
GRID*               5179               01.2634615485E+03-1.709416899E+01+
*       -4.698666126E+01               0
GRID*               5180               01.2807692428E+03-1.709392728E+01+
*       -4.698676138E+01               0
GRID*               5181               01.2980769367E+03-1.709372768E+01+
*       -4.698684406E+01               0
GRID*               5182               01.3153846303E+03-1.709356744E+01+
*       -4.698691044E+01               0
GRID*               5183               01.3326923237E+03-1.709344388E+01+
*       -4.698696162E+01               0
GRID*               5184               01.3500000167E+03-1.709335439E+01+
*       -4.698699869E+01               0
GRID*               5185               01.3673077096E+03-1.709329641E+01+
*       -4.698702271E+01               0
GRID*               5186               01.3846154022E+03-1.709326743E+01+
*       -4.698703471E+01               0
GRID*               5187               01.4019230945E+03-1.709326498E+01+
*       -4.698703573E+01               0
GRID*               5188               01.4192307867E+03-1.709328668E+01+
*       -4.698702674E+01               0
GRID*               5189               01.4365384788E+03-1.709333014E+01+
*       -4.698700874E+01               0
GRID*               5190               01.4538461707E+03-1.709339304E+01+
*       -4.698698268E+01               0
GRID*               5191               01.4711538624E+03-1.709347311E+01+
*       -4.698694951E+01               0
GRID*               5192               01.4884615540E+03-1.709356809E+01+
*       -4.698691017E+01               0
GRID*               5193               01.5057692455E+03-1.709367578E+01+
*       -4.698686556E+01               0
GRID*               5194               01.5230769369E+03-1.709379399E+01+
*       -4.698681660E+01               0
GRID*               5195               01.5403846283E+03-1.709392057E+01+
*       -4.698676416E+01               0
GRID*               5196               01.5576923196E+03-1.709405342E+01+
*       -4.698670913E+01               0
GRID*               5197               01.5750000108E+03-1.709419043E+01+
*       -4.698665238E+01               0
GRID*               5198               01.5923077021E+03-1.709432954E+01+
*       -4.698659475E+01               0
GRID*               5199               01.6096153933E+03-1.709446871E+01+
*       -4.698653710E+01               0
GRID*               5200               01.6269230845E+03-1.709460593E+01+
*       -4.698648026E+01               0
GRID*               5201               01.6442307757E+03-1.709473920E+01+
*       -4.698642506E+01               0
GRID*               5202               01.6615384670E+03-1.709486655E+01+
*       -4.698637231E+01               0
GRID*               5203               01.6788461583E+03-1.709498603E+01+
*       -4.698632282E+01               0
GRID*               5204               01.6961538497E+03-1.709509569E+01+
*       -4.698627739E+01               0
GRID*               5205               01.7134615412E+03-1.709519363E+01+
*       -4.698623682E+01               0
GRID*               5206               01.7307692327E+03-1.709527795E+01+
*       -4.698620189E+01               0
GRID*               5207               01.7480769243E+03-1.709534675E+01+
*       -4.698617339E+01               0
GRID*               5208               01.7653846161E+03-1.709539819E+01+
*       -4.698615208E+01               0
GRID*               5209               01.7826923077E+03-3.214149318E+01+
*       -3.830001619E+01               0
GRID*               5210               01.7826923080E+03-1.709543040E+01+
*       -4.698613874E+01               0
GRID*               5211               01.7826923079E+03-4.924011986E+01+
*       -8.681100533E+00               0
GRID*               5212               01.7826923077E+03-4.329622647E+01+
*       -2.500873281E+01               0
GRID*               5213               01.7826923077E+03-4.330592075E+01+
*       2.4991942129E+01               0
GRID*               5214               01.7826923080E+03-4.924019227E+01+
*       8.6828963481E+00               0
GRID*               5215               01.7826923077E+03-1.710780706E+01+
*       4.6982148147E+01               0
GRID*               5216               01.7826923079E+03-3.213933370E+01+
*       3.8302123388E+01               0
GRID*               5217               01.7826923077E+031.7107805949E+01+
*       4.6982148511E+01               0
GRID*               5218               01.7826923077E+03-2.709535529E-11+
*       5.0000000000E+01               0
GRID*               5219               01.7826923077E+034.3305920754E+01+
*       2.4991942113E+01               0
GRID*               5220               01.7826923079E+033.2139326120E+01+
*       3.8302128932E+01               0
GRID*               5221               01.7826923078E+034.9240121934E+01+
*       -8.681084794E+00               0
GRID*               5222               01.7826923080E+034.9240191540E+01+
*       8.6829004424E+00               0
GRID*               5223               01.7826923077E+034.3296226438E+01+
*       -2.500873285E+01               0
GRID*               5224               01.8000000000E+031.6070745637E+01+
*       -3.915001218E+01               0
GRID*               5225               01.8000000000E+032.4492935993E-15+
*       -4.500000000E+01               0
GRID*               5226               01.8000000000E+033.0209709232E+01+
*       -3.329531911E+01               0
GRID*               5227               01.8000000000E+033.8759030909E+01+
*       -1.848584019E+01               0
GRID*               5228               01.8000000000E+034.4620067234E+01+
*       -4.342326968E+00               0
GRID*               5229               01.8000000000E+032.2697939323E+01+
*       3.7631308840E+01               0
GRID*               5230               01.8000000000E+033.5796996836E+01+
*       2.6636205587E+01               0
GRID*               5231               01.8000000000E+038.5539028596E+00+
*       4.3491074318E+01               0
GRID*               5232               01.8000000000E+034.1652960293E+01+
*       1.2494177350E+01               0
GRID*               5233               01.8000000000E+03-1.607074560E+01+
*       -3.915001212E+01               0
GRID*               5234               01.8000000000E+03-3.020970919E+01+
*       -3.329531905E+01               0
GRID*               5235               01.8000000000E+03-3.875903091E+01+
*       -1.848584019E+01               0
GRID*               5236               01.8000000000E+03-4.462006723E+01+
*       -4.342326968E+00               0
GRID*               5237               01.8000000000E+03-8.553902860E+00+
*       4.3491074318E+01               0
GRID*               5238               01.8000000000E+03-3.579699684E+01+
*       2.6636205587E+01               0
GRID*               5239               01.8000000000E+03-2.269793932E+01+
*       3.7631308840E+01               0
GRID*               5240               01.8000000000E+03-4.165296029E+01+
*       1.2494177350E+01               0
GRID*               5241               00.0000000000E+002.8277927190E+01+
*       -2.829061386E+01               0
GRID*               5242               00.0000000000E+003.9999999839E+01+
*       -3.587428791E-03               0
GRID*               5243               00.0000000000E+002.8288072925E+01+
*       2.8280469044E+01               0
GRID*               5244               00.0000000000E+004.8985871986E-15+
*       4.0000000000E+01               0
GRID*               5245               00.0000000000E+00-2.828807292E+01+
*       2.8280469044E+01               0
GRID*               5246               00.0000000000E+00-3.999999984E+01+
*       -3.587428791E-03               0
GRID*               5247               00.0000000000E+00-2.827792719E+01+
*       -2.829061386E+01               0
GRID*               5248               00.0000000000E+00-1.501448151E+01+
*       -3.625263112E+01               0
GRID*               5249               00.0000000000E+00-3.695644829E+01+
*       -1.530299877E+01               0
GRID*               5250               00.0000000000E+00-1.531092229E+01+
*       3.6953673752E+01               0
GRID*               5251               00.0000000000E+00-3.695467634E+01+
*       1.5308094248E+01               0
GRID*               5252               00.0000000000E+001.4795602030E+01+
*       -3.572580007E+01               0
GRID*               5253               00.0000000000E+003.6956448289E+01+
*       -1.530299877E+01               0
GRID*               5254               00.0000000000E+001.5310922285E+01+
*       3.6953673752E+01               0
GRID*               5255               00.0000000000E+003.6954676339E+01+
*       1.5308094248E+01               0
GRID*               5256               00.0000000000E+003.2141490972E+01+
*       -3.830002389E+01               0
GRID*               5257               00.0000000000E+004.9240133825E+01+
*       -8.681066301E+00               0
GRID*               5258               00.0000000000E+004.3305920746E+01+
*       2.4991942128E+01               0
GRID*               5259               00.0000000000E+001.7107805712E+01+
*       4.6982148621E+01               0
GRID*               5260               00.0000000000E+00-1.710780571E+01+
*       4.6982148621E+01               0
GRID*               5261               00.0000000000E+00-4.330592075E+01+
*       2.4991942128E+01               0
GRID*               5262               00.0000000000E+00-4.924013383E+01+
*       -8.681066301E+00               0
GRID*               5263               00.0000000000E+00-3.214149097E+01+
*       -3.830002389E+01               0
GRID*               5264               00.0000000000E+00-1.709546713E+01+
*       -4.698613367E+01               0
GRID*               5265               00.0000000000E+00-4.329622646E+01+
*       -2.500873282E+01               0
GRID*               5266               00.0000000000E+00-3.213931849E+01+
*       3.8302137037E+01               0
GRID*               5267               00.0000000000E+00-2.237975799E-14+
*       5.0000000000E+01               0
GRID*               5268               00.0000000000E+00-4.924019260E+01+
*       8.6828989005E+00               0
GRID*               5269               00.0000000000E+001.7095467130E+01+
*       -4.698613367E+01               0
GRID*               5270               00.0000000000E+004.3296226460E+01+
*       -2.500873282E+01               0
GRID*               5271               00.0000000000E+003.2139318488E+01+
*       3.8302137037E+01               0
GRID*               5272               00.0000000000E+004.9240192603E+01+
*       8.6828989005E+00               0
GRID*               5273               01.8000000000E+032.8277927190E+01+
*       -2.829061386E+01               0
GRID*               5274               01.8000000000E+033.9999999839E+01+
*       -3.587428791E-03               0
GRID*               5275               01.8000000000E+032.8288072925E+01+
*       2.8280469044E+01               0
GRID*               5276               01.8000000000E+034.8985871986E-15+
*       4.0000000000E+01               0
GRID*               5277               01.8000000000E+03-2.828807292E+01+
*       2.8280469044E+01               0
GRID*               5278               01.8000000000E+03-3.999999984E+01+
*       -3.587428791E-03               0
GRID*               5279               01.8000000000E+03-2.827792719E+01+
*       -2.829061386E+01               0
GRID*               5280               01.8000000000E+03-1.479560203E+01+
*       -3.572580007E+01               0
GRID*               5281               01.8000000000E+031.5014481508E+01+
*       -3.625263112E+01               0
GRID*               5282               01.8000000000E+033.6956448289E+01+
*       -1.530299877E+01               0
GRID*               5283               01.8000000000E+033.6954676339E+01+
*       1.5308094248E+01               0
GRID*               5284               01.8000000000E+031.5310922285E+01+
*       3.6953673752E+01               0
GRID*               5285               01.8000000000E+03-1.531092229E+01+
*       3.6953673752E+01               0
GRID*               5286               01.8000000000E+03-3.695467634E+01+
*       1.5308094248E+01               0
GRID*               5287               01.8000000000E+03-3.695644829E+01+
*       -1.530299877E+01               0
GRID*               5288               01.8000000000E+033.2141490972E+01+
*       -3.830002389E+01               0
GRID*               5289               01.8000000000E+034.9240133825E+01+
*       -8.681066301E+00               0
GRID*               5290               01.8000000000E+034.3305920746E+01+
*       2.4991942128E+01               0
GRID*               5291               01.8000000000E+031.7107805712E+01+
*       4.6982148621E+01               0
GRID*               5292               01.8000000000E+03-1.710780571E+01+
*       4.6982148621E+01               0
GRID*               5293               01.8000000000E+03-4.330592075E+01+
*       2.4991942128E+01               0
GRID*               5294               01.8000000000E+03-4.924013383E+01+
*       -8.681066301E+00               0
GRID*               5295               01.8000000000E+03-3.214149097E+01+
*       -3.830002389E+01               0
GRID*               5296               01.8000000000E+031.7095467130E+01+
*       -4.698613367E+01               0
GRID*               5297               01.8000000000E+03-1.709546713E+01+
*       -4.698613367E+01               0
GRID*               5298               01.8000000000E+03-4.329622646E+01+
*       -2.500873282E+01               0
GRID*               5299               01.8000000000E+03-4.924019260E+01+
*       8.6828989005E+00               0
GRID*               5300               01.8000000000E+03-3.213931849E+01+
*       3.8302137037E+01               0
GRID*               5301               01.8000000000E+03-2.237975799E-14+
*       5.0000000000E+01               0
GRID*               5302               01.8000000000E+033.2139318488E+01+
*       3.8302137037E+01               0
GRID*               5303               01.8000000000E+034.9240192603E+01+
*       8.6828989005E+00               0
GRID*               5304               01.8000000000E+034.3296226460E+01+
*       -2.500873282E+01               0
GRID*               5305               03.4615384615E+016.0054792906E-15+
*       -5.000000000E+01               0
GRID*               5306               06.9230769231E+015.8877247947E-15+
*       -5.000000000E+01               0
GRID*               5307               01.0384615385E+025.7699702988E-15+
*       -5.000000000E+01               0
GRID*               5308               01.3846153846E+025.6522158029E-15+
*       -5.000000000E+01               0
GRID*               5309               01.7307692308E+025.5344613070E-15+
*       -5.000000000E+01               0
GRID*               5310               02.0769230769E+025.4167068111E-15+
*       -5.000000000E+01               0
GRID*               5311               02.4230769231E+025.2989523152E-15+
*       -5.000000000E+01               0
GRID*               5312               02.7692307692E+025.1811978193E-15+
*       -5.000000000E+01               0
GRID*               5313               03.1153846154E+025.0634433234E-15+
*       -5.000000000E+01               0
GRID*               5314               03.4615384615E+024.9456888275E-15+
*       -5.000000000E+01               0
GRID*               5315               03.8076923077E+024.8279343316E-15+
*       -5.000000000E+01               0
GRID*               5316               04.1538461538E+024.7101798357E-15+
*       -5.000000000E+01               0
GRID*               5317               04.5000000000E+024.5924253399E-15+
*       -5.000000000E+01               0
GRID*               5318               04.8461538462E+024.4746708440E-15+
*       -5.000000000E+01               0
GRID*               5319               05.1923076923E+024.3569163481E-15+
*       -5.000000000E+01               0
GRID*               5320               05.5384615385E+024.2391618522E-15+
*       -5.000000000E+01               0
GRID*               5321               05.8846153846E+024.1214073563E-15+
*       -5.000000000E+01               0
GRID*               5322               06.2307692308E+024.0036528604E-15+
*       -5.000000000E+01               0
GRID*               5323               06.5769230769E+023.8858983645E-15+
*       -5.000000000E+01               0
GRID*               5324               06.9230769231E+023.7681438686E-15+
*       -5.000000000E+01               0
GRID*               5325               07.2692307692E+023.6503893727E-15+
*       -5.000000000E+01               0
GRID*               5326               07.6153846154E+023.5326348768E-15+
*       -5.000000000E+01               0
GRID*               5327               07.9615384615E+023.4148803809E-15+
*       -5.000000000E+01               0
GRID*               5328               08.3076923077E+023.2971258850E-15+
*       -5.000000000E+01               0
GRID*               5329               08.6538461538E+023.1793713891E-15+
*       -5.000000000E+01               0
GRID*               5330               09.0000000000E+023.0616168932E-15+
*       -5.000000000E+01               0
GRID*               5331               09.3461538462E+022.9438623973E-15+
*       -5.000000000E+01               0
GRID*               5332               09.6923076923E+022.8261079014E-15+
*       -5.000000000E+01               0
GRID*               5333               01.0038461538E+032.7083534056E-15+
*       -5.000000000E+01               0
GRID*               5334               01.0384615385E+032.5905989097E-15+
*       -5.000000000E+01               0
GRID*               5335               01.0730769231E+032.4728444138E-15+
*       -5.000000000E+01               0
GRID*               5336               01.1076923077E+032.3550899179E-15+
*       -5.000000000E+01               0
GRID*               5337               01.1423076923E+032.2373354220E-15+
*       -5.000000000E+01               0
GRID*               5338               01.1769230769E+032.1195809261E-15+
*       -5.000000000E+01               0
GRID*               5339               01.2115384615E+032.0018264302E-15+
*       -5.000000000E+01               0
GRID*               5340               01.2461538462E+031.8840719343E-15+
*       -5.000000000E+01               0
GRID*               5341               01.2807692308E+031.7663174384E-15+
*       -5.000000000E+01               0
GRID*               5342               01.3153846154E+031.6485629425E-15+
*       -5.000000000E+01               0
GRID*               5343               01.3500000000E+031.5308084466E-15+
*       -5.000000000E+01               0
GRID*               5344               01.3846153846E+031.4130539507E-15+
*       -5.000000000E+01               0
GRID*               5345               01.4192307692E+031.2952994548E-15+
*       -5.000000000E+01               0
GRID*               5346               01.4538461538E+031.1775449589E-15+
*       -5.000000000E+01               0
GRID*               5347               01.4884615385E+031.0597904630E-15+
*       -5.000000000E+01               0
GRID*               5348               01.5230769231E+030.0000000000E+00+
*       -5.000000000E+01               0
GRID*               5349               01.5576923077E+030.0000000000E+00+
*       -5.000000000E+01               0
GRID*               5350               01.5923076923E+030.0000000000E+00+
*       -5.000000000E+01               0
GRID*               5351               01.6269230769E+030.0000000000E+00+
*       -5.000000000E+01               0
GRID*               5352               01.6615384615E+030.0000000000E+00+
*       -5.000000000E+01               0
GRID*               5353               01.6961538462E+030.0000000000E+00+
*       -5.000000000E+01               0
GRID*               5354               01.7307692308E+030.0000000000E+00+
*       -5.000000000E+01               0
GRID*               5355               01.7653846154E+030.0000000000E+00+
*       -5.000000000E+01               0
GRID*               5356               01.7826923077E+030.0000000000E+00+
*       -5.000000000E+01               0
GRID*               5357               01.7480769231E+030.0000000000E+00+
*       -5.000000000E+01               0
GRID*               5358               01.7134615385E+030.0000000000E+00+
*       -5.000000000E+01               0
GRID*               5359               01.6788461538E+030.0000000000E+00+
*       -5.000000000E+01               0
GRID*               5360               01.6442307692E+030.0000000000E+00+
*       -5.000000000E+01               0
GRID*               5361               01.6096153846E+030.0000000000E+00+
*       -5.000000000E+01               0
GRID*               5362               01.5750000000E+030.0000000000E+00+
*       -5.000000000E+01               0
GRID*               5363               01.5403846154E+030.0000000000E+00+
*       -5.000000000E+01               0
GRID*               5364               01.5057692308E+031.0009132151E-15+
*       -5.000000000E+01               0
GRID*               5365               01.4711538462E+031.1186677110E-15+
*       -5.000000000E+01               0
GRID*               5366               01.4365384615E+031.2364222069E-15+
*       -5.000000000E+01               0
GRID*               5367               01.4019230769E+031.3541767028E-15+
*       -5.000000000E+01               0
GRID*               5368               01.3673076923E+031.4719311987E-15+
*       -5.000000000E+01               0
GRID*               5369               01.3326923077E+031.5896856946E-15+
*       -5.000000000E+01               0
GRID*               5370               01.2980769231E+031.7074401905E-15+
*       -5.000000000E+01               0
GRID*               5371               01.2634615385E+031.8251946864E-15+
*       -5.000000000E+01               0
GRID*               5372               01.2288461538E+031.9429491822E-15+
*       -5.000000000E+01               0
GRID*               5373               01.1942307692E+032.0607036781E-15+
*       -5.000000000E+01               0
GRID*               5374               01.1596153846E+032.1784581740E-15+
*       -5.000000000E+01               0
GRID*               5375               01.1250000000E+032.2962126699E-15+
*       -5.000000000E+01               0
GRID*               5376               01.0903846154E+032.4139671658E-15+
*       -5.000000000E+01               0
GRID*               5377               01.0557692308E+032.5317216617E-15+
*       -5.000000000E+01               0
GRID*               5378               01.0211538462E+032.6494761576E-15+
*       -5.000000000E+01               0
GRID*               5379               09.8653846154E+022.7672306535E-15+
*       -5.000000000E+01               0
GRID*               5380               09.5192307692E+022.8849851494E-15+
*       -5.000000000E+01               0
GRID*               5381               09.1730769231E+023.0027396453E-15+
*       -5.000000000E+01               0
GRID*               5382               08.8269230769E+023.1204941412E-15+
*       -5.000000000E+01               0
GRID*               5383               08.4807692308E+023.2382486371E-15+
*       -5.000000000E+01               0
GRID*               5384               08.1346153846E+023.3560031330E-15+
*       -5.000000000E+01               0
GRID*               5385               07.7884615385E+023.4737576289E-15+
*       -5.000000000E+01               0
GRID*               5386               07.4423076923E+023.5915121248E-15+
*       -5.000000000E+01               0
GRID*               5387               07.0961538462E+023.7092666206E-15+
*       -5.000000000E+01               0
GRID*               5388               06.7500000000E+023.8270211165E-15+
*       -5.000000000E+01               0
GRID*               5389               06.4038461538E+023.9447756124E-15+
*       -5.000000000E+01               0
GRID*               5390               06.0576923077E+024.0625301083E-15+
*       -5.000000000E+01               0
GRID*               5391               05.7115384615E+024.1802846042E-15+
*       -5.000000000E+01               0
GRID*               5392               05.3653846154E+024.2980391001E-15+
*       -5.000000000E+01               0
GRID*               5393               05.0192307692E+024.4157935960E-15+
*       -5.000000000E+01               0
GRID*               5394               04.6730769231E+024.5335480919E-15+
*       -5.000000000E+01               0
GRID*               5395               04.3269230769E+024.6513025878E-15+
*       -5.000000000E+01               0
GRID*               5396               03.9807692308E+024.7690570837E-15+
*       -5.000000000E+01               0
GRID*               5397               03.6346153846E+024.8868115796E-15+
*       -5.000000000E+01               0
GRID*               5398               03.2884615385E+025.0045660755E-15+
*       -5.000000000E+01               0
GRID*               5399               02.9423076923E+025.1223205714E-15+
*       -5.000000000E+01               0
GRID*               5400               02.5961538462E+025.2400750673E-15+
*       -5.000000000E+01               0
GRID*               5401               02.2500000000E+025.3578295632E-15+
*       -5.000000000E+01               0
GRID*               5402               01.9038461538E+025.4755840591E-15+
*       -5.000000000E+01               0
GRID*               5403               01.5576923077E+025.5933385549E-15+
*       -5.000000000E+01               0
GRID*               5404               01.2115384615E+025.7110930508E-15+
*       -5.000000000E+01               0
GRID*               5405               08.6538461538E+015.8288475467E-15+
*       -5.000000000E+01               0
GRID*               5406               05.1923076923E+015.9466020426E-15+
*       -5.000000000E+01               0
GRID*               5407               01.7307692308E+016.0643565385E-15+
*       -5.000000000E+01               0
GRID*               5408               03.3333333333E+010.0000000000E+00+
*       -4.000000000E+01               0
GRID*               5409               06.6666666667E+010.0000000000E+00+
*       -4.000000000E+01               0
GRID*               5410               01.0000000000E+020.0000000000E+00+
*       -4.000000000E+01               0
GRID*               5411               01.3333333333E+020.0000000000E+00+
*       -4.000000000E+01               0
GRID*               5412               01.6666666667E+020.0000000000E+00+
*       -4.000000000E+01               0
GRID*               5413               02.0000000000E+020.0000000000E+00+
*       -4.000000000E+01               0
GRID*               5414               02.3333333333E+020.0000000000E+00+
*       -4.000000000E+01               0
GRID*               5415               02.6666666667E+020.0000000000E+00+
*       -4.000000000E+01               0
GRID*               5416               03.0000000000E+020.0000000000E+00+
*       -4.000000000E+01               0
GRID*               5417               03.3333333333E+020.0000000000E+00+
*       -4.000000000E+01               0
GRID*               5418               03.6666666667E+020.0000000000E+00+
*       -4.000000000E+01               0
GRID*               5419               04.0000000000E+021.0885749330E-15+
*       -4.000000000E+01               0
GRID*               5420               04.3333333333E+021.1792895108E-15+
*       -4.000000000E+01               0
GRID*               5421               04.6666666667E+021.2700040885E-15+
*       -4.000000000E+01               0
GRID*               5422               05.0000000000E+021.3607186663E-15+
*       -4.000000000E+01               0
GRID*               5423               05.3333333333E+021.4514332440E-15+
*       -4.000000000E+01               0
GRID*               5424               05.6666666667E+021.5421478218E-15+
*       -4.000000000E+01               0
GRID*               5425               06.0000000000E+021.6328623995E-15+
*       -4.000000000E+01               0
GRID*               5426               06.3333333333E+021.7235769773E-15+
*       -4.000000000E+01               0
GRID*               5427               06.6666666667E+021.8142915550E-15+
*       -4.000000000E+01               0
GRID*               5428               07.0000000000E+021.9050061328E-15+
*       -4.000000000E+01               0
GRID*               5429               07.3333333333E+021.9957207105E-15+
*       -4.000000000E+01               0
GRID*               5430               07.6666666667E+022.0864352883E-15+
*       -4.000000000E+01               0
GRID*               5431               08.0000000000E+022.1771498660E-15+
*       -4.000000000E+01               0
GRID*               5432               08.3333333333E+022.2678644438E-15+
*       -4.000000000E+01               0
GRID*               5433               08.6666666667E+022.3585790215E-15+
*       -4.000000000E+01               0
GRID*               5434               09.0000000000E+022.4492935993E-15+
*       -4.000000000E+01               0
GRID*               5435               09.3333333333E+022.5400081770E-15+
*       -4.000000000E+01               0
GRID*               5436               09.6666666667E+022.6307227548E-15+
*       -4.000000000E+01               0
GRID*               5437               01.0000000000E+032.7214373325E-15+
*       -4.000000000E+01               0
GRID*               5438               01.0333333333E+032.8121519103E-15+
*       -4.000000000E+01               0
GRID*               5439               01.0666666667E+032.9028664880E-15+
*       -4.000000000E+01               0
GRID*               5440               01.1000000000E+032.9935810658E-15+
*       -4.000000000E+01               0
GRID*               5441               01.1333333333E+033.0842956436E-15+
*       -4.000000000E+01               0
GRID*               5442               01.1666666667E+033.1750102213E-15+
*       -4.000000000E+01               0
GRID*               5443               01.2000000000E+033.2657247991E-15+
*       -4.000000000E+01               0
GRID*               5444               01.2333333333E+033.3564393768E-15+
*       -4.000000000E+01               0
GRID*               5445               01.2666666667E+033.4471539546E-15+
*       -4.000000000E+01               0
GRID*               5446               01.3000000000E+033.5378685323E-15+
*       -4.000000000E+01               0
GRID*               5447               01.3333333333E+033.6285831101E-15+
*       -4.000000000E+01               0
GRID*               5448               01.3666666667E+033.7192976878E-15+
*       -4.000000000E+01               0
GRID*               5449               01.4000000000E+033.8100122656E-15+
*       -4.000000000E+01               0
GRID*               5450               01.4333333333E+033.9007268433E-15+
*       -4.000000000E+01               0
GRID*               5451               01.4666666667E+033.9914414211E-15+
*       -4.000000000E+01               0
GRID*               5452               01.5000000000E+034.0821559988E-15+
*       -4.000000000E+01               0
GRID*               5453               01.5333333333E+034.1728705766E-15+
*       -4.000000000E+01               0
GRID*               5454               01.5666666667E+034.2635851543E-15+
*       -4.000000000E+01               0
GRID*               5455               01.6000000000E+034.3542997321E-15+
*       -4.000000000E+01               0
GRID*               5456               01.6333333333E+034.4450143098E-15+
*       -4.000000000E+01               0
GRID*               5457               01.6666666667E+034.5357288876E-15+
*       -4.000000000E+01               0
GRID*               5458               01.7000000000E+034.6264434653E-15+
*       -4.000000000E+01               0
GRID*               5459               01.7333333333E+034.7171580431E-15+
*       -4.000000000E+01               0
GRID*               5460               01.7666666667E+034.8078726208E-15+
*       -4.000000000E+01               0
GRID*               5461               01.7833333333E+034.8532299097E-15+
*       -4.000000000E+01               0
GRID*               5462               01.7500000000E+034.7625153320E-15+
*       -4.000000000E+01               0
GRID*               5463               01.7166666667E+034.6718007542E-15+
*       -4.000000000E+01               0
GRID*               5464               01.6833333333E+034.5810861765E-15+
*       -4.000000000E+01               0
GRID*               5465               01.6500000000E+034.4903715987E-15+
*       -4.000000000E+01               0
GRID*               5466               01.6166666667E+034.3996570209E-15+
*       -4.000000000E+01               0
GRID*               5467               01.5833333333E+034.3089424432E-15+
*       -4.000000000E+01               0
GRID*               5468               01.5500000000E+034.2182278654E-15+
*       -4.000000000E+01               0
GRID*               5469               01.5166666667E+034.1275132877E-15+
*       -4.000000000E+01               0
GRID*               5470               01.4833333333E+034.0367987099E-15+
*       -4.000000000E+01               0
GRID*               5471               01.4500000000E+033.9460841322E-15+
*       -4.000000000E+01               0
GRID*               5472               01.4166666667E+033.8553695544E-15+
*       -4.000000000E+01               0
GRID*               5473               01.3833333333E+033.7646549767E-15+
*       -4.000000000E+01               0
GRID*               5474               01.3500000000E+033.6739403989E-15+
*       -4.000000000E+01               0
GRID*               5475               01.3166666667E+033.5832258212E-15+
*       -4.000000000E+01               0
GRID*               5476               01.2833333333E+033.4925112434E-15+
*       -4.000000000E+01               0
GRID*               5477               01.2500000000E+033.4017966657E-15+
*       -4.000000000E+01               0
GRID*               5478               01.2166666667E+033.3110820879E-15+
*       -4.000000000E+01               0
GRID*               5479               01.1833333333E+033.2203675102E-15+
*       -4.000000000E+01               0
GRID*               5480               01.1500000000E+033.1296529324E-15+
*       -4.000000000E+01               0
GRID*               5481               01.1166666667E+033.0389383547E-15+
*       -4.000000000E+01               0
GRID*               5482               01.0833333333E+032.9482237769E-15+
*       -4.000000000E+01               0
GRID*               5483               01.0500000000E+032.8575091992E-15+
*       -4.000000000E+01               0
GRID*               5484               01.0166666667E+032.7667946214E-15+
*       -4.000000000E+01               0
GRID*               5485               09.8333333333E+022.6760800437E-15+
*       -4.000000000E+01               0
GRID*               5486               09.5000000000E+022.5853654659E-15+
*       -4.000000000E+01               0
GRID*               5487               09.1666666667E+022.4946508882E-15+
*       -4.000000000E+01               0
GRID*               5488               08.8333333333E+022.4039363104E-15+
*       -4.000000000E+01               0
GRID*               5489               08.5000000000E+022.3132217327E-15+
*       -4.000000000E+01               0
GRID*               5490               08.1666666667E+022.2225071549E-15+
*       -4.000000000E+01               0
GRID*               5491               07.8333333333E+022.1317925772E-15+
*       -4.000000000E+01               0
GRID*               5492               07.5000000000E+022.0410779994E-15+
*       -4.000000000E+01               0
GRID*               5493               07.1666666667E+021.9503634217E-15+
*       -4.000000000E+01               0
GRID*               5494               06.8333333333E+021.8596488439E-15+
*       -4.000000000E+01               0
GRID*               5495               06.5000000000E+021.7689342662E-15+
*       -4.000000000E+01               0
GRID*               5496               06.1666666667E+021.6782196884E-15+
*       -4.000000000E+01               0
GRID*               5497               05.8333333333E+021.5875051107E-15+
*       -4.000000000E+01               0
GRID*               5498               05.5000000000E+021.4967905329E-15+
*       -4.000000000E+01               0
GRID*               5499               05.1666666667E+021.4060759551E-15+
*       -4.000000000E+01               0
GRID*               5500               04.8333333333E+021.3153613774E-15+
*       -4.000000000E+01               0
GRID*               5501               04.5000000000E+021.2246467996E-15+
*       -4.000000000E+01               0
GRID*               5502               04.1666666667E+021.1339322219E-15+
*       -4.000000000E+01               0
GRID*               5503               03.8333333333E+021.0432176441E-15+
*       -4.000000000E+01               0
GRID*               5504               03.5000000000E+020.0000000000E+00+
*       -4.000000000E+01               0
GRID*               5505               03.1666666667E+020.0000000000E+00+
*       -4.000000000E+01               0
GRID*               5506               02.8333333333E+020.0000000000E+00+
*       -4.000000000E+01               0
GRID*               5507               02.5000000000E+020.0000000000E+00+
*       -4.000000000E+01               0
GRID*               5508               02.1666666667E+020.0000000000E+00+
*       -4.000000000E+01               0
GRID*               5509               01.8333333333E+020.0000000000E+00+
*       -4.000000000E+01               0
GRID*               5510               01.5000000000E+020.0000000000E+00+
*       -4.000000000E+01               0
GRID*               5511               01.1666666667E+020.0000000000E+00+
*       -4.000000000E+01               0
GRID*               5512               08.3333333333E+010.0000000000E+00+
*       -4.000000000E+01               0
GRID*               5513               05.0000000000E+010.0000000000E+00+
*       -4.000000000E+01               0
GRID*               5514               01.6666666667E+010.0000000000E+00+
*       -4.000000000E+01               0
GRID*               5515               00.0000000000E+000.0000000000E+00+
*       -4.000000000E+01               0
GRID*               5516               00.0000000000E+006.1232337865E-15+
*       -5.000000000E+01               0
GRID*               5517               01.8000000000E+034.8985871986E-15+
*       -4.000000000E+01               0
GRID*               5518               01.8000000000E+030.0000000000E+00+
*       -5.000000000E+01               0
$*
$* ELEMENT CARDS
$*
$*  Mesh Collector: Upper Leg
$*  Mesh: 3d_mesh(1)
CTETRA         1       1    2009    3630    2016    3639      10      11+
+           2628      12    4323      13
CTETRA         2       1    2015    2016    2022    3639    2627    2645+
+           2644      14      13      15
CTETRA         3       1    1993    3609    2000    3610      16      17+
+           2586      18    4241      19
CTETRA         4       1    1999    3610    3618    3619      20    4265+
+             21      22    4267    4266
CTETRA         5       1    1992    3602    3610    3611      23    4243+
+             24      25    4245    4244
CTETRA         6       1    1975    3590    3589    3598      26    4187+
+             27      28    4211    4210
CTETRA         7       1    1953    3567    3566    3575      29    4124+
+             30      31    4148    4147
CTETRA         8       1    1952    3567    3575    3576      32    4148+
+             33      34    4150    4149
CTETRA         9       1    1935    3540    3539    3548      35    4049+
+             36      37    4073    4072
CTETRA        10       1    1929    3530    3538    3539      38    4045+
+             39      40    4047    4046
CTETRA        11       1    2025    3645    3644    3653      41    4338+
+             42      43    4362    4361
CTETRA        12       1    1905    1906    1912    3517    2329    2347+
+           2346      44      45      46
CTETRA        13       1    1919    3525    3533    3534      47    4032+
+             48      49    4034    4033
CTETRA        14       1    1905    3509    3517    3518      50    3988+
+             44      51    3990    3989
CTETRA        15       1    2032    2033    2039    3652    2674    2692+
+           2691      52      53      54
CTETRA        16       1    1896    3511    1903    3512      55      56+
+           2321      57    3973      58
CTETRA        17       1    5456    3504    1896    3512      59      60+
+           3243      61    3975      57
CTETRA        18       1    5453    5349    5454    3528      62      63+
+           5468      64    5196      65
CTETRA        19       1    2062    3683    3682    3691      66    4442+
+             67      68    4466    4465
CTETRA        20       1    1886    3483    3491    3492      69    3916+
+             70      71    3918    3917
CTETRA        21       1    2030    2036    3655    3663    2683      72+
+             73      74      75    4390
CTETRA        22       1    2049    2056    2055    3674    2738    2737+
+           2736      76      77      78
CTETRA        23       1    1880    1887    1886    3491    2279    2278+
+           2277      79      80      70
CTETRA        24       1    2030    2037    2036    3663    2685    2684+
+           2683      74      81      75
CTETRA        25       1    1880    3482    1887    3491      82      83+
+           2279      79    3915      80
CTETRA        26       1    2056    3674    3673    3682      77    4417+
+             84      85    4441    4440
CTETRA        27       1    2182    3810    3809    3817      86    4792+
+             87      88    4813    4812
CTETRA        28       1    5459    1888    1881    3481    3456    2282+
+           3457      89      90      91
CTETRA        29       1    5457    5458    5353    1895    5464      92+
+             93    3453    3454      94
CTETRA        30       1    2042    2048    3658    3666    2717      95+
+             96      97      98    4397
CTETRA        31       1    5458    5353    3488    3496      92    5205+
+             99     100    5204    3931
CTETRA        32       1    5421    3784    2141       1     101     102+
+           3313     103     104     105
CTETRA        33       1    2042    2049    2048    3666    2719    2718+
+           2717      97     106      98
CTETRA        34       1    5421    5317    3784       1     107    5132+
+            101     103     108     104
CTETRA        35       1    5421    5318    5422    3776     109     110+
+           5500     111    5134     112
CTETRA        36       1    5422    5423    5319    3761    5499     113+
+            114     115     116    5062
CTETRA        37       1    5424    5321    5425    3752     117     118+
+           5497     119    5140     120
CTETRA        38       1    5424    3745    5320    3753     121    5059+
+            122     123    4636    5060
CTETRA        39       1    1999    2000    2006    3618    2585    2603+
+           2602      21     124     125
CTETRA        40       1    1988    3615    1994    3616     126     127+
+           2569     128    4259     129
CTETRA        41       1    2000    3617    2007    3618     130     131+
+           2605     124    4263     132
CTETRA        42       1    1981    3607    1987    3608     133     134+
+           2550     135    4237     136
CTETRA        43       1    1988    3607    3615    3616     137    4258+
+            126     128    4260    4259
CTETRA        44       1    2223    3858    2224    3866     138     139+
+           3193     140    4947     141
CTETRA        45       1    2230    2231    2237    3874    3212    3230+
+           3229     142     143     144
CTETRA        46       1    2210    3849    2217    3850     145     146+
+           3175     147    4902     148
CTETRA        47       1    1870    1871    1877    3477    2249    2248+
+           2247     149     150     151
CTETRA        48       1    2221    2222    2228    3868    3187    3205+
+           3204     152     153     154
CTETRA        49       1    2216    3850    2217    3858     155     148+
+           3174     156    4925     157
CTETRA        50       1    2216    3851    3858    3859     158    4926+
+            156     159    4928    4927
CTETRA        51       1    5449    5345    1938    3560     160     161+
+           3256     162    5188     163
CTETRA        52       1    2166    2173    2172    3804    3055    3054+
+           3053     164     165     166
CTETRA        53       1    2112       2       3       4     167     168+
+            169     170     171     172
CTETRA        54       1    2172    3804    2173    3812     166     165+
+           3054     173    4799     174
CTETRA        55       1    2172    3812    2179    3813     173     175+
+           3071     176    4801     177
CTETRA        56       1    5449    5345    5450    1938     160     178+
+           5472    3256     161    3255
CTETRA        57       1    2158    2159    2165    3796    3016    3034+
+           3033     179     180     181
CTETRA        58       1    2124    3755    2131    3756     182     183+
+           2941     184    4644     185
CTETRA        59       1    2130    3764    2137    3765     186     187+
+           2957     188    4669     189
CTETRA        60       1    2129    3757    2130    3765     190     191+
+           2937     192    4670     188
CTETRA        61       1    2123    3756    2130    3757     193     194+
+           2938     195    4647     191
CTETRA        62       1    2087    3710    3709    3718     196    4517+
+            197     198    4541    4540
CTETRA        63       1    1982    1983    1989    3605    2538    2556+
+           2555     199     200     201
CTETRA        64       1    1983    1990    1989    3605    2558    2557+
+           2556     200     202     201
CTETRA        65       1    2087    3709    2088    3717     197     203+
+           2823     204    4538     205
CTETRA        66       1    2086    3710    3718    3719     206    4541+
+            207     208    4543    4542
CTETRA        67       1    2040    2046    3660    3668    2711     209+
+            210     211     212    4403
CTETRA        68       1    2043    2044    2050    3671    2703    2721+
+           2720     213     214     215
CTETRA        69       1    2044    3670    2051    3679     216     217+
+           2723     218    4433     219
CTETRA        70       1    2004    2010    3621    3629    2613     220+
+            221     222     223    4296
CTETRA        71       1    2051    3670    3678    3679     217    4431+
+            224     219    4433    4432
CTETRA        72       1    2004    2011    2010    3629    2615    2614+
+           2613     222     225     223
CTETRA        73       1    2037    2044    2043    3671    2704    2703+
+           2702     226     214     213
CTETRA        74       1    2052    2058    3678    3686    2743     227+
+            228     229     230    4453
CTETRA        75       1    5437    5333    2022    3656     231     232+
+           3280     233    5164     234
CTETRA        76       1    2022    3639    3647    3648      15    4346+
+            235     236    4348    4347
CTETRA        77       1    2087    2088    2094    3717    2823    2841+
+           2840     204     205     237
CTETRA        78       1    5333    3648    2022    3656    5165     236+
+            232    5164    4371     234
CTETRA        79       1    2088    2095    2094    3717    2843    2842+
+           2841     205     238     237
CTETRA        80       1    5438    2015    2022    3648    3278    2644+
+           3279     239     240     236
CTETRA        81       1    2015    3639    2022    3648      14      15+
+           2644     240    4348     236
CTETRA        82       1    2015    3640    3639    3648     241    4325+
+             14     240    4349    4348
CTETRA        83       1    5443    1993    5339    3609    3425     242+
+            243     244      16    5024
CTETRA        84       1    2000    3610    3609    3618      19    4241+
+             17     124    4265    4264
CTETRA        85       1    5442    2007    2000    3617    3422    2605+
+           3423     245     131     130
CTETRA        86       1    1993    2000    1999    3610    2586    2585+
+           2584      18      19      20
CTETRA        87       1    5447    5448    5343    1965    5474     246+
+            247    3433    3434     248
CTETRA        88       1    1972    1979    1978    3586    2529    2528+
+           2527     249     250     251
CTETRA        89       1    5447    5343    5342    3577     247    5369+
+            252     253    5016    5015
CTETRA        90       1    1965    3577    1972    3578     254     255+
+           2510     256    4153     257
CTETRA        91       1    1950    1957    1956    3563    2469    2468+
+           2467     258     259     260
CTETRA        92       1    1920    1921    1927    3532    2370    2388+
+           2387     261     262     263
CTETRA        93       1    2220    2221    2227    3869    3184    3202+
+           3201     264     265     266
CTETRA        94       1    1958    3561    3569    3570     267    4130+
+            268     269    4132    4131
CTETRA        95       1    2035    2042    2041    3658    2700    2699+
+           2698     270      96     271
CTETRA        96       1    2066    3693    2073    3702     272     273+
+           2783     274    4496     275
CTETRA        97       1    2221    2228    2227    3869    3204    3203+
+           3202     265     276     266
CTETRA        98       1    1914    3524    3523    3532     277    4005+
+            278     279    4029    4028
CTETRA        99       1    1921    3523    3531    3532     280    4026+
+            281     262    4028    4027
CTETRA       100       1    1913    1914    1920    3524    2351    2369+
+           2368     282     277     283
CTETRA       101       1    1907    1913    3516    3524    2350     284+
+            285     286     282    4007
CTETRA       102       1    5258    2236    2237    3875     287    3228+
+            288    5096     289     290
CTETRA       103       1    5243    5258    2236    2237    1865     287+
+           3349    3350     288    3228
CTETRA       104       1    5242    5258    5243    2237    1867    1865+
+           5255    3351     288    3350
CTETRA       105       1    1901    1907    3507    3515    2334     291+
+            292     293     294    3982
CTETRA       106       1    5408    5256    5241    2238     295    1862+
+           3354    3355     296    3353
CTETRA       107       1    5276    5291    1871    3477    5231     297+
+           3466     298    5218     150
CTETRA       108       1    5460    1874    5517    3473    3459    3461+
+           5461     299     300     301
CTETRA       109       1    5453    1910    1917    3528    3248    2359+
+           3249      64     302     303
CTETRA       110       1    1917    3535    1924    3536     304     305+
+           2378     306    4039     307
CTETRA       111       1    1893    1894    1900    3499    2297    2315+
+           2314     308     309     310
CTETRA       112       1    2088    3708    2089    3716     311     312+
+           2826     313    4535     314
CTETRA       113       1    1924    3543    1931    3544     315     316+
+           2397     317    4061     318
CTETRA       114       1    5345    3552    1938    3560    5189     319+
+            161    5188    4107     163
CTETRA       115       1    1894    1900    3499    3507    2315     310+
+            309     320     321    3960
CTETRA       116       1    1920    1927    1926    3533    2387    2386+
+           2385     322     323     324
CTETRA       117       1    2191    3831    3830    3838     325    4851+
+            326     327    4872    4871
CTETRA       118       1    2183    3823    2184    3831     328     329+
+           3083     330    4852     331
CTETRA       119       1    2209    3843    3842    3850     332    4883+
+            333     334    4904    4903
CTETRA       120       1    5338    3608    1987    3616    5175     136+
+            335    5174    4261     336
CTETRA       121       1    2178    3814    3813    3821     337    4804+
+            338     339    4825    4824
CTETRA       122       1    2106    3736    3735    3744     340    4589+
+            341     342    4613    4612
CTETRA       123       1    2093    2094    2100    3726    2839    2857+
+           2856     343     344     345
CTETRA       124       1    2163    3799    3806    3807     346    4784+
+            347     348    4786    4785
CTETRA       125       1    2094    2101    2100    3726    2859    2858+
+           2857     344     349     345
CTETRA       126       1    5426    2106    5322    3736    3303     350+
+            351     352     340    5143
CTETRA       127       1    2162    3799    2163    3807     353     346+
+           3026     354    4786     348
CTETRA       128       1    2162    3800    3799    3807     355    4766+
+            353     354    4787    4786
CTETRA       129       1    2151    3780    2152    3788     356     357+
+           2997     358    4733     359
CTETRA       130       1    2129    3765    2136    3766     192     360+
+           2954     361    4672     362
CTETRA       131       1    5322    3736    2106    3744    5143     340+
+            350    5142    4613     342
CTETRA       132       1    5425    3744    2113    3752     363     364+
+           3305     120    4635     365
CTETRA       133       1    2099    3728    3727    3736     366    4567+
+            367     368    4591    4590
CTETRA       134       1    2113    3744    3743    3752     364    4611+
+            369     365    4635    4634
CTETRA       135       1    2121    3758    2128    3759     370     371+
+           2932     372    4653     373
CTETRA       136       1    2047    2048    2054    3667    2715    2733+
+           2732     374     375     376
CTETRA       137       1    5450    5451    5346    1944    5471     377+
+            378    3439    3440     379
CTETRA       138       1    2152    2153    2159    3787    3000    3018+
+           3017     380     381     382
CTETRA       139       1    2153    2160    2159    3787    3020    3019+
+           3018     381     383     382
CTETRA       140       1    2097    2104    2103    3723    2868    2867+
+           2866     384     385     386
CTETRA       141       1    2122    2129    2128    3758    2935    2934+
+           2933     387     388     371
CTETRA       142       1    2190    3840    2197       5     389     390+
+           3119     391     392     393
CTETRA       143       1    2096    3715    2097    3723     394     395+
+           2848     396    4554     384
CTETRA       144       1    2128    3759    3766    3767     373    4674+
+            397     398    4676    4675
CTETRA       145       1    2102    3724    2103    3732     399     400+
+           2864     401    4579     402
CTETRA       146       1    2096    3723    2103    3724     396     386+
+           2865     403    4556     400
CTETRA       147       1    2059    3685    2066    3694     404     405+
+           2764     406    4474     407
CTETRA       148       1    2059    3677    3685    3686     408    4450+
+            404     409    4452    4451
CTETRA       149       1    5435    5436    2036    3664    5486    3283+
+           3284     410     411     412
CTETRA       150       1    5434    5330    5435    3672     413     414+
+           5487     415    5159     416
CTETRA       151       1    2151    2152    2158    3788    2997    3015+
+           3014     358     359     417
CTETRA       152       1    2026    3651    2033    3652     418     419+
+           2675     420    4357      53
CTETRA       153       1    2026    3644    3643    3652     421    4335+
+            422     420    4359    4358
CTETRA       154       1    5458    1895    1888    3489    3454    2301+
+           3455     423     424     425
CTETRA       155       1    2039    3660    2046    3669     426     209+
+           2710     427    4405     428
CTETRA       156       1    2152    3780    3779    3787     357    4710+
+            429     380    4731    4730
CTETRA       157       1    2007    3618    3617    3626     132    4263+
+            131     430    4287    4286
CTETRA       158       1    1993    3601    3609    3610     431    4240+
+             16      18    4242    4241
CTETRA       159       1    1992    3603    3602    3611     432    4222+
+             23      25    4246    4245
CTETRA       160       1    2158    3796    2165    3797     179     181+
+           3033     433    4757     434
CTETRA       161       1    5455    1916    1909    3513    3448    2358+
+           3449     435     436     437
CTETRA       162       1    2013    3627    3626    3635     438    4288+
+            439     440    4312    4311
CTETRA       163       1    5443    5338    2000    3609     441     442+
+           3424     244    5023      17
CTETRA       164       1    5337    2007    3617    3625     443     131+
+           5025    5028     444    4284
CTETRA       165       1    2007    2014    2013    3626    2624    2623+
+           2622     430     445     439
CTETRA       166       1    5445    5341    5446    1966     446     447+
+           5476    3264     448    3263
CTETRA       167       1    5339    1993    3601    3609     242     431+
+           5021    5024      16    4240
CTETRA       168       1    5442    5338    5443    1987     449     441+
+           5479    3270     335    3269
CTETRA       169       1    1992    1993    1999    3610    2566    2584+
+           2583      24      18      20
CTETRA       170       1    5450    1951    1944    3553    3438    2453+
+           3439     450     451     452
CTETRA       171       1    5417    5314    5418    3808     453     454+
+           5504     455    5126     456
CTETRA       172       1    2155    3799    2162    3800     457     353+
+           3024     458    4766     355
CTETRA       173       1    1976    3588    1977    3596     459     460+
+           2522     461    4205     462
CTETRA       174       1    1977    3588    3587    3596     460    4181+
+            463     462    4205    4204
CTETRA       175       1    2185    3822    3821    3829     464    4826+
+            465     466    4847    4846
CTETRA       176       1    1959    3575    3583    3584     467    4170+
+            468     469    4172    4171
CTETRA       177       1    5448    1965    1958    3569    3434    2491+
+           3435     470     471     268
CTETRA       178       1    5432    2057    2064    3688    3290    2758+
+           3291     472     473     474
CTETRA       179       1    5432    5433    2057    3688    5489    3289+
+           3290     472     475     473
CTETRA       180       1    1938    1939    1945    3559    2418    2436+
+           2435     476     477     478
CTETRA       181       1    1943    3546    3545    3554     479    4065+
+            480     481    4089    4088
CTETRA       182       1    5452    1937    1930    3537    3442    2415+
+           3443     482     483     484
CTETRA       183       1    1937    1944    1943    3545    2434    2433+
+           2432     485     486     480
CTETRA       184       1    2193    3829    3828    3836     487    4845+
+            488     489    4866    4865
CTETRA       185       1    5430    2091    2084    3705    3398    2833+
+           3399     490     491     492
CTETRA       186       1    2209    3843    3850    3851     332    4904+
+            334     493    4906    4905
CTETRA       187       1    1919    1920    1926    3533    2367    2385+
+           2384      48     322     324
CTETRA       188       1    1914    1920    3524    3532    2369     283+
+            277     279     261    4029
CTETRA       189       1    1927    3533    3532    3541     323    4030+
+            263     494    4054    4053
CTETRA       190       1    1926    3534    3533    3542     495    4033+
+            324     496    4057    4056
CTETRA       191       1    2208    3851    2215    3852     497     498+
+           3169     499    4908     500
CTETRA       192       1    1889    3495    3503    3504     501    3950+
+            502     503    3952    3951
CTETRA       193       1    1896    3503    3511    3512     504    3972+
+             55      57    3974    3973
CTETRA       194       1    1883    3486    3494    3495     505    3925+
+            506     507    3927    3926
CTETRA       195       1    5427    3729       3       2     508     509+
+            510     511     512     168
CTETRA       196       1    5421    2154    3777       6    3380     513+
+            514     515     516     517
CTETRA       197       1    5420    2154    5421       6    3379    3380+
+           5501     518     516     515
CTETRA       198       1    1887    3491    3490    3499      80    3914+
+            519     520    3938    3937
CTETRA       199       1    2218    3864    3863    3871     521    4942+
+            522     523    4963    4962
CTETRA       200       1    5439    2028    2021    3641    3416    2662+
+           3417     524     525     526
CTETRA       201       1    2218    3863    2219    3871     522     527+
+           3178     523    4962     528
CTETRA       202       1    5439    3633    5335    3641     529    5029+
+            530     524    4328    5032
CTETRA       203       1    5450    1931    1938    3552    3254    2416+
+           3255     531     532     319
CTETRA       204       1    5450    5346    5451    1931     378     377+
+           5471    3254     533    3253
CTETRA       205       1    5440    2008    5335    3632    3275     534+
+            535     536     537    5169
CTETRA       206       1    2108    2115    2114    3742    2897    2896+
+           2895     538     539     540
CTETRA       207       1    2106    2107    2113    3743    2874    2892+
+           2891     541     542     369
CTETRA       208       1    5424    2113    2120    3752    3306    2910+
+           3307     119     365     543
CTETRA       209       1    5412    5413    5309    3841    5509     544+
+            545     546     547    5082
CTETRA       210       1    2106    3743    2113    3744     541     369+
+           2891     342    4611     364
CTETRA       211       1    5340    1986    3593    3601     548     549+
+           5019    5022     550    4218
CTETRA       212       1    5412    2210    5413    3841    3363    3364+
+           5509     546     551     547
CTETRA       213       1    5444    1986    5340    3601    3427     548+
+            552     553     550    5022
CTETRA       214       1    5442    2000    5338    3617    3423     442+
+            449     245     130    5026
CTETRA       215       1    5438    5333    5334    3648     554    5378+
+            555     239    5165    5166
CTETRA       216       1    2230    3867    3866    3874     556    4949+
+            557     142    4970    4969
CTETRA       217       1    5256    2238    3873    3874     296     558+
+           5092    5093     559    4968
CTETRA       218       1    5241    5256    5257    2238    1862    5270+
+           1863    3353     296     560
CTETRA       219       1    5409    2238    2231    3873    3356    3232+
+           3357     561     558     562
CTETRA       220       1    2187    3827    2194    3828     563     564+
+           3112     565    4842     566
CTETRA       221       1    2195    3827    3826    3834     567    4839+
+            568     569    4860    4859
CTETRA       222       1    2193    3828    2194    3836     488     566+
+           3111     489    4865     570
CTETRA       223       1    2139    3770    2146    3771     571     572+
+           2982     573    4685     574
CTETRA       224       1    2144    3780    2151    3781     575     356+
+           2995     576    4713     577
CTETRA       225       1    2159    3787    2160    3795     382     383+
+           3019     578    4752     579
CTETRA       226       1    2153    3779    3786    3787     580    4728+
+            581     381    4730    4729
CTETRA       227       1    2150    3781    2151    3789     582     577+
+           2994     583    4736     584
CTETRA       228       1    2122    3750    3749    3757     585    4628+
+            586     587    4649    4648
CTETRA       229       1    2101    2102    2108    3733    2861    2879+
+           2878     588     589     590
CTETRA       230       1    2101    3733    2108    3734     588     590+
+           2878     591    4584     592
CTETRA       231       1    2115    3742    3741    3749     539    4606+
+            593     594    4627    4626
CTETRA       232       1    5420    3785    2154       6     595     596+
+           3379     518     597     516
CTETRA       233       1    5411    3849    2217       7     598     146+
+           3361     599     600     601
CTETRA       234       1    5411    5308    3849       7     602    5084+
+            598     599     603     600
CTETRA       235       1    2100    2101    2107    3734    2858    2876+
+           2875     604     591     605
CTETRA       236       1    2080    3702    3701    3710     606    4495+
+            607     608    4519    4518
CTETRA       237       1    5413    5414    5310    3833    5508     609+
+            610     611     612    5080
CTETRA       238       1    2058    3686    2065    3695     230     613+
+           2761     614    4477     615
CTETRA       239       1    2064    3696    3695    3704     616    4479+
+            617     618    4503    4502
CTETRA       240       1    2064    3687    3695    3696     619    4478+
+            617     616    4480    4479
CTETRA       241       1    2079    3702    3710    3711     620    4519+
+            621     622    4521    4520
CTETRA       242       1    2043    3671    2050    3680     213     215+
+           2720     623    4436     624
CTETRA       243       1    2043    3663    3671    3672     625    4412+
+            213     626    4414    4413
CTETRA       244       1    2132    2133    2139    3762    2946    2964+
+           2963     627     628     629
CTETRA       245       1    5435    2036    2043    3672    3284    2701+
+           3285     416     630     626
CTETRA       246       1    5435    3664    2036    3672     410     412+
+           3284     416    4415     630
CTETRA       247       1    2029    3656    3655    3664     631    4369+
+            632     633    4393    4392
CTETRA       248       1    5436    5437    2029    3656    5485    3281+
+           3282     634     233     631
CTETRA       249       1    2014    2021    2020    3634    2643    2642+
+           2641     635     636     637
CTETRA       250       1    2014    3625    3633    3634     638    4306+
+            639     635    4308    4307
CTETRA       251       1    5438    5334    5439    2015     555     640+
+           5483    3278     641    3277
CTETRA       252       1    5442    5443    5338    2000    5479     441+
+            449    3423    3424     442
CTETRA       253       1    2050    2051    2057    3679    2722    2740+
+           2739     642     219     643
CTETRA       254       1    2020    2021    2027    3642    2642    2660+
+           2659     644     645     646
CTETRA       255       1    2000    3609    3617    3618      17    4262+
+            130     124    4264    4263
CTETRA       256       1    1978    3587    3586    3595     647    4178+
+            251     648    4202    4201
CTETRA       257       1    2021    2028    2027    3642    2662    2661+
+           2660     645     649     646
CTETRA       258       1    1977    1978    1984    3595    2525    2543+
+           2542     650     648     651
CTETRA       259       1    5445    5340    1986    3593     652     548+
+           3428     653    5019     549
CTETRA       260       1    1971    3586    1978    3587     654     251+
+           2526     655    4178     647
CTETRA       261       1    1979    3586    3585    3594     250    4175+
+            656     657    4199    4198
CTETRA       262       1    1929    1936    1935    3539    2412    2411+
+           2410      40     658      36
CTETRA       263       1    1978    1979    1985    3594    2528    2546+
+           2545     659     657     660
CTETRA       264       1    1928    3539    1935    3540     661      36+
+           2409     662    4049      35
CTETRA       265       1    1900    3499    3507    3508     310    3960+
+            321     663    3962    3961
CTETRA       266       1    1892    1899    1898    3509    2311    2310+
+           2309     664     665     666
CTETRA       267       1    1892    3501    3500    3509     667    3942+
+            668     664    3966    3965
CTETRA       268       1    5242    5257    5258    2237    1864    5272+
+           1867    3351     669     288
CTETRA       269       1    2179    2180    2186    3820    3073    3091+
+           3090     670     671     672
CTETRA       270       1    2180    2187    2186    3820    3093    3092+
+           3091     671     673     672
CTETRA       271       1    1871    1872    1878    3476    2253    2252+
+           2251     674     675     676
CTETRA       272       1    5274    1872    5290    3475    3465     677+
+           5232     678     679    5219
CTETRA       273       1    5275    5290    1872    3476    5230     677+
+           3464     680    5220     675
CTETRA       274       1    5261    2233    2234    3878     681    3219+
+            682    5102     683     684
CTETRA       275       1    1887    1893    3491    3499    2296     685+
+             80     520     308    3938
CTETRA       276       1    2219    3862    2220    3870     686     687+
+           3181     688    4959     689
CTETRA       277       1    1961    1962    1968    3581    2481    2499+
+           2498     690     691     692
CTETRA       278       1    5261    5262    2233    3879    5268     693+
+            681    5103    5104     694
CTETRA       279       1    1962    1969    1968    3581    2501    2500+
+           2499     691     695     692
CTETRA       280       1    2215    3851    2216    3859     498     158+
+           3171     696    4928     159
CTETRA       281       1    1893    3491    3499    3500     685    3938+
+            308     697    3940    3939
CTETRA       282       1    2217    3850    3849    3857     148    4902+
+            146     698    4923    4922
CTETRA       283       1    5410    5307    5306    3857     699    5405+
+            700     701    5086    5087
CTETRA       284       1    1887    3482    3490    3491      83    3913+
+            519      80    3915    3914
CTETRA       285       1    1886    1893    1892    3500    2295    2294+
+           2293     702     697     668
CTETRA       286       1    2203    3834    3833    3841     703    4858+
+            704     705    4879    4878
CTETRA       287       1    2186    3820    2187    3828     672     673+
+           3092     706    4843     565
CTETRA       288       1    5432    2070    5433    3689    3403    3404+
+           5489     707     708     709
CTETRA       289       1    2185    3821    2186    3829     465     710+
+           3089     466    4846     711
CTETRA       290       1    2187    2194    2193    3828    3112    3111+
+           3110     565     566     488
CTETRA       291       1    2162    3807    2169    3808     354     712+
+           3043     713    4788     714
CTETRA       292       1    2109    2110    2116    3740    2883    2901+
+           2900     715     716     717
CTETRA       293       1    2025    2031    3645    3653    2670     718+
+             41      43     719    4362
CTETRA       294       1    2025    2032    2031    3653    2672    2671+
+           2670      43     720     719
CTETRA       295       1    2148    3784    3783    3791     721    4722+
+            722     723    4743    4742
CTETRA       296       1    1894    1895    1901    3498    2300    2318+
+           2317     724     725     726
CTETRA       297       1    2153    2154    2160    3786    3003    3021+
+           3020     581     727     728
CTETRA       298       1    2154    2161    2160    3786    3023    3022+
+           3021     727     729     728
CTETRA       299       1    2115    2116    2122    3749    2899    2917+
+           2916     594     730     586
CTETRA       300       1    2161    3786    3793    3794     729    4747+
+            731     732    4749    4748
CTETRA       301       1    2116    2123    2122    3749    2919    2918+
+           2917     730     733     586
CTETRA       302       1    1935    3539    3547    3548      36    4070+
+            734      37    4072    4071
CTETRA       303       1    2130    2137    2136    3765    2957    2956+
+           2955     188     189     360
CTETRA       304       1    2122    2123    2129    3757    2918    2936+
+           2935     587     195     190
CTETRA       305       1    1930    3537    1936    3538     484     735+
+           2413     736    4043     737
CTETRA       306       1    1899    1900    1906    3508    2313    2331+
+           2330     738     663     739
CTETRA       307       1    1900    1906    3508    3516    2331     739+
+            663     740     741    3985
CTETRA       308       1    5426    5323    2099    3736     742     743+
+           3302     352    5144     368
CTETRA       309       1    2106    3735    3743    3744     341    4610+
+            541     342    4612    4611
CTETRA       310       1    2106    3735    2107    3743     341     744+
+           2874     541    4610     542
CTETRA       311       1    2107    3735    3742    3743     744    4608+
+            745     542    4610    4609
CTETRA       312       1    2081    3700    2082    3708     746     747+
+           2807     748    4513     749
CTETRA       313       1    2089    3708    3715    3716     312    4533+
+            750     314    4535    4534
CTETRA       314       1    2097    3715    3714    3722     395    4531+
+            751     752    4552    4551
CTETRA       315       1    2060    3684    2067    3693     753     754+
+           2767     755    4471     756
CTETRA       316       1    5275    1871    5291    3476    3467     297+
+           5229     680     674    5217
CTETRA       317       1    5434    5329    5330    3680     757    5382+
+            413     758    5157    5158
CTETRA       318       1    2036    3663    2043    3672      75     625+
+           2701     630    4414     626
CTETRA       319       1    1915    3522    1922    3531     759     760+
+           2374     761    4025     762
CTETRA       320       1    2043    3672    3671    3680     626    4413+
+            213     623    4437    4436
CTETRA       321       1    1915    1922    1921    3531    2374    2373+
+           2372     761     762     281
CTETRA       322       1    1971    1972    1978    3586    2509    2527+
+           2526     654     249     251
CTETRA       323       1    2026    3643    2027    3651     422     763+
+           2658     418    4356     764
CTETRA       324       1    2027    3650    2034    3651     765     766+
+           2678     764    4354     767
CTETRA       325       1    2020    3635    3634    3643     768    4310+
+            637     769    4334    4333
CTETRA       326       1    5431    5432    5328    3697    5490     770+
+            771     772     773    5046
CTETRA       327       1    2033    3652    3651    3660      53    4357+
+            419     774    4381    4380
CTETRA       328       1    2135    2136    2142    3774    2953    2971+
+           2970     775     776     777
CTETRA       329       1    2033    3651    2040    3660     419     778+
+           2694     774    4380     210
CTETRA       330       1    2016    2023    2022    3647    2647    2646+
+           2645     779     780     235
CTETRA       331       1    2136    2143    2142    3774    2973    2972+
+           2971     776     781     777
CTETRA       332       1    2030    3646    3654    3655     782    4365+
+            783      73    4367    4366
CTETRA       333       1    2016    3639    3638    3647      13    4322+
+            784     779    4346    4345
CTETRA       334       1    2010    3630    3629    3638     785    4297+
+            223     786    4321    4320
CTETRA       335       1    2024    2030    3646    3654    2667     782+
+            787     788     783    4365
CTETRA       336       1    2072    2073    2079    3702    2782    2800+
+           2799     789     275     620
CTETRA       337       1    2073    2080    2079    3702    2802    2801+
+           2800     275     606     620
CTETRA       338       1    5443    1987    5338    3608    3269     335+
+            441     790     136    5175
CTETRA       339       1    1981    3599    3607    3608     791    4236+
+            133     135    4238    4237
CTETRA       340       1    1981    1988    1987    3607    2552    2551+
+           2550     133     137     134
CTETRA       341       1    5339    3600    1980    3608    5177     792+
+            793    5176    4239     794
CTETRA       342       1    2022    2023    2029    3647    2646    2664+
+           2663     235     780     795
CTETRA       343       1    5340    3592    1973    3600    5179     796+
+            797    5178    4217     798
CTETRA       344       1    1969    3588    1976    3589     799     459+
+           2520     800    4184     801
CTETRA       345       1    1953    3566    1954    3574      30     802+
+           2459     803    4145     804
CTETRA       346       1    2018    2025    2024    3645    2653    2652+
+           2651     805      41     806
CTETRA       347       1    1954    3566    3565    3574     802    4121+
+            807     804    4145    4144
CTETRA       348       1    1947    3557    3565    3566     808    4120+
+            809     810    4122    4121
CTETRA       349       1    1876    1877    1883    3486    2246    2268+
+           2267     811     812     505
CTETRA       350       1    2059    2065    3686    3694    2762     613+
+            409     406     813    4475
CTETRA       351       1    1950    1951    1957    3562    2452    2470+
+           2469     814     815     816
CTETRA       352       1    5431    5432    2064    3696    5490    3291+
+           3292     817     818     616
CTETRA       353       1    1949    3555    3563    3564     819    4114+
+            820     821    4116    4115
CTETRA       354       1    1950    3554    3553    3562     822    4087+
+            823     814    4111    4110
CTETRA       355       1    2073    3693    3701    3702     273    4494+
+            824     275    4496    4495
CTETRA       356       1    2173    2174    2180    3811    3057    3075+
+           3074     825     826     827
CTETRA       357       1    5413    3840    2197    3848     828     390+
+           3329     829    4899     830
CTETRA       358       1    1950    3553    1951    3562     823     451+
+           2452     814    4110     815
CTETRA       359       1    5449    5450    5345    1951    5472     178+
+            160    3437    3438     831
CTETRA       360       1    1942    3547    3555    3556     832    4092+
+            833     834    4094    4093
CTETRA       361       1    1928    1935    1934    3540    2409    2408+
+           2407     662      35     835
CTETRA       362       1    5451    5347    5346    3545     836    5365+
+            377     837    5008    5007
CTETRA       363       1    1944    3545    3553    3554     486    4086+
+            452     838    4088    4087
CTETRA       364       1    3729       3       2       4     509     168+
+            512     839     172     171
CTETRA       365       1    2112    3737       2       4     840     841+
+            167     170     842     171
CTETRA       366       1    5414    5310    5311       5     609    5401+
+            843     844     845     846
CTETRA       367       1    2102    2109    2108    3733    2881    2880+
+           2879     589     847     590
CTETRA       368       1    1935    3539    1936    3547      36     658+
+           2411     734    4070     848
CTETRA       369       1    5413    2190    2197       5    3328    3119+
+           3329     849     391     393
CTETRA       370       1    5414    2183    2190    3832    3326    3100+
+           3327     850     851     852
CTETRA       371       1    5414    5415    2183    3832    5507    3325+
+           3326     850     853     851
CTETRA       372       1    1930    3529    3537    3538     854    4042+
+            484     736    4044    4043
CTETRA       373       1    1920    3524    3532    3533     283    4029+
+            261     322    4031    4030
CTETRA       374       1    1900    1907    1906    3516    2333    2332+
+           2331     740     285     741
CTETRA       375       1    1907    3515    1914    3524     294     855+
+           2352     286    4006     277
CTETRA       376       1    2102    3732    2109    3733     401     856+
+           2881     589    4581     847
CTETRA       377       1    1903    3512    3511    3520      58    3973+
+             56     857    3997    3996
CTETRA       378       1    2103    2110    2109    3732    2884    2883+
+           2882     402     858     856
CTETRA       379       1    1895    3489    3497    3498     424    3932+
+            859     725    3934    3933
CTETRA       380       1    5459    1888    3481    3489    3456      90+
+             89     860     425    3910
CTETRA       381       1    5457    5352    3496    3504     861    5203+
+            862     863    5202    3953
CTETRA       382       1    5449    1958    1951    3561    3436    2472+
+           3437     864     267     865
CTETRA       383       1    1881    3482    3481    3490     866    3882+
+             91     867    3913    3912
CTETRA       384       1    5446    1979    1972    3585    3430    2529+
+           3431     868     656     869
CTETRA       385       1    5445    5446    5341    1979    5476     447+
+            446    3429    3430     870
CTETRA       386       1    1895    1902    1901    3506    2320    2319+
+           2318     871     872     873
CTETRA       387       1    1888    3490    3489    3498     874    3911+
+            425     875    3935    3934
CTETRA       388       1    5418    5419    5315    3793    5503     876+
+            877     878     879    5070
CTETRA       389       1    5420    2161    2154    3785    3378    3023+
+           3379     595     880     596
CTETRA       390       1    5423    2120    2127    3760    3308    2929+
+           3309     881     882     883
CTETRA       391       1    5420    5316    3785       6     884    5068+
+            595     518     885     597
CTETRA       392       1    5316    3777    3785       6    5067    4724+
+           5068     885     517     597
CTETRA       393       1    5322       3    3729       4     886     509+
+           5055     887     172     839
CTETRA       394       1    5425    5322    5321    3737     888    5390+
+            118     889    5056    5057
CTETRA       395       1    5413    5310    3840    3848     610    5118+
+            828     829    5117    4899
CTETRA       396       1    5432    2077    2070    3689    3402    2795+
+           3403     707     890     708
CTETRA       397       1    5425    5321    3744    3752     118    5141+
+            363     120    5140    4635
CTETRA       398       1    2145    3779    2152    3780     891     429+
+           2998     892    4710     357
CTETRA       399       1    1980    3600    3599    3608     792    4215+
+            893     794    4239    4238
CTETRA       400       1    1974    1981    1980    3599    2533    2532+
+           2531     894     791     893
CTETRA       401       1    1987    3608    3607    3616     136    4237+
+            134     336    4261    4260
CTETRA       402       1    5443    5339    5444    1980     243     895+
+           5478    3268     793    3267
CTETRA       403       1    2222    3859    2223    3867     896     897+
+           3190     898    4950     899
CTETRA       404       1    5439    2008    2015    3640    3276    2625+
+           3277     900     901     241
CTETRA       405       1    5439    5335    2008    3640     530     534+
+           3276     900    5168     901
CTETRA       406       1    2217    3857    2224    3858     698     902+
+           3194     157    4924     139
CTETRA       407       1    2229    3867    2230    3875     903     556+
+           3209     904    4972     905
CTETRA       408       1    5409    2231    3865    3873    3357     906+
+            907     561     562    4966
CTETRA       409       1    2214    2215    2221    3860    3168    3186+
+           3185     908     909     910
CTETRA       410       1    2214    3852    2215    3860     911     500+
+           3168     908    4931     909
CTETRA       411       1    2215    3852    3851    3859     500    4908+
+            498     696    4929    4928
CTETRA       412       1    5442    1987    1994    3616    3270    2568+
+           3271     912     336     129
CTETRA       413       1    2180    2181    2187    3819    3076    3094+
+           3093     913     914     915
CTETRA       414       1    2187    3820    3827    3828     673    4841+
+            563     565    4843    4842
CTETRA       415       1    2166    3803    2173    3804     916     917+
+           3055     164    4776     165
CTETRA       416       1    2179    2186    2185    3821    3090    3089+
+           3088     918     710     465
CTETRA       417       1    2174    3803    3810    3811     919    4794+
+            920     826    4796    4795
CTETRA       418       1    5418    2175    3801       8    3374     921+
+            922     923     924     925
CTETRA       419       1    2165    3804    2172    3805     926     166+
+           3052     927    4779     928
CTETRA       420       1    2143    2144    2150    3781    2975    2993+
+           2992     929     576     582
CTETRA       421       1    2138    2145    2144    3772    2979    2978+
+           2977     930     931     932
CTETRA       422       1    2143    3773    2144    3781     933     934+
+           2975     929    4714     576
CTETRA       423       1    5424    5425    2113    3752    5497    3305+
+           3306     119     120     365
CTETRA       424       1    2130    3757    3756    3764     191    4647+
+            194     186    4668    4667
CTETRA       425       1    5417    2175    5418       8    3373    3374+
+           5504     935     924     923
CTETRA       426       1    2131    2138    2137    3764    2960    2959+
+           2958     936     937     187
CTETRA       427       1    2122    3757    2129    3758     587     190+
+           2935     387    4650     388
CTETRA       428       1    2152    3780    3787    3788     357    4731+
+            380     359    4733    4732
CTETRA       429       1    2086    2087    2093    3718    2820    2838+
+           2837     207     198     938
CTETRA       430       1    2101    3726    3733    3734     349    4583+
+            588     591    4585    4584
CTETRA       431       1    2086    3711    3710    3719     939    4520+
+            206     208    4544    4543
CTETRA       432       1    2079    3710    2086    3711     621     206+
+           2818     622    4520     939
CTETRA       433       1    2093    3726    2100    3727     343     345+
+           2856     940    4564     941
CTETRA       434       1    2153    3786    2160    3787     581     728+
+           3020     381    4729     383
CTETRA       435       1    2085    3711    3719    3720     942    4544+
+            943     944    4546    4545
CTETRA       436       1    5451    1924    1931    3544    3252    2397+
+           3253     945     317     318
CTETRA       437       1    5412    5309    5308    3841     545    5403+
+            946     546    5082    5083
CTETRA       438       1    2058    2064    3687    3695    2759     619+
+            947     614     617    4478
CTETRA       439       1    5412    3841    5308       7     546    5083+
+            946     948     949     603
CTETRA       440       1    5412    2210    3841       7    3363     551+
+            546     948     950     949
CTETRA       441       1    5308    3841    3849       7    5083    4900+
+           5084     603     949     600
CTETRA       442       1    2210    2217    3849       7    3175     146+
+            145     950     601     600
CTETRA       443       1    5411    5412    5308       7    5510     946+
+            602     599     948     603
CTETRA       444       1    2051    2052    2058    3678    2725    2743+
+           2742     224     228     227
CTETRA       445       1    2051    3678    2058    3687     224     227+
+           2742     951    4455     947
CTETRA       446       1    5412    2217    2210       7    3362    3175+
+           3363     948     601     950
CTETRA       447       1    5431    5327    5328    3696     952    5384+
+            771     817    5153    5154
CTETRA       448       1    2159    3788    3795    3796     953    4753+
+            578     180    4755    4754
CTETRA       449       1    5433    2070    3681    3689    3404     954+
+            955     709     708    4460
CTETRA       450       1    5411    2224    2217    3857    3360    3194+
+           3361     956     902     698
CTETRA       451       1    2057    3687    2064    3688     957     619+
+           2758     473    4457     474
CTETRA       452       1    5432    3688    2064    3696     472     474+
+           3291     818    4481     616
CTETRA       453       1    5410    2224    5411    3857    3359    3360+
+           5511     701     902     956
CTETRA       454       1    2050    3679    2057    3688     642     643+
+           2739     958    4458     473
CTETRA       455       1    2064    3688    3687    3696     474    4457+
+            619     616    4481    4480
CTETRA       456       1    5411    2217    3849    3857    3361     146+
+            598     956     698    4922
CTETRA       457       1    5439    2015    5334    3640    3277     641+
+            640     900     241    5167
CTETRA       458       1    2013    3626    2014    3634     439     445+
+           2623     959    4309     635
CTETRA       459       1    5426       3    5322       4     960     886+
+            351     961     172     887
CTETRA       460       1    1870    1876    3478    3486    2244     962+
+            963     964     811    3900
CTETRA       461       1    5440    2021    2014    3633    3418    2643+
+           3419     965     966     639
CTETRA       462       1    2153    3779    3778    3786     580    4707+
+            967     581    4728    4727
CTETRA       463       1    5413    3840    5310       5     828    5118+
+            610     849     392     845
CTETRA       464       1    5426    2112       3       4    3391     169+
+            960     961     170     172
CTETRA       465       1    1999    3610    2000    3618      20      19+
+           2585      21    4265     124
CTETRA       466       1    1992    1999    1998    3611    2583    2582+
+           2581      25     968     969
CTETRA       467       1    1971    1978    1977    3587    2526    2525+
+           2524     655     647     463
CTETRA       468       1    5409    5306    5410    3872     970     700+
+           5512     971    5110     972
CTETRA       469       1    5447    1972    1965    3577    3432    2510+
+           3433     253     255     254
CTETRA       470       1    2197    2198    2204    3847    3121    3139+
+           3138     973     974     975
CTETRA       471       1    5310    3840    5311       5    5118    5119+
+           5401     845     392     846
CTETRA       472       1    2194    3827    2195    3835     564     567+
+           3114     976    4862     977
CTETRA       473       1    1921    1928    1927    3532    2390    2389+
+           2388     262     978     263
CTETRA       474       1    2168    3794    3801    3802     979    4769+
+            980     981    4771    4770
CTETRA       475       1    2168    3801    2175    3802     980     921+
+           3061     981    4770     982
CTETRA       476       1    2167    2168    2174    3802    3041    3059+
+           3058     983     981     984
CTETRA       477       1    2168    3794    3793    3801     979    4748+
+            985     980    4769    4768
CTETRA       478       1    2147    3777    2154    3778     986     513+
+           3004     987    4704     988
CTETRA       479       1    1962    3573    3572    3581     989    4140+
+            990     691    4164    4163
CTETRA       480       1    2188    2195    2194    3827    3115    3114+
+           3113     991     567     564
CTETRA       481       1    1949    3563    1956    3564     820     260+
+           2466     821    4115     992
CTETRA       482       1    1955    3564    1956    3572     993     992+
+           2465     994    4139     995
CTETRA       483       1    5322    3729    3737       4    5055    4592+
+           5056     887     839     842
CTETRA       484       1    2190    3832    3839    3840     852    4875+
+            996     389    4877    4876
CTETRA       485       1    2105    3722    3721    3729     997    4550+
+            998     999    4571    4570
CTETRA       486       1    2098    2105    2104    3722    2871    2870+
+           2869    1000     997    1001
CTETRA       487       1    2105    3730    3729       2    1002    4572+
+            999    1003    1004     512
CTETRA       488       1    5336    2014    3625    3633    1005     638+
+           5027    5030     639    4306
CTETRA       489       1    1955    1956    1962    3572    2465    2483+
+           2482     994     995     990
CTETRA       490       1    2063    3681    2070    3690    1006     954+
+           2776    1007    4462    1008
CTETRA       491       1    2196    3826    3825    3833    1009    4836+
+           1010    1011    4857    4856
CTETRA       492       1    2127    3760    3759    3767     883    4655+
+           1012    1013    4677    4676
CTETRA       493       1    2121    2128    2127    3759    2932    2931+
+           2930     372     373    1012
CTETRA       494       1    2127    3759    2128    3767    1012     373+
+           2931    1013    4676     398
CTETRA       495       1    2128    3758    2129    3766     371     388+
+           2934     397    4673     361
CTETRA       496       1    1972    3585    1979    3586     869     656+
+           2529     249    4175     250
CTETRA       497       1    1934    3540    1935    3548     835      35+
+           2408    1014    4073      37
CTETRA       498       1    1944    1951    1950    3553    2453    2452+
+           2451     452     451     823
CTETRA       499       1    1951    3553    3561    3562     451    4108+
+            865     815    4110    4109
CTETRA       500       1    2190    3832    3831    3839     852    4854+
+           1015     996    4875    4874
CTETRA       501       1    2197    3840    3839    3847     390    4876+
+           1016     973    4897    4896
CTETRA       502       1    1927    3532    1928    3540     263     978+
+           2389    1017    4051     662
CTETRA       503       1    2191    2198    2197    3839    3122    3121+
+           3120    1018    1019    1016
CTETRA       504       1    2197    3839    2198    3847    1016    1019+
+           3121     973    4896     974
CTETRA       505       1    2183    3831    2190    3832     330    1015+
+           3100     851    4854     852
CTETRA       506       1    2190    3832    3840       5     852    4877+
+            389     391    1020     392
CTETRA       507       1    1906    1907    1913    3516    2332    2350+
+           2349     741     285     284
CTETRA       508       1    1914    3523    1921    3532     278     280+
+           2371     279    4028     262
CTETRA       509       1    1919    3533    1926    3534      48     324+
+           2384      49    4033     495
CTETRA       510       1    1913    3524    1920    3525     282     283+
+           2368    1021    4008    1022
CTETRA       511       1    1884    1885    1891    3493    2272    2290+
+           2289    1023    1024    1025
CTETRA       512       1    1878    1879    1885    3484    2254    2274+
+           2273    1026    1027    1028
CTETRA       513       1    1878    1884    3485    3493    2271    1029+
+           1030    1031    1023    3922
CTETRA       514       1    2201    3836    3835    3843    1032    4864+
+           1033    1034    4885    4884
CTETRA       515       1    2146    2153    2152    3779    3001    3000+
+           2999    1035     580     429
CTETRA       516       1    2055    3674    2062    3683      78    1036+
+           2754    1037    4443      66
CTETRA       517       1    2054    2055    2061    3675    2734    2752+
+           2751    1038    1039    1040
CTETRA       518       1    2100    3734    2107    3735     604     605+
+           2875    1041    4586     744
CTETRA       519       1    5413    5310    5309    3833     610    5402+
+            544     611    5080    5081
CTETRA       520       1    2202    3835    3834    3842    1042    4861+
+           1043    1044    4882    4881
CTETRA       521       1    2203    2210    2209    3842    3156    3155+
+           3154    1045    1046     333
CTETRA       522       1    2195    2196    2202    3834    3117    3135+
+           3134     569    1047    1043
CTETRA       523       1    2108    3741    2115    3742    1048     593+
+           2897     538    4606     539
CTETRA       524       1    2108    2109    2115    3741    2880    2898+
+           2897    1048    1049     593
CTETRA       525       1    2129    3758    3765    3766     388    4671+
+            192     361    4673    4672
CTETRA       526       1    5432    5329    5433    3688    1050    1051+
+           5489     472    5156     475
CTETRA       527       1    2202    3842    2209    3843    1044     333+
+           3153    1052    4883     332
CTETRA       528       1    2090    3707    3714    3715    1053    4530+
+           1054    1055    4532    4531
CTETRA       529       1    2089    3707    2090    3715    1056    1053+
+           2829     750    4532    1055
CTETRA       530       1    5432    5329    5328    3689    1050    5383+
+            770     707    5044    5043
CTETRA       531       1    2219    2220    2226    3870    3181    3199+
+           3198     688     689    1057
CTETRA       532       1    2167    3795    3802    3803    1058    4772+
+            983    1059    4774    4773
CTETRA       533       1    2205    3847    3854    3855    1060    4916+
+           1061    1062    4918    4917
CTETRA       534       1    5408    5409    5305    3873    5513    1063+
+           1064    1065     561    5090
CTETRA       535       1    2006    2013    2012    3627    2621    2620+
+           2619    1066     438    1067
CTETRA       536       1    2006    3626    2013    3627    1068     439+
+           2621    1066    4288     438
CTETRA       537       1    5438    3641    5334    3649    1069    5031+
+            555    1070    4350    5034
CTETRA       538       1    2037    2038    2044    3662    2687    2705+
+           2704    1071    1072    1073
CTETRA       539       1    2038    2044    3662    3670    2705    1073+
+           1072    1074     216    4409
CTETRA       540       1    2037    3654    3662    3663    1075    4387+
+           1071      81    4389    4388
CTETRA       541       1    2181    3811    3810    3818    1076    4795+
+           1077    1078    4816    4815
CTETRA       542       1    2194    3828    3827    3835     566    4842+
+            564     976    4863    4862
CTETRA       543       1    2186    2193    2192    3829    3109    3108+
+           3107     711     487    1079
CTETRA       544       1    2126    3753    2133    3754    1080    1081+
+           2947    1082    4638    1083
CTETRA       545       1    5423    2140    2133    3761    3384    2966+
+           3385     116    1084    1085
CTETRA       546       1    2133    3761    2140    3762    1085    1084+
+           2966     628    4660    1086
CTETRA       547       1    2184    3823    3822    3830     329    4829+
+           1087    1088    4850    4849
CTETRA       548       1    2186    3821    3828    3829     710    4844+
+            706     711    4846    4845
CTETRA       549       1    2166    2167    2173    3803    3038    3056+
+           3055     916    1059     917
CTETRA       550       1    5408    5256    2238    3873     295     296+
+           3355    1065    5092     558
CTETRA       551       1    2166    3795    2167    3803    1089    1058+
+           3038     916    4774    1059
CTETRA       552       1    2154    3785    2161    3786     596     880+
+           3023     727    4726     729
CTETRA       553       1    2163    3799    3798    3806     346    4763+
+           1090     347    4784    4783
CTETRA       554       1    1961    3581    1968    3582     690     692+
+           2498    1091    4165    1092
CTETRA       555       1    2109    2116    2115    3741    2900    2899+
+           2898    1049    1093     593
CTETRA       556       1    2107    3735    3734    3742     744    4586+
+            605     745    4608    4607
CTETRA       557       1    2107    2108    2114    3742    2877    2895+
+           2894     745     538     540
CTETRA       558       1    2164    3798    3805    3806    1094    4781+
+           1095    1096    4783    4782
CTETRA       559       1    2231    3866    3873    3874    1097    4967+
+            562     143    4969    4968
CTETRA       560       1    5242    5257    2237    2238    1864     669+
+           3351    3352     560    3231
CTETRA       561       1    5256    5257    2238    3874    5270     560+
+            296    5093    5094     559
CTETRA       562       1    2160    3786    2161    3794     728     729+
+           3022    1098    4749     732
CTETRA       563       1    2089    2090    2096    3715    2829    2847+
+           2846     750    1055     394
CTETRA       564       1    5445    5341    5340    3593     446    5371+
+            652     653    5020    5019
CTETRA       565       1    2128    3759    3758    3766     373    4653+
+            371     397    4674    4673
CTETRA       566       1    5418    5315    3800    3808     877    5128+
+           1099     456    5127    4789
CTETRA       567       1    5421    5318    3776    3784     109    5134+
+            111     101    5133    4723
CTETRA       568       1    5413    2197    3840       5    3329     390+
+            828     849     393     392
CTETRA       569       1    1898    1905    1904    3510    2327    2326+
+           2325    1100    1101    1102
CTETRA       570       1    2113    3743    3751    3752     369    4632+
+           1103     365    4634    4633
CTETRA       571       1    2086    3718    2093    3719     207     938+
+           2837     208    4542    1104
CTETRA       572       1    2219    3863    3862    3870     527    4939+
+            686     688    4960    4959
CTETRA       573       1    5420    3792    5317       1    1105    5131+
+           1106    1107    1108     108
CTETRA       574       1    2086    2093    2092    3719    2837    2836+
+           2835     208    1104    1109
CTETRA       575       1    2114    3743    3742    3750    1110    4609+
+            540    1111    4630    4629
CTETRA       576       1    2097    3715    3722    3723     395    4552+
+            752     384    4554    4553
CTETRA       577       1    1895    1901    3498    3506    2318     726+
+            725     871     873    3957
CTETRA       578       1    5439    5440    5335    3633    5482     535+
+            530     529     965    5029
CTETRA       579       1    2093    3718    2094    3726     938    1112+
+           2839     343    4563     344
CTETRA       580       1    5439    2021    5440    3633    3417    3418+
+           5482     529     966     965
CTETRA       581       1    2073    2074    2080    3701    2785    2803+
+           2802     824    1113     607
CTETRA       582       1    2066    2072    3694    3702    2781    1114+
+            407     274     789    4497
CTETRA       583       1    2055    2062    2061    3683    2754    2753+
+           2752    1037      66    1115
CTETRA       584       1    2074    3700    2081    3701    1116     746+
+           2805    1113    4492    1117
CTETRA       585       1    2055    2061    3675    3683    2752    1040+
+           1039    1037    1115    4444
CTETRA       586       1    5434    5330    3672    3680     413    5159+
+            415     758    5158    4437
CTETRA       587       1    2146    3771    3778    3779     574    4706+
+           1118    1035    4708    4707
CTETRA       588       1    2145    2146    2152    3779    2981    2999+
+           2998     891    1035     429
CTETRA       589       1    2184    2191    2190    3831    3103    3102+
+           3101     331     325    1015
CTETRA       590       1    2190    2191    2197    3839    3102    3120+
+           3119     996    1018    1016
CTETRA       591       1    1957    3562    1958    3570     816    1119+
+           2471    1120    4133     269
CTETRA       592       1    1958    3569    1965    3570     268     471+
+           2491     269    4131    1121
CTETRA       593       1    5435    5331    3664    3672    1122    5161+
+            410     416    5160    4415
CTETRA       594       1    5446    5341    5342    3584     447    5370+
+           1123    1124    5181    5182
CTETRA       595       1    1965    1972    1971    3578    2510    2509+
+           2508     256     257    1125
CTETRA       596       1    1967    3591    1973    3592    1126    1127+
+           2512    1128    4193     796
CTETRA       597       1    2044    3671    3670    3679     214    4410+
+            216     218    4434    4433
CTETRA       598       1    2044    2050    3671    3679    2721     215+
+            214     218     642    4434
CTETRA       599       1    2148    3784    3792       1     721    4745+
+           1129    1130     104    1108
CTETRA       600       1    2034    3651    3650    3659     767    4354+
+            766    1131    4378    4377
CTETRA       601       1    2040    3660    3659    3668     210    4379+
+           1132     211    4403    4402
CTETRA       602       1    1966    1967    1973    3592    2494    2512+
+           2511    1133    1128     796
CTETRA       603       1    2114    2115    2121    3750    2896    2914+
+           2913    1111    1134    1135
CTETRA       604       1    2019    3635    3643    3644    1136    4334+
+           1137    1138    4336    4335
CTETRA       605       1    2010    2011    2017    3629    2614    2632+
+           2631     223     225    1139
CTETRA       606       1    2121    3750    2122    3758    1135     585+
+           2915     370    4651     387
CTETRA       607       1    1872    3475    1879    3484     679    1140+
+           2255    1141    3891    1027
CTETRA       608       1    2121    2122    2128    3758    2915    2933+
+           2932     370     387     371
CTETRA       609       1    1994    3616    3615    3624     129    4259+
+            127    1142    4283    4282
CTETRA       610       1    2008    2009    2015    3631    2608    2626+
+           2625    1143    1144    1145
CTETRA       611       1    1886    3491    1893    3500      70     685+
+           2295     702    3940     697
CTETRA       612       1    5446    1966    5341    3584    3263     448+
+            447    1124    1146    5181
CTETRA       613       1    1969    1970    1976    3588    2503    2521+
+           2520     799    1147     459
CTETRA       614       1    1970    1971    1977    3587    2506    2524+
+           2523    1148     655     463
CTETRA       615       1    2104    2105    2111    3730    2870    2888+
+           2887    1149    1002    1150
CTETRA       616       1    1878    3484    1885    3493    1026    1028+
+           2273    1031    3921    1024
CTETRA       617       1    1946    3558    3566    3567    1151    4123+
+           1152    1153    4125    4124
CTETRA       618       1    1954    3573    1961    3574    1154    1155+
+           2479     804    4143    1156
CTETRA       619       1    1994    1995    2001    3624    2570    2588+
+           2587    1142    1157    1158
CTETRA       620       1    2146    3770    2147    3778     572    1159+
+           2984    1118    4705     987
CTETRA       621       1    5431    2084    2077    3697    3400    2814+
+           3401     772    1160    1161
CTETRA       622       1    1931    3544    3543    3552     318    4061+
+            316     532    4085    4084
CTETRA       623       1    1882    3487    3495    3496    1162    3928+
+           1163    1164    3930    3929
CTETRA       624       1    5456    1889    1896    3504    3242    2302+
+           3243      59     503      60
CTETRA       625       1    5431    3696    2064    3704     817     616+
+           3292    1165    4503     618
CTETRA       626       1    5420    5317    5421       1    1106     107+
+           5501    1107     108     103
CTETRA       627       1    1907    3516    3515    3524     285    3983+
+            294     286    4007    4006
CTETRA       628       1    2146    2147    2153    3778    2984    3002+
+           3001    1118     987     967
CTETRA       629       1    2154    3778    3777    3785     988    4704+
+            513     596    4725    4724
CTETRA       630       1    2147    3770    3777    3778    1159    4703+
+            986     987    4705    4704
CTETRA       631       1    2147    3770    3769    3777    1159    4682+
+           1166     986    4703    4702
CTETRA       632       1    2167    2174    2173    3803    3058    3057+
+           3056    1059     919     917
CTETRA       633       1    1890    3495    3494    3503    1167    3926+
+           1168    1169    3950    3949
CTETRA       634       1    1883    1884    1890    3494    2269    2287+
+           2286     506    1170    1168
CTETRA       635       1    5420    5421    2141       1    5501    3313+
+           3314    1107     103     105
CTETRA       636       1    5457    5458    1882    3496    5464    3239+
+           3240     862     100    1164
CTETRA       637       1    1891    3494    3493    3502    1171    3923+
+           1025    1172    3947    3946
CTETRA       638       1    5451    1944    1937    3545    3440    2434+
+           3441     837     486     485
CTETRA       639       1    5451    5452    5347    1937    5470    1173+
+            836    3441    3442    1174
CTETRA       640       1    1886    1887    1893    3491    2278    2296+
+           2295      70      80     685
CTETRA       641       1    2149    3790    2156    3791    1175    1176+
+           3008    1177    4741    1178
CTETRA       642       1    1881    1888    1887    3490    2282    2281+
+           2280     867     874     519
CTETRA       643       1    1888    3481    3489    3490      90    3910+
+            425     874    3912    3911
CTETRA       644       1    2204    2205    2211    3855    3140    3158+
+           3157    1179    1062    1180
CTETRA       645       1    2224    3865    2231    3866    1181     906+
+           3213     141    4946    1097
CTETRA       646       1    5458    1875    1882    3496    3238    2264+
+           3239     100    1182    1164
CTETRA       647       1    5452    5453    5348    1930    5469    1183+
+           1184    3443    3444    1185
CTETRA       648       1    2140    3769    2147    3770    1186    1166+
+           2985    1187    4682    1159
CTETRA       649       1    5431    2064    2071    3704    3292    2777+
+           3293    1165     618    1188
CTETRA       650       1    2131    3755    2132    3763     183    1189+
+           2943    1190    4664    1191
CTETRA       651       1    5352    1902    3497    3505    1192    1193+
+           4995    4998    1194    3954
CTETRA       652       1    5438    5334    5333    3649     555    5378+
+            554    1070    5034    5033
CTETRA       653       1    5420    2148    3792       1    3315    1129+
+           1105    1107    1130    1108
CTETRA       654       1    1985    3594    1986    3602     660    1195+
+           2547    1196    4221    1197
CTETRA       655       1    5459    3481    5354    3489      89    4991+
+           1198     860    3910    4994
CTETRA       656       1    5457    1895    5353    3497    3453      94+
+             93    1199     859    4996
CTETRA       657       1    1921    1922    1928    3531    2373    2391+
+           2390     281     762    1200
CTETRA       658       1    2013    3626    3634    3635     439    4309+
+            959     440    4311    4310
CTETRA       659       1    2180    3811    2181    3819     827    1076+
+           3076     913    4818     914
CTETRA       660       1    5449    5344    1958    3561    1201    1202+
+           3436     864    5011     267
CTETRA       661       1    5458    1888    5459    3489    3455    3456+
+           5463     423     425     860
CTETRA       662       1    2134    3767    2135    3775    1203    1204+
+           2950    1205    4698    1206
CTETRA       663       1    1936    3539    3538    3547     658    4046+
+            737     848    4070    4069
CTETRA       664       1    2028    3649    2035    3650    1207    1208+
+           2681    1209    4351    1210
CTETRA       665       1    2175    2182    3809       8    3080      87+
+           1211     924    1212    1213
CTETRA       666       1    5448    5449    5344    1958    5473    1201+
+           1214    3435    3436    1202
CTETRA       667       1    5454    5455    5350    1916    5467    1215+
+           1216    3447    3448    1217
CTETRA       668       1    2160    3794    2167    3795    1098    1218+
+           3039     579    4751    1058
CTETRA       669       1    2153    3778    2154    3786     967     988+
+           3003     581    4727     727
CTETRA       670       1    2190    3831    2191    3839    1015     325+
+           3102     996    4874    1018
CTETRA       671       1    5438    2028    5439    3641    3415    3416+
+           5483    1069     525     524
CTETRA       672       1    2183    2184    2190    3831    3083    3101+
+           3100     330     331    1015
CTETRA       673       1    2084    2091    2090    3714    2833    2832+
+           2831    1219    1220    1054
CTETRA       674       1    5437    5333    5438    2022     231     554+
+           5484    3280     232    3279
CTETRA       675       1    2078    3704    3703    3712    1221    4501+
+           1222    1223    4525    4524
CTETRA       676       1    2028    2035    2034    3650    2681    2680+
+           2679    1209    1210     766
CTETRA       677       1    5438    5334    2015    3648     555     641+
+           3278     239    5166     240
CTETRA       678       1    1914    1915    1921    3523    2354    2372+
+           2371     278    1224     280
CTETRA       679       1    2004    2005    2011    3628    2598    2616+
+           2615    1225    1226    1227
CTETRA       680       1    1928    3531    3539    3540    1200    4048+
+            661     662    4050    4049
CTETRA       681       1    2146    3771    3770    3778     574    4685+
+            572    1118    4706    4705
CTETRA       682       1    2016    2022    3639    3647    2645      15+
+             13     779     235    4346
CTETRA       683       1    5441    5337    5442    1994    1228    1229+
+           5480    3272    1230    3271
CTETRA       684       1    2021    3641    2028    3642     526     525+
+           2662     645    4329     649
CTETRA       685       1    5450    1944    5346    3553    3439     379+
+            378     450     452    5010
CTETRA       686       1    2021    3633    3641    3642     966    4328+
+            526     645    4330    4329
CTETRA       687       1    5422    5319    3768    3776     114    5136+
+           1231     112    5135    4701
CTETRA       688       1    5437    5438    5333    3649    5484     554+
+            231    1232    1070    5033
CTETRA       689       1    5244    5259    2235    2236    1858    1233+
+           3347    3348    1234    3225
CTETRA       690       1    2229    2236    2235    3876    3226    3225+
+           3224    1235    1236    1237
CTETRA       691       1    2229    3868    3867    3875    1238    4952+
+            903     904    4973    4972
CTETRA       692       1    2230    2237    2236    3875    3229    3228+
+           3227     905     290     289
CTETRA       693       1    2201    3835    2202    3843    1033    1042+
+           3133    1034    4884    1052
CTETRA       694       1    2207    2208    2214    3852    3149    3167+
+           3166    1239     499     911
CTETRA       695       1    2201    3843    2208    3844    1034    1240+
+           3150    1241    4886    1242
CTETRA       696       1    2208    2209    2215    3851    3152    3170+
+           3169     497     493     498
CTETRA       697       1    1876    3486    1883    3487     811     505+
+           2267    1243    3902    1244
CTETRA       698       1    2194    2201    2200    3836    3131    3130+
+           3129     570    1032    1245
CTETRA       699       1    2192    3829    2193    3837    1079     487+
+           3108    1246    4868    1247
CTETRA       700       1    5422    5319    5318    3761     114    5393+
+            110     115    5062    5063
CTETRA       701       1    5423    2133    3753    3761    3385    1081+
+           1248     116    1085    4658
CTETRA       702       1    2149    3783    3790    3791    1249    4740+
+           1175    1177    4742    4741
CTETRA       703       1    2164    2165    2171    3805    3032    3050+
+           3049    1095     927    1250
CTETRA       704       1    2164    3797    2165    3805    1251     434+
+           3032    1095    4780     927
CTETRA       705       1    2143    2150    2149    3782    2992    2991+
+           2990    1252    1253    1254
CTETRA       706       1    2157    3797    2164    3798    1255    1251+
+           3030    1256    4760    1094
CTETRA       707       1    2149    3782    2150    3790    1254    1253+
+           2991    1175    4739    1257
CTETRA       708       1    2107    3742    2114    3743     745     540+
+           2894     542    4609    1110
CTETRA       709       1    5459    5354    3480    3488    1198    5207+
+           1258    1259    5206    3908
CTETRA       710       1    2116    3748    2123    3749    1260    1261+
+           2919     730    4625     733
CTETRA       711       1    2115    3749    2122    3750     594     586+
+           2916    1134    4628     585
CTETRA       712       1    5441    5336    5337    3624    1262    5375+
+           1228    1263    5171    5172
CTETRA       713       1    5443    5339    5338    3609     243    5373+
+            441     244    5024    5023
CTETRA       714       1    2121    3751    3750    3758    1264    4631+
+           1135     370    4652    4651
CTETRA       715       1    2154    3785    3777       6     596    4724+
+            513     516     597     517
CTETRA       716       1    5261    2233    3878    3879     681     683+
+           5102    5103     694    4983
CTETRA       717       1    2100    2107    2106    3735    2875    2874+
+           2873    1041     744     341
CTETRA       718       1    2226    2233    2232    3879    3217    3216+
+           3215    1265     694    1266
CTETRA       719       1    2225    3872    3871    3879    1267    4964+
+           1268    1269    4985    4984
CTETRA       720       1    2113    3743    2114    3751     369    1110+
+           2893    1103    4632    1270
CTETRA       721       1    2072    2079    2078    3711    2799    2798+
+           2797    1271     622    1272
CTETRA       722       1    1935    1936    1942    3547    2411    2429+
+           2428     734     848     832
CTETRA       723       1    5430    5431    2071    3704    5491    3293+
+           3294    1273    1165    1188
CTETRA       724       1    2027    2028    2034    3650    2661    2679+
+           2678     765    1209     766
CTETRA       725       1    2013    3634    2020    3635     959     637+
+           2640     440    4310     768
CTETRA       726       1    2217    2224    2223    3858    3194    3193+
+           3192     157     139     138
CTETRA       727       1    1985    1992    1991    3603    2564    2563+
+           2562    1274     432    1275
CTETRA       728       1    1998    3619    2005    3620    1276    1277+
+           2599    1278    4269    1279
CTETRA       729       1    1964    1965    1971    3578    2490    2508+
+           2507    1280     256    1125
CTETRA       730       1    1977    3587    3595    3596     463    4202+
+            650     462    4204    4203
CTETRA       731       1    1970    1977    1976    3588    2523    2522+
+           2521    1147     460     459
CTETRA       732       1    1958    1965    1964    3570    2491    2490+
+           2489     269    1121    1281
CTETRA       733       1    1964    3570    1965    3578    1281    1121+
+           2490    1280    4155     256
CTETRA       734       1    5440    5335    5336    3632     535    5376+
+           1282     536    5169    5170
CTETRA       735       1    1978    3586    3594    3595     251    4199+
+            659     648    4201    4200
CTETRA       736       1    1948    1949    1955    3564    2446    2464+
+           2463    1283     821     993
CTETRA       737       1    5443    5338    5339    3608     441    5373+
+            243     790    5175    5176
CTETRA       738       1    1942    1949    1948    3556    2447    2446+
+           2445     834    1284    1285
CTETRA       739       1    5421    5318    5317    3769     109    5394+
+            107    1286    5064    5065
CTETRA       740       1    5422    5318    5319    3776     110    5393+
+            114     112    5134    5135
CTETRA       741       1    5423    5319    5320    3768     113    5392+
+           1287    1288    5136    5137
CTETRA       742       1    5424    5321    5320    3745     117    5391+
+            122     121    5058    5059
CTETRA       743       1    1949    3555    1950    3563     819    1289+
+           2449     820    4114     258
CTETRA       744       1    5421    5317    5318    3784     107    5394+
+            109     101    5132    5133
CTETRA       745       1    1927    3540    1934    3541    1017     835+
+           2406     494    4052    1290
CTETRA       746       1    1934    3548    1941    3549    1014    1291+
+           2425    1292    4074    1293
CTETRA       747       1    2195    2202    2201    3835    3134    3133+
+           3132     977    1042    1033
CTETRA       748       1    1933    3541    1934    3549    1294    1290+
+           2405    1295    4076    1292
CTETRA       749       1    2196    2203    2202    3834    3137    3136+
+           3135    1047     703    1043
CTETRA       750       1    2202    3834    2203    3842    1043     703+
+           3136    1044    4881    1045
CTETRA       751       1    2158    3788    2159    3796     417     953+
+           3016     179    4755     180
CTETRA       752       1    5431    2077    5432    3697    3401    3402+
+           5490     772    1161     773
CTETRA       753       1    1927    3532    3540    3541     263    4051+
+           1017     494    4053    4052
CTETRA       754       1    2152    2159    2158    3788    3017    3016+
+           3015     359     953     417
CTETRA       755       1    2159    3795    2166    3796     578    1089+
+           3036     180    4754    1296
CTETRA       756       1    1906    3516    1913    3517     741     284+
+           2349      45    3986    1297
CTETRA       757       1    2116    3740    2117    3748     717    1298+
+           2902    1260    4623    1299
CTETRA       758       1    2116    3741    3740    3748    1093    4603+
+            717    1260    4624    4623
CTETRA       759       1    2115    3741    2116    3749     593    1093+
+           2899     594    4626     730
CTETRA       760       1    5458    5353    1895    3489      92      94+
+           3454     423    4993     424
CTETRA       761       1    2067    2074    2073    3701    2786    2785+
+           2784    1300    1113     824
CTETRA       762       1    2111    3731    3738    3739    1301    4596+
+           1302    1303    4598    4597
CTETRA       763       1    2066    3694    3693    3702     407    4473+
+            272     274    4497    4496
CTETRA       764       1    2073    3701    2080    3702     824     607+
+           2802     275    4495     606
CTETRA       765       1    2066    2073    2072    3702    2783    2782+
+           2781     274     275     789
CTETRA       766       1    1899    3500    3508    3509    1304    3963+
+            738     665    3965    3964
CTETRA       767       1    1893    1899    3500    3508    2312    1304+
+            697    1305     738    3963
CTETRA       768       1    2024    2031    2030    3654    2669    2668+
+           2667     788    1306     783
CTETRA       769       1    1943    1950    1949    3555    2450    2449+
+           2448    1307    1289     819
CTETRA       770       1    1891    3501    1898    3502    1308    1309+
+           2308    1172    3945    1310
CTETRA       771       1    1936    1943    1942    3547    2431    2430+
+           2429     848    1311     832
CTETRA       772       1    1936    1937    1943    3546    2414    2432+
+           2431    1312    1313     479
CTETRA       773       1    1890    1891    1897    3502    2288    2306+
+           2305    1314    1172    1315
CTETRA       774       1    1893    3500    3499    3508     697    3939+
+            308    1305    3963    3962
CTETRA       775       1    5274    5290    5289    3475    5232    5303+
+           5228     678    5219    5222
CTETRA       776       1    1969    3580    3588    3589    1316    4183+
+            799     800    4185    4184
CTETRA       777       1    5458    5354    5353    3489    1317    5358+
+             92     423    4994    4993
CTETRA       778       1    1976    3589    3588    3597     801    4184+
+            459    1318    4208    4207
CTETRA       779       1    5460    3473    5355    3481     299    4988+
+           1319    1320    3881    4992
CTETRA       780       1    5459    5355    5460    3480    1321    1319+
+           5462    1258    5208    1322
CTETRA       781       1    1975    3589    1976    3597      27     801+
+           2519    1323    4208    1318
CTETRA       782       1    5458    5353    5354    3488      92    5358+
+           1317      99    5205    5206
CTETRA       783       1    1929    3530    3529    3538      38    4021+
+           1324      39    4045    4044
CTETRA       784       1    5440    5336    5335    3633    1282    5376+
+            535     965    5030    5029
CTETRA       785       1    5260    2234    3877    3878    1325    1326+
+           5100    5101     684    4980
CTETRA       786       1    2226    3871    3870    3878    1327    4961+
+           1057    1328    4982    4981
CTETRA       787       1    1942    3555    1949    3556     833     819+
+           2447     834    4093    1284
CTETRA       788       1    2226    3878    2233    3879    1328     683+
+           3217    1265    4983     694
CTETRA       789       1    2228    2235    2234    3877    3223    3222+
+           3221    1329    1330    1326
CTETRA       790       1    2216    2223    2222    3859    3191    3190+
+           3189     159     897     896
CTETRA       791       1    2224    2231    2230    3866    3213    3212+
+           3211     141    1097     557
CTETRA       792       1    2223    2224    2230    3866    3193    3211+
+           3210     140     141     557
CTETRA       793       1    2224    3858    3857    3865     139    4924+
+            902    1181    4945    4944
CTETRA       794       1    2220    3862    3861    3869     687    4936+
+           1331     264    4957    4956
CTETRA       795       1    2179    3812    2180    3820     175    1332+
+           3073     670    4821     671
CTETRA       796       1    5260    5261    2234    3878    5266     682+
+           1325    5101    5102     684
CTETRA       797       1    2173    2180    2179    3812    3074    3073+
+           3072     174    1332     175
CTETRA       798       1    2180    3819    2187    3820     913     915+
+           3093     671    4820     673
CTETRA       799       1    2006    3619    3618    3627    1333    4266+
+            125    1066    4290    4289
CTETRA       800       1    2094    3725    2101    3726    1334    1335+
+           2859     344    4562     349
CTETRA       801       1    2094    3717    2095    3725     237     238+
+           2842    1334    4560    1336
CTETRA       802       1    1998    3611    1999    3619     969     968+
+           2582    1276    4268      22
CTETRA       803       1    1997    1998    2004    3620    2579    2597+
+           2596    1337    1278    1338
CTETRA       804       1    2186    3821    3820    3828     710    4823+
+            672     706    4844    4843
CTETRA       805       1    2045    2052    2051    3678    2726    2725+
+           2724    1339     228     224
CTETRA       806       1    2051    3679    3678    3687     219    4432+
+            224     951    4456    4455
CTETRA       807       1    2051    2057    3679    3687    2740     643+
+            219     951     957    4456
CTETRA       808       1    2194    2195    2201    3835    3114    3132+
+           3131     976     977    1033
CTETRA       809       1    5432    2077    3689    3697    3402     890+
+            707     773    1161    4482
CTETRA       810       1    2163    2164    2170    3806    3029    3047+
+           3046     347    1096    1340
CTETRA       811       1    5436    2029    2036    3664    3282    2682+
+           3283     411     633     412
CTETRA       812       1    2029    3655    2036    3664     632      72+
+           2682     633    4392     412
CTETRA       813       1    5414    5311    3832       5     843    5120+
+            850     844     846    1020
CTETRA       814       1    5437    2022    2029    3656    3280    2663+
+           3281     233     234     631
CTETRA       815       1    2149    3783    3782    3790    1249    4719+
+           1254    1175    4740    4739
CTETRA       816       1    1979    3585    3593    3594     656    4196+
+           1341     657    4198    4197
CTETRA       817       1    1957    1964    1963    3571    2488    2487+
+           2486    1342    1343    1344
CTETRA       818       1    2170    3807    3814    3815    1345    4806+
+           1346    1347    4808    4807
CTETRA       819       1    1988    3614    1995    3615    1348    1349+
+           2571     126    4256    1350
CTETRA       820       1    1972    3577    3585    3586     255    4174+
+            869     249    4176    4175
CTETRA       821       1    1965    3570    3569    3578    1121    4131+
+            471     256    4155    4154
CTETRA       822       1    2136    2137    2143    3773    2956    2974+
+           2973    1351    1352     933
CTETRA       823       1    5419    2148    2155    3792    3316    3005+
+           3317    1353    1129    1354
CTETRA       824       1    5419    5316    3792    3800    1355    5130+
+           1353    1356    5129    4767
CTETRA       825       1    2009    3622    3630    3631    1357    4299+
+             10    1144    4301    4300
CTETRA       826       1    2141    3776    3783    3784    1358    4721+
+           1359     102    4723    4722
CTETRA       827       1    5444    1980    5339    3600    3267     793+
+            895    1360     792    5177
CTETRA       828       1    2156    3798    2163    3799    1361    1090+
+           3027    1362    4763     346
CTETRA       829       1    5424    5320    5321    3752     122    5391+
+            117     119    5139    5140
CTETRA       830       1    5440    2001    2008    3632    3274    2606+
+           3275     536    1363     537
CTETRA       831       1    2039    3661    3660    3669    1364    4382+
+            426     427    4406    4405
CTETRA       832       1    5426    2112    5427       3    3391    3392+
+           5495     960     169     510
CTETRA       833       1    5428    2098    3713    3721    3395    1365+
+           1366    1367    1368    4548
CTETRA       834       1    2171    3806    3813    3814    1369    4803+
+           1370    1371    4805    4804
CTETRA       835       1    2111    3730    2112    3738    1150    1372+
+           2889    1302    4595    1373
CTETRA       836       1    2112    3737    2119    3738     840    1374+
+           2909    1373    4594    1375
CTETRA       837       1    2177    3814    2178    3822    1376     337+
+           3067    1377    4827    1378
CTETRA       838       1    2025    3644    2032    3653      42    1379+
+           2672      43    4361     720
CTETRA       839       1    2170    3807    3806    3814    1345    4785+
+           1340    1346    4806    4805
CTETRA       840       1    5326    2091    3705    3713    1380     491+
+           5047    5050    1381    4526
CTETRA       841       1    5419    3785    5315    3793    1382    5069+
+            876     879    4746    5070
CTETRA       842       1    5428    2098    5429    3713    3395    3396+
+           5493    1366    1365    1383
CTETRA       843       1    5428    3713    5324    3721    1366    5051+
+           1384    1367    4548    5052
CTETRA       844       1    2038    3653    3661    3662    1385    4384+
+           1386    1072    4386    4385
CTETRA       845       1    2161    3786    3785    3793     729    4726+
+            880     731    4747    4746
CTETRA       846       1    2074    3692    3700    3701    1387    4491+
+           1116    1113    4493    4492
CTETRA       847       1    2138    3771    2145    3772    1388    1389+
+           2979     930    4688     931
CTETRA       848       1    2137    3772    2144    3773    1390     932+
+           2976    1352    4691     934
CTETRA       849       1    2069    3682    3690    3691    1391    4463+
+           1392    1393    4465    4464
CTETRA       850       1    2032    2039    2038    3661    2691    2690+
+           2689    1394    1364    1386
CTETRA       851       1    2137    3765    3772    3773     189    4690+
+           1390    1352    4692    4691
CTETRA       852       1    2028    3641    3649    3650     525    4350+
+           1207    1209    4352    4351
CTETRA       853       1    2104    3730    2111    3731    1149    1150+
+           2887    1395    4575    1301
CTETRA       854       1    2103    3724    3723    3731     400    4556+
+            386    1396    4577    4576
CTETRA       855       1    2026    2027    2033    3651    2658    2676+
+           2675     418     764     419
CTETRA       856       1    1995    3623    2001    3624    1397    1398+
+           2588    1157    4281    1158
CTETRA       857       1    2034    2040    3651    3659    2695     778+
+            767    1131    1132    4378
CTETRA       858       1    5441    5337    1994    3624    1228    1230+
+           3272    1263    5172    1142
CTETRA       859       1    5337    3616    1994    3624    5173     129+
+           1230    5172    4283    1142
CTETRA       860       1    5439    5334    5335    3640     640    5377+
+            530     900    5167    5168
CTETRA       861       1    2009    2010    2016    3630    2611    2629+
+           2628      10     785      11
CTETRA       862       1    2011    2018    2017    3637    2634    2633+
+           2632    1399    1400    1401
CTETRA       863       1    5456    1902    5352    3505    3451    1192+
+           1402    1403    1194    4998
CTETRA       864       1    5456    5457    5352    1902    5465     861+
+           1402    3451    3452    1192
CTETRA       865       1    5457    5353    5352    3497      93    5359+
+            861    1199    4996    4995
CTETRA       866       1    2011    3636    2018    3637    1404    1405+
+           2634    1399    4316    1400
CTETRA       867       1    5443    1980    1987    3608    3268    2549+
+           3269     790     794     136
CTETRA       868       1    1974    3598    1981    3599    1406    1407+
+           2533     894    4212     791
CTETRA       869       1    2200    2201    2207    3844    3130    3148+
+           3147    1408    1241    1409
CTETRA       870       1    2201    3836    3843    3844    1032    4885+
+           1034    1241    4887    4886
CTETRA       871       1    2195    3834    2202    3835     569    1043+
+           3134     977    4861    1042
CTETRA       872       1    1974    3599    1980    3600     894     893+
+           2531    1410    4215     792
CTETRA       873       1    2194    3835    2201    3836     976    1033+
+           3131     570    4864    1032
CTETRA       874       1    2202    3835    3842    3843    1042    4882+
+           1044    1052    4884    4883
CTETRA       875       1    2201    2202    2208    3843    3133    3151+
+           3150    1034    1052    1240
CTETRA       876       1    2160    2167    2166    3795    3039    3038+
+           3037     579    1058    1089
CTETRA       877       1    5414    2196    5415    3825    3367    3368+
+           5507    1411    1010    1412
CTETRA       878       1    2157    2158    2164    3797    3013    3031+
+           3030    1255     433    1251
CTETRA       879       1    5444    1973    1980    3600    3266    2530+
+           3267    1360     798     792
CTETRA       880       1    2152    3787    2159    3788     380     382+
+           3017     359    4732     953
CTETRA       881       1    5414    2196    3825    3833    3367    1010+
+           1411     612    1011    4856
CTETRA       882       1    2159    3788    3787    3795     953    4732+
+            382     578    4753    4752
CTETRA       883       1    2151    2158    2157    3789    3014    3013+
+           3012     584    1413    1414
CTETRA       884       1    2157    3789    2158    3797    1414    1413+
+           3013    1255    4758     433
CTETRA       885       1    2072    3694    3702    3703    1114    4497+
+            789    1415    4499    4498
CTETRA       886       1    2115    2122    2121    3750    2916    2915+
+           2914    1134     585    1135
CTETRA       887       1    2114    3742    2115    3750     540     539+
+           2896    1111    4629    1134
CTETRA       888       1    1990    1991    1997    3612    2560    2578+
+           2577    1416    1417    1418
CTETRA       889       1    1976    3588    3596    3597     459    4205+
+            461    1318    4207    4206
CTETRA       890       1    1977    3587    1978    3595     463     647+
+           2525     650    4202     648
CTETRA       891       1    1964    3570    3578    3579    1281    4155+
+           1280    1419    4157    4156
CTETRA       892       1    2071    3703    2078    3704    1420    1222+
+           2796    1188    4501    1221
CTETRA       893       1    2065    2066    2072    3694    2763    2781+
+           2780     813     407    1114
CTETRA       894       1    2065    3694    2072    3703     813    1114+
+           2780    1421    4499    1415
CTETRA       895       1    2065    2071    3695    3703    2778    1422+
+            615    1421    1420    4500
CTETRA       896       1    1954    3565    3573    3574     807    4142+
+           1154     804    4144    4143
CTETRA       897       1    1954    3565    1955    3573     807    1423+
+           2462    1154    4142    1424
CTETRA       898       1    5433    3680    2050    3688    1425     624+
+           3288     475    4459     958
CTETRA       899       1    5434    2043    2050    3680    3286    2720+
+           3287     758     623     624
CTETRA       900       1    1984    3595    1985    3603     651    1426+
+           2544    1427    4224    1274
CTETRA       901       1    1978    1985    1984    3595    2545    2544+
+           2543     648    1426     651
CTETRA       902       1    1948    3564    1955    3565    1283     993+
+           2463    1428    4118    1423
CTETRA       903       1    1984    1985    1991    3603    2544    2562+
+           2561    1427    1274    1275
CTETRA       904       1    2102    3725    3732    3733    1429    4580+
+            401     589    4582    4581
CTETRA       905       1    1935    1942    1941    3548    2428    2427+
+           2426      37    1430    1291
CTETRA       906       1    2095    3717    3716    3724     238    4537+
+           1431    1432    4558    4557
CTETRA       907       1    2087    3717    2094    3718     204     237+
+           2840     198    4539    1112
CTETRA       908       1    1941    3548    1942    3556    1291    1430+
+           2427    1433    4095     834
CTETRA       909       1    1943    3554    1950    3555     481     822+
+           2450    1307    4090    1289
CTETRA       910       1    1936    3546    1943    3547    1312     479+
+           2431     848    4068    1311
CTETRA       911       1    1943    3546    3554    3555     479    4089+
+            481    1307    4091    4090
CTETRA       912       1    1907    1908    1914    3515    2335    2353+
+           2352     294    1434     855
CTETRA       913       1    1898    1899    1905    3509    2310    2328+
+           2327     666     665      50
CTETRA       914       1    1893    1900    1899    3508    2314    2313+
+           2312    1305     663     738
CTETRA       915       1    1892    3492    3500    3501    1435    3941+
+            668     667    3943    3942
CTETRA       916       1    1892    1898    3501    3509    2309    1309+
+            667     664     666    3966
CTETRA       917       1    5275    1872    1871    3476    3464    2253+
+           3467     680     675     674
CTETRA       918       1    5276    5292    5291    3477    5237    5301+
+           5231     298    5215    5218
CTETRA       919       1    5276    1871    1870    3477    3466    2249+
+           3469     298     150     149
CTETRA       920       1    1871    1877    3477    3485    2248     151+
+            150    1436    1437    3896
CTETRA       921       1    5457    5352    5353    3496     861    5359+
+             93     862    5203    5204
CTETRA       922       1    1915    3523    3522    3531    1224    4002+
+            759     761    4026    4025
CTETRA       923       1    1909    3514    3513    3522    1438    3977+
+            437    1439    4001    4000
CTETRA       924       1    5322    5323    3729       3    5389    5054+
+           5055     886    1440     509
CTETRA       925       1    1904    3511    3510    3519    1441    3970+
+           1102    1442    3994    3993
CTETRA       926       1    5425    3737    5321    3745     889    5057+
+            118    1443    4614    5058
CTETRA       927       1    5439    5335    5334    3641     530    5377+
+            640     524    5032    5031
CTETRA       928       1    5336    3624    2001    3632    5171    1158+
+           1444    5170    4305    1363
CTETRA       929       1    1877    3485    1884    3494    1437    1029+
+           2270    1445    3924    1170
CTETRA       930       1    1884    1891    1890    3494    2289    2288+
+           2287    1170    1171    1168
CTETRA       931       1    2227    3869    2228    3877     266     276+
+           3203    1446    4978    1329
CTETRA       932       1    2227    3877    2234    3878    1446    1326+
+           3220    1447    4980     684
CTETRA       933       1    2227    3870    3877    3878    1448    4979+
+           1446    1447    4981    4980
CTETRA       934       1    1875    3480    3479    3488    1449    3909+
+           1450    1451    3908    3907
CTETRA       935       1    5458    5354    5459    3488    1317    1198+
+           5463      99    5206    1259
CTETRA       936       1    5427    5324    5323    3721    1452    5388+
+           1453    1454    5052    5053
CTETRA       937       1    2195    3827    3834    3835     567    4860+
+            569     977    4862    4861
CTETRA       938       1    5456    5351    1909    3505    1455    1456+
+           3450    1403    4997    1457
CTETRA       939       1    5456    5352    5351    3505    1402    5360+
+           1455    1403    4998    4997
CTETRA       940       1    2194    3828    3835    3836     566    4863+
+            976     570    4865    4864
CTETRA       941       1    5418    2168    3793    3801    3375     985+
+            878     922     980    4768
CTETRA       942       1    5418    5315    5314    3793     877    5397+
+            454     878    5070    5071
CTETRA       943       1    5416    3809    2182       9    1458      87+
+           3371    1459    1460    1461
CTETRA       944       1    5418    3800    2162    3808    1099     355+
+           3319     456    4789     713
CTETRA       945       1    2114    3743    3750    3751    1110    4630+
+           1111    1270    4632    4631
CTETRA       946       1    5421    3776    2141    3784     111    1358+
+           3313     101    4723     102
CTETRA       947       1    5425    2119    5426    3737    3389    3390+
+           5496     889    1374    1462
CTETRA       948       1    2089    3708    3707    3715     312    4512+
+           1056     750    4533    4532
CTETRA       949       1    5426    2099    2106    3736    3302    2872+
+           3303     352     368     340
CTETRA       950       1    2081    3708    2088    3709     748     311+
+           2824    1463    4515     203
CTETRA       951       1    2081    3701    3708    3709    1117    4514+
+            748    1463    4516    4515
CTETRA       952       1    5425    5322    2106    3744     888     350+
+           3304     363    5142     342
CTETRA       953       1    2112    3730    3737    3738    1372    4593+
+            840    1373    4595    4594
CTETRA       954       1    2222    3860    3867    3868    1464    4951+
+            898     153    4953    4952
CTETRA       955       1    5274    1873    1872    3475    3462    2257+
+           3465     678    1465     679
CTETRA       956       1    5275    5291    5290    3476    5229    5302+
+           5230     680    5217    5220
CTETRA       957       1    1872    1873    1879    3475    2257    2256+
+           2255     679    1465    1140
CTETRA       958       1    5259    2235    2236    3876    1233    3225+
+           1234    5098    1237    1236
CTETRA       959       1    5427    2099    5323    3728    3301     743+
+           1453    1466     366    5145
CTETRA       960       1    2222    3867    2229    3868     898     903+
+           3207     153    4952    1238
CTETRA       961       1    2215    2222    2221    3860    3188    3187+
+           3186     909    1464     910
CTETRA       962       1    2223    2230    2229    3867    3210    3209+
+           3208     899     556     903
CTETRA       963       1    2179    3813    3820    3821     177    4822+
+            670     918    4824    4823
CTETRA       964       1    2172    2179    2178    3813    3071    3070+
+           3069     176     177     338
CTETRA       965       1    2216    3858    2223    3859     156     138+
+           3191     159    4927     897
CTETRA       966       1    2129    2130    2136    3765    2937    2955+
+           2954     192     188     360
CTETRA       967       1    2136    3766    3765    3773     362    4672+
+            360    1351    4693    4692
CTETRA       968       1    2136    3773    2143    3774    1351     933+
+           2973     776    4694     781
CTETRA       969       1    2216    3851    3850    3858     158    4905+
+            155     156    4926    4925
CTETRA       970       1    2092    3727    2099    3728    1467     367+
+           2853    1468    4567     366
CTETRA       971       1    2207    3845    3852    3853    1469    4910+
+           1239    1470    4912    4911
CTETRA       972       1    2087    2094    2093    3718    2840    2839+
+           2838     198    1112     938
CTETRA       973       1    2214    3860    2221    3861     908     910+
+           3185    1471    4933    1472
CTETRA       974       1    2092    3719    3727    3728    1109    4566+
+           1467    1468    4568    4567
CTETRA       975       1    2186    2187    2193    3828    3092    3110+
+           3109     706     565     488
CTETRA       976       1    2064    3695    2071    3704     617    1422+
+           2777     618    4502    1188
CTETRA       977       1    2064    2065    2071    3695    2760    2778+
+           2777     617     615    1422
CTETRA       978       1    2171    3805    2172    3813    1250     928+
+           3051    1370    4802     176
CTETRA       979       1    2005    2006    2012    3627    2601    2619+
+           2618    1473    1066    1067
CTETRA       980       1    1999    2006    2005    3619    2602    2601+
+           2600      22    1333    1277
CTETRA       981       1    2193    3829    3836    3837     487    4866+
+            489    1247    4868    4867
CTETRA       982       1    2006    2007    2013    3626    2604    2622+
+           2621    1068     430     439
CTETRA       983       1    2180    3812    3819    3820    1332    4819+
+            913     671    4821    4820
CTETRA       984       1    2178    2179    2185    3821    3070    3088+
+           3087     339     918     465
CTETRA       985       1    2170    3806    2171    3814    1340    1369+
+           3048    1346    4805    1371
CTETRA       986       1    1962    1963    1969    3580    2484    2502+
+           2501    1474    1475    1316
CTETRA       987       1    1962    3572    1963    3580     990    1476+
+           2484    1474    4161    1475
CTETRA       988       1    1956    1963    1962    3572    2485    2484+
+           2483     995    1476     990
CTETRA       989       1    1920    3525    3524    3533    1022    4008+
+            283     322    4032    4031
CTETRA       990       1    2144    2151    2150    3781    2995    2994+
+           2993     576     577     582
CTETRA       991       1    1914    1921    1920    3532    2371    2370+
+           2369     279     262     261
CTETRA       992       1    1913    1920    1919    3525    2368    2367+
+           2366    1021    1022      47
CTETRA       993       1    2143    3781    2150    3782     929     582+
+           2992    1252    4716    1253
CTETRA       994       1    1877    3486    3485    3494     812    3898+
+           1437    1445    3925    3924
CTETRA       995       1    2142    3774    2143    3782     777     781+
+           2972    1477    4717    1252
CTETRA       996       1    1876    3478    3486    3487     962    3900+
+            811    1243    3903    3902
CTETRA       997       1    5424    5425    5321    3745    5497     118+
+            117     121    1443    5058
CTETRA       998       1    2128    2129    2135    3766    2934    2952+
+           2951     397     361    1478
CTETRA       999       1    5424    2126    5425    3745    3387    3388+
+           5497     121    1479    1443
CTETRA      1000       1    2136    3766    3773    3774     362    4693+
+           1351     776    4695    4694
CTETRA      1001       1    2126    3746    3753    3754    1480    4637+
+           1080    1082    4639    4638
CTETRA      1002       1    2108    3734    3733    3741     592    4584+
+            590    1048    4605    4604
CTETRA      1003       1    2099    3727    2100    3735     367     941+
+           2855    1481    4588    1041
CTETRA      1004       1    5425    5321    5322    3744     118    5390+
+            888     363    5141    5142
CTETRA      1005       1    5419    5420    2148    3792    5502    3315+
+           3316    1353    1105    1129
CTETRA      1006       1    2035    2041    3650    3658    2698    1482+
+           1210     270     271    4375
CTETRA      1007       1    2041    2047    3659    3667    2714    1483+
+           1484    1485     374    4400
CTETRA      1008       1    2148    3791    2155    3792     723    1486+
+           3005    1129    4744    1354
CTETRA      1009       1    5417    5314    3816       9     453    5125+
+           1487    1488    1489    1490
CTETRA      1010       1    2155    3792    3791    3799    1354    4744+
+           1486     457    4765    4764
CTETRA      1011       1    2041    3658    2048    3667     271      95+
+           2716    1485    4399     375
CTETRA      1012       1    2001    3623    2008    3632    1398    1491+
+           2606    1363    4304     537
CTETRA      1013       1    2118    3738    2119    3746    1492    1375+
+           2908    1493    4617    1494
CTETRA      1014       1    2005    3619    2006    3627    1277    1333+
+           2601    1473    4290    1066
CTETRA      1015       1    2012    3627    2013    3635    1067     438+
+           2620    1495    4312     440
CTETRA      1016       1    5419    5316    5315    3785    1355    5396+
+            876    1382    5068    5069
CTETRA      1017       1    1991    3603    1992    3611    1275     432+
+           2563    1496    4246      25
CTETRA      1018       1    2004    3620    3628    3629    1338    4293+
+           1225     222    4295    4294
CTETRA      1019       1    2212    3855    3854    3862    1497    4917+
+           1498    1499    4938    4937
CTETRA      1020       1    2211    3855    2212    3863    1180    1497+
+           3159    1500    4940    1501
CTETRA      1021       1    1991    3603    3611    3612    1275    4246+
+           1496    1417    4248    4247
CTETRA      1022       1    2204    3848    3855    3856    1502    4919+
+           1179    1503    4921    4920
CTETRA      1023       1    1975    1976    1982    3597    2519    2537+
+           2536    1323    1318    1504
CTETRA      1024       1    1984    3596    3595    3604    1505    4203+
+            651    1506    4227    4226
CTETRA      1025       1    2171    2172    2178    3813    3051    3069+
+           3068    1370     176     338
CTETRA      1026       1    2178    3814    3821    3822     337    4825+
+            339    1378    4827    4826
CTETRA      1027       1    2171    3813    2178    3814    1370     338+
+           3068    1371    4804     337
CTETRA      1028       1    1979    3593    1986    3594    1341     549+
+           2548     657    4197    1195
CTETRA      1029       1    5346    3544    1931    3552    5191     318+
+            533    5190    4085     532
CTETRA      1030       1    1950    3562    1957    3563     814     816+
+           2469     258    4112     259
CTETRA      1031       1    2139    3763    3770    3771    1507    4684+
+            571     573    4686    4685
CTETRA      1032       1    1957    3562    3570    3571     816    4133+
+           1120    1342    4135    4134
CTETRA      1033       1    2138    3764    3763    3771     937    4666+
+           1508    1388    4687    4686
CTETRA      1034       1    1948    1955    1954    3565    2463    2462+
+           2461    1428    1423     807
CTETRA      1035       1    2144    3772    2145    3780     932     931+
+           2978     575    4711     892
CTETRA      1036       1    1954    1955    1961    3573    2462    2480+
+           2479    1154    1424    1155
CTETRA      1037       1    2049    2055    3666    3674    2736    1509+
+            106      76      78    4419
CTETRA      1038       1    1921    3531    1928    3532     281    1200+
+           2390     262    4027     978
CTETRA      1039       1    2048    3658    3666    3667      95    4397+
+             98     375    4399    4398
CTETRA      1040       1    1919    3525    1920    3533      47    1022+
+           2367      48    4032     322
CTETRA      1041       1    1994    3615    1995    3624     127    1350+
+           2570    1142    4282    1157
CTETRA      1042       1    5416    5417    3816       9    5505    1487+
+           1510    1459    1488    1490
CTETRA      1043       1    1926    3533    1927    3541     324     323+
+           2386    1511    4054     494
CTETRA      1044       1    2002    3614    3622    3623    1512    4277+
+           1513    1514    4279    4278
CTETRA      1045       1    1919    1926    1925    3534    2384    2383+
+           2382      49     495    1515
CTETRA      1046       1    1905    3517    1912    3518      44      46+
+           2346      51    3989    1516
CTETRA      1047       1    1926    3541    1933    3542    1511    1294+
+           2403     496    4055    1517
CTETRA      1048       1    5451    1937    5347    3545    3441    1174+
+            836     837     485    5008
CTETRA      1049       1    1917    3527    3535    3536    1518    4038+
+            304     306    4040    4039
CTETRA      1050       1    1962    3572    3580    3581     990    4161+
+           1474     691    4163    4162
CTETRA      1051       1    1885    1892    1891    3501    2292    2291+
+           2290    1519     667    1308
CTETRA      1052       1    2182    3809       8       9      87    1213+
+           1212    1461    1460    1520
CTETRA      1053       1    1929    3538    1936    3539      39     737+
+           2412      40    4046     658
CTETRA      1054       1    5275    5276    5291    1871    5284    5231+
+           5229    3467    3466     297
CTETRA      1055       1    5517    1874    5288    3473    3461    1521+
+           5224     301     300    4990
CTETRA      1056       1    5452    5347    5348    3536    1173    5364+
+           1184    1522    5193    5194
CTETRA      1057       1    1931    3543    1932    3551     316    1523+
+           2399    1524    4082    1525
CTETRA      1058       1    5457    5353    5458    3496      93      92+
+           5464     862    5204     100
CTETRA      1059       1    5432    3689    5328    3697     707    5043+
+            770     773    4482    5046
CTETRA      1060       1    5430    5326    5327    3704    1526    5385+
+           1527    1273    5151    5152
CTETRA      1061       1    5457    3496    1889    3504     862    1528+
+           3241     863    3953     503
CTETRA      1062       1    1889    3496    3495    3504    1528    3929+
+            501     503    3953    3952
CTETRA      1063       1    2128    3766    2135    3767     397    1478+
+           2951     398    4675    1204
CTETRA      1064       1    5412    3848    2204    3856    1529    1502+
+           3331    1530    4921    1503
CTETRA      1065       1    2136    3765    2137    3773     360     189+
+           2956    1351    4692    1352
CTETRA      1066       1    5414    3832    2190       5     850     852+
+           3327     844    1020     391
CTETRA      1067       1    2063    3673    3681    3682    1531    4438+
+           1006    1532    4440    4439
CTETRA      1068       1    1986    1993    1992    3602    2567    2566+
+           2565    1197    1533      23
CTETRA      1069       1    1986    3593    3601    3602     549    4218+
+            550    1197    4220    4219
CTETRA      1070       1    1979    1986    1985    3594    2548    2547+
+           2546     657    1195     660
CTETRA      1071       1    5444    1993    1986    3601    3426    2567+
+           3427     553     431     550
CTETRA      1072       1    5445    1986    1979    3593    3428    2548+
+           3429     653     549    1341
CTETRA      1073       1    2199    2200    2206    3845    3127    3145+
+           3144    1534    1535    1536
CTETRA      1074       1    5434    5330    5329    3681     413    5382+
+            757    1537    5042    5041
CTETRA      1075       1    2200    3844    2207    3845    1408    1409+
+           3147    1535    4889    1469
CTETRA      1076       1    2201    2208    2207    3844    3150    3149+
+           3148    1241    1242    1409
CTETRA      1077       1    2193    2200    2199    3837    3128    3127+
+           3126    1247    1538    1539
CTETRA      1078       1    5433    3681    5329    3689     955    5041+
+           1051     709    4460    5044
CTETRA      1079       1    5433    5329    3680    3688    1051    5157+
+           1425     475    5156    4459
CTETRA      1080       1    2156    2157    2163    3798    3010    3028+
+           3027    1361    1256    1090
CTETRA      1081       1    2158    3789    3796    3797    1413    4756+
+            179     433    4758    4757
CTETRA      1082       1    2150    2157    2156    3790    3011    3010+
+           3009    1257    1540    1176
CTETRA      1083       1    2156    3790    2157    3798    1176    1540+
+           3010    1361    4761    1256
CTETRA      1084       1    2114    3750    2121    3751    1111    1135+
+           2913    1270    4631    1264
CTETRA      1085       1    2169    3808    3807    3815     714    4788+
+            712    1541    4809    4808
CTETRA      1086       1    2214    3853    3852    3860    1542    4911+
+            911     908    4932    4931
CTETRA      1087       1    2107    2114    2113    3743    2894    2893+
+           2892     542    1110     369
CTETRA      1088       1    2107    3734    2108    3742     605     592+
+           2877     745    4607     538
CTETRA      1089       1    5259    5260    2235    3877    5267    1543+
+           1233    5099    5100    1330
CTETRA      1090       1    2162    3800    3807    3808     355    4787+
+            354     713    4789    4788
CTETRA      1091       1    5432    5433    5329    3689    5489    1051+
+           1050     707     709    5044
CTETRA      1092       1    5417    2182       8       9    3372    1212+
+            935    1488    1461    1520
CTETRA      1093       1    2063    2069    3682    3690    2774    1391+
+           1532    1007    1392    4463
CTETRA      1094       1    2063    2070    2069    3690    2776    2775+
+           2774    1007    1008    1392
CTETRA      1095       1    2198    3846    2205    3847    1544    1545+
+           3141     974    4895    1060
CTETRA      1096       1    2027    2034    2033    3651    2678    2677+
+           2676     764     767     419
CTETRA      1097       1    2027    3642    3650    3651     646    4353+
+            765     764    4355    4354
CTETRA      1098       1    2020    3642    2027    3643     644     646+
+           2659     769    4332     763
CTETRA      1099       1    2028    3642    3641    3650     649    4329+
+            525    1209    4353    4352
CTETRA      1100       1    1983    1984    1990    3604    2541    2559+
+           2558    1546    1506    1547
CTETRA      1101       1    2218    3871    2225    3872     523    1268+
+           3195    1548    4964    1267
CTETRA      1102       1    1983    3596    1984    3604    1549    1505+
+           2541    1546    4227    1506
CTETRA      1103       1    1985    3602    1992    3603    1196      23+
+           2564    1274    4222     432
CTETRA      1104       1    1942    3548    3547    3556    1430    4071+
+            832     834    4095    4094
CTETRA      1105       1    1934    1941    1940    3549    2425    2424+
+           2423    1292    1293    1550
CTETRA      1106       1    1940    1941    1947    3557    2424    2442+
+           2441    1551    1552     808
CTETRA      1107       1    1940    3549    1941    3557    1550    1293+
+           2424    1551    4098    1552
CTETRA      1108       1    2211    2212    2218    3863    3159    3177+
+           3176    1500    1501     522
CTETRA      1109       1    1897    1898    1904    3510    2307    2325+
+           2324    1553    1100    1102
CTETRA      1110       1    5417    3808    2169    3816     455     714+
+           3321    1487    4811    1554
CTETRA      1111       1    1891    1892    1898    3501    2291    2309+
+           2308    1308     667    1309
CTETRA      1112       1    1898    3502    3501    3510    1310    3945+
+           1309    1100    3969    3968
CTETRA      1113       1    1891    1898    1897    3502    2308    2307+
+           2306    1172    1310    1315
CTETRA      1114       1    2179    3820    2186    3821     670     672+
+           3090     918    4823     710
CTETRA      1115       1    2187    2188    2194    3827    3095    3113+
+           3112     563     991     564
CTETRA      1116       1    1877    3477    3485    3486     151    3896+
+           1437     812    3899    3898
CTETRA      1117       1    1870    3478    3477    3486     963    3901+
+            149     964    3900    3899
CTETRA      1118       1    5276    5277    5292    1870    5285    5239+
+           5237    3469    3468    1555
CTETRA      1119       1    5347    1937    3537    3545    1174     483+
+           5005    5008     485    4064
CTETRA      1120       1    5277    5292    1870    3478    5239    1555+
+           3468    1556    5216     963
CTETRA      1121       1    2164    3798    3797    3805    1094    4760+
+           1251    1095    4781    4780
CTETRA      1122       1    5277    1870    1869    3478    3468    2245+
+           3471    1556     963    1557
CTETRA      1123       1    5459    5354    5355    3480    1198    5357+
+           1321    1258    5207    5208
CTETRA      1124       1    2157    2164    2163    3798    3030    3029+
+           3028    1256    1094    1090
CTETRA      1125       1    2186    3828    2193    3829     706     488+
+           3109     711    4845     487
CTETRA      1126       1    2208    3844    3843    3851    1242    4886+
+           1240     497    4907    4906
CTETRA      1127       1    5459    5460    5355    3481    5462    1319+
+           1321      89    1320    4992
CTETRA      1128       1    5317    3792    3784       1    5131    4745+
+           5132     108    1108     104
CTETRA      1129       1    2155    3792    3799    3800    1354    4765+
+            457     458    4767    4766
CTETRA      1130       1    5417       8    5314       9     935    1558+
+            453    1488    1520    1489
CTETRA      1131       1    5427    2105    3721    3729    3393     998+
+           1454     508     999    4570
CTETRA      1132       1    2208    3843    2209    3851    1240     332+
+           3152     497    4906     493
CTETRA      1133       1    2138    3764    3771    3772     937    4687+
+           1388     930    4689    4688
CTETRA      1134       1    5444    5339    5340    3600     895    5372+
+            552    1360    5177    5178
CTETRA      1135       1    5430    2084    5327    3705    3399    1559+
+           1527     490     492    5048
CTETRA      1136       1    5444    5340    5339    3601     552    5372+
+            895     553    5022    5021
CTETRA      1137       1    5338    2000    3609    3617     442      17+
+           5023    5026     130    4262
CTETRA      1138       1    5442    5338    1987    3616     449     335+
+           3270     912    5174     336
CTETRA      1139       1    2228    3868    2229    3876     154    1238+
+           3206    1560    4975    1235
CTETRA      1140       1    2108    3733    2109    3741     590     847+
+           2880    1048    4604    1049
CTETRA      1141       1    2228    3869    3876    3877     276    4976+
+           1560    1329    4978    4977
CTETRA      1142       1    2100    3726    3734    3735     345    4585+
+            604    1041    4587    4586
CTETRA      1143       1    2228    3869    3868    3876     276    4955+
+            154    1560    4976    4975
CTETRA      1144       1    2092    2093    2099    3727    2836    2854+
+           2853    1467     940     367
CTETRA      1145       1    2195    3826    2196    3834     568    1009+
+           3117     569    4859    1047
CTETRA      1146       1    2053    3676    2060    3685    1561    1562+
+           2748    1563    4449    1564
CTETRA      1147       1    2203    3834    3841    3842     703    4879+
+            705    1045    4881    4880
CTETRA      1148       1    2056    2063    2062    3682    2757    2756+
+           2755      85    1532      67
CTETRA      1149       1    2156    3791    3798    3799    1178    4762+
+           1361    1362    4764    4763
CTETRA      1150       1    2148    2149    2155    3791    2988    3006+
+           3005     723    1177    1486
CTETRA      1151       1    2148    3784    3791    3792     721    4743+
+            723    1129    4745    4744
CTETRA      1152       1    2141    3784    2148       1     102     721+
+           2986     105     104    1130
CTETRA      1153       1    1943    3545    1944    3554     480     486+
+           2433     481    4088     838
CTETRA      1154       1    5429    5430    5326    2091    5492    1526+
+           1565    3397    3398    1380
CTETRA      1155       1    2020    3634    3642    3643     637    4331+
+            644     769    4333    4332
CTETRA      1156       1    2011    3628    3636    3637    1227    4315+
+           1404    1399    4317    4316
CTETRA      1157       1    1990    3604    3612    3613    1547    4249+
+           1416    1566    4251    4250
CTETRA      1158       1    1971    3578    3586    3587    1125    4177+
+            654     655    4179    4178
CTETRA      1159       1    2084    3697    3705    3706    1160    4504+
+            492    1567    4506    4505
CTETRA      1160       1    2123    3749    3748    3756     733    4625+
+           1261     193    4646    4645
CTETRA      1161       1    1951    3561    1958    3562     865     267+
+           2472     815    4109    1119
CTETRA      1162       1    1958    3562    3561    3570    1119    4109+
+            267     269    4133    4132
CTETRA      1163       1    1968    3581    3589    3590     692    4186+
+           1568    1569    4188    4187
CTETRA      1164       1    1931    3543    3551    3552     316    4082+
+           1524     532    4084    4083
CTETRA      1165       1    1931    3551    1938    3552    1524    1570+
+           2416     532    4083     319
CTETRA      1166       1    1957    1958    1964    3570    2471    2489+
+           2488    1120     269    1281
CTETRA      1167       1    1943    1944    1950    3554    2433    2451+
+           2450     481     838     822
CTETRA      1168       1    2059    2066    2065    3694    2764    2763+
+           2762     406     407     813
CTETRA      1169       1    2065    3686    3694    3695     613    4475+
+            813     615    4477    4476
CTETRA      1170       1    2059    3686    3685    3694     409    4451+
+            404     406    4475    4474
CTETRA      1171       1    1901    3507    3506    3515     292    3958+
+            873     293    3982    3981
CTETRA      1172       1    1877    1884    1883    3494    2270    2269+
+           2268    1445    1170     506
CTETRA      1173       1    1898    3501    3509    3510    1309    3966+
+            666    1100    3968    3967
CTETRA      1174       1    5455    5350    5351    3512    1215    5361+
+           1571    1572    5199    5200
CTETRA      1175       1    2019    2025    3636    3644    2654    1573+
+           1574    1138      42    4337
CTETRA      1176       1    5437    2035    5438    3649    3413    3414+
+           5484    1232    1208    1070
CTETRA      1177       1    2025    3636    3644    3645    1573    4337+
+             42      41    4339    4338
CTETRA      1178       1    5437    2042    2035    3649    3412    2700+
+           3413    1232    1575    1208
CTETRA      1179       1    5437    2042    3649    3657    3412    1575+
+           1232    1576    1577    4372
CTETRA      1180       1    2002    2008    3623    3631    2607    1491+
+           1514    1578    1143    4302
CTETRA      1181       1    5436    3656    2029    3664     634     631+
+           3282     411    4393     633
CTETRA      1182       1    1993    3602    3601    3610    1533    4219+
+            431      18    4243    4242
CTETRA      1183       1    2035    3650    3649    3658    1210    4351+
+           1208     270    4375    4374
CTETRA      1184       1    5436    5437    5332    3657    5485    1579+
+           1580    1581    1576    5035
CTETRA      1185       1    2111    2118    2117    3739    2906    2905+
+           2904    1303    1582    1583
CTETRA      1186       1    5425    2106    2113    3744    3304    2891+
+           3305     363     342     364
CTETRA      1187       1    5427    2092    2099    3728    3300    2853+
+           3301    1466    1468     366
CTETRA      1188       1    5444    5339    1993    3601     895     242+
+           3426     553    5021     431
CTETRA      1189       1    5443    5444    5339    1993    5478     895+
+            243    3425    3426     242
CTETRA      1190       1    1992    3602    1993    3610      23    1533+
+           2566      24    4243      18
CTETRA      1191       1    1986    3601    1993    3602     550     431+
+           2567    1197    4219    1533
CTETRA      1192       1    5426    5323    5427    2099     742    1453+
+           5495    3302     743    3301
CTETRA      1193       1    2210    3849    3841       7     145    4900+
+            551     950     600     949
CTETRA      1194       1    1945    3559    1946    3567     478    1584+
+           2437    1585    4126    1153
CTETRA      1195       1    2199    3837    2200    3845    1539    1538+
+           3127    1534    4890    1535
CTETRA      1196       1    1938    3551    1939    3559    1570    1586+
+           2418     476    4104     477
CTETRA      1197       1    2206    3845    2207    3853    1536    1469+
+           3146    1587    4912    1470
CTETRA      1198       1    1912    3517    1913    3525      46    1297+
+           2348    1588    4010    1021
CTETRA      1199       1    2176    2177    2183    3823    3064    3082+
+           3081    1589    1590     328
CTETRA      1200       1    2184    3830    2191    3831    1088     326+
+           3103     331    4851     325
CTETRA      1201       1    1912    3518    3517    3526    1516    3989+
+             46    1591    4013    4012
CTETRA      1202       1    2185    3822    3829    3830     464    4847+
+            466    1592    4849    4848
CTETRA      1203       1    2191    2192    2198    3838    3105    3123+
+           3122     327    1593    1594
CTETRA      1204       1    2165    3797    3804    3805     434    4778+
+            926     927    4780    4779
CTETRA      1205       1    2163    3806    2170    3807     347    1340+
+           3046     348    4785    1345
CTETRA      1206       1    5273    1874    1873    3474    3460    2261+
+           3463    1595    1596    1597
CTETRA      1207       1    5274    5275    5290    1872    5283    5230+
+           5232    3465    3464     677
CTETRA      1208       1    5274    5289    1873    3475    5228    1598+
+           3462     678    5222    1465
CTETRA      1209       1    1873    1874    1880    3474    2261    2260+
+           2259    1597    1596    1599
CTETRA      1210       1    2222    2223    2229    3867    3190    3208+
+           3207     898     899     903
CTETRA      1211       1    2215    2216    2222    3859    3171    3189+
+           3188     696     159     896
CTETRA      1212       1    2171    2178    2177    3814    3068    3067+
+           3066    1371     337    1376
CTETRA      1213       1    2164    2171    2170    3806    3049    3048+
+           3047    1096    1369    1340
CTETRA      1214       1    2221    3868    2228    3869     152     154+
+           3204     265    4955     276
CTETRA      1215       1    2221    3860    2222    3868     910    1464+
+           3187     152    4953     153
CTETRA      1216       1    2214    2221    2220    3861    3185    3184+
+           3183    1471    1472    1331
CTETRA      1217       1    2220    3861    2221    3869    1331    1472+
+           3184     264    4956     265
CTETRA      1218       1    2171    3806    3805    3813    1369    4782+
+           1250    1370    4803    4802
CTETRA      1219       1    2142    2149    2148    3783    2989    2988+
+           2987    1600    1249     722
CTETRA      1220       1    2001    2002    2008    3623    2589    2607+
+           2606    1398    1514    1491
CTETRA      1221       1    2120    2121    2127    3759    2912    2930+
+           2929    1601     372    1012
CTETRA      1222       1    2170    2171    2177    3814    3048    3066+
+           3065    1346    1371    1376
CTETRA      1223       1    2177    3815    3814    3822    1602    4807+
+           1376    1377    4828    4827
CTETRA      1224       1    2177    2178    2184    3822    3067    3085+
+           3084    1377    1378    1087
CTETRA      1225       1    2179    3813    3812    3820     177    4801+
+            175     670    4822    4821
CTETRA      1226       1    2114    2121    2120    3751    2913    2912+
+           2911    1270    1264    1603
CTETRA      1227       1    2122    3750    3757    3758     585    4649+
+            587     387    4651    4650
CTETRA      1228       1    2115    3742    3749    3750     539    4627+
+            594    1134    4629    4628
CTETRA      1229       1    2134    2135    2141    3775    2950    2968+
+           2967    1205    1206    1604
CTETRA      1230       1    1996    2002    3614    3622    2591    1512+
+           1605    1606    1513    4277
CTETRA      1231       1    2128    2135    2134    3767    2951    2950+
+           2949     398    1204    1203
CTETRA      1232       1    2127    3767    2134    3768    1013    1203+
+           2948    1607    4678    1608
CTETRA      1233       1    2084    3705    2091    3714     492     491+
+           2833    1219    4528    1220
CTETRA      1234       1    5423    3760    2127    3768     881     883+
+           3309    1288    4679    1607
CTETRA      1235       1    2175    3809    3801       8    1211    4790+
+            921     924    1213     925
CTETRA      1236       1    2084    2090    3706    3714    2831    1609+
+           1567    1219    1054    4529
CTETRA      1237       1    5429    2091    5326    3713    3397    1380+
+           1565    1383    1381    5050
CTETRA      1238       1    2048    3666    2055    3675      98    1509+
+           2735    1610    4421    1039
CTETRA      1239       1    2041    2048    2047    3667    2716    2715+
+           2714    1485     375     374
CTETRA      1240       1    2049    3666    3665    3674     106    4395+
+           1611      76    4419    4418
CTETRA      1241       1    2041    2042    2048    3658    2699    2717+
+           2716     271      96      95
CTETRA      1242       1    2135    3767    3774    3775    1204    4696+
+            775    1206    4698    4697
CTETRA      1243       1    2006    3618    3626    3627     125    4287+
+           1068    1066    4289    4288
CTETRA      1244       1    2004    3620    2005    3628    1338    1279+
+           2598    1225    4293    1226
CTETRA      1245       1    1998    2005    2004    3620    2599    2598+
+           2597    1278    1279    1338
CTETRA      1246       1    2127    3760    3767    3768     883    4677+
+           1013    1607    4679    4678
CTETRA      1247       1    2133    2140    2139    3762    2966    2965+
+           2964     628    1086     629
CTETRA      1248       1    2005    3627    2012    3628    1473    1067+
+           2618    1226    4291    1612
CTETRA      1249       1    1957    3570    1964    3571    1120    1281+
+           2488    1342    4134    1343
CTETRA      1250       1    1964    3578    1971    3579    1280    1125+
+           2507    1419    4156    1613
CTETRA      1251       1    1963    1964    1970    3579    2487    2505+
+           2504    1614    1419    1615
CTETRA      1252       1    1964    1971    1970    3579    2507    2506+
+           2505    1419    1613    1615
CTETRA      1253       1    1963    1970    1969    3580    2504    2503+
+           2502    1475    1616    1316
CTETRA      1254       1    5424    2126    3745    3753    3387    1479+
+            121     123    1080    4636
CTETRA      1255       1    1962    3580    1969    3581    1474    1316+
+           2501     691    4162     695
CTETRA      1256       1    1955    1962    1961    3573    2482    2481+
+           2480    1424     989    1155
CTETRA      1257       1    2113    2114    2120    3751    2893    2911+
+           2910    1103    1270    1603
CTETRA      1258       1    2098    3721    2105    3722    1368     998+
+           2871    1000    4550     997
CTETRA      1259       1    1918    1919    1925    3534    2364    2382+
+           2381    1617      49    1515
CTETRA      1260       1    1919    3526    3525    3534    1618    4011+
+             47      49    4035    4034
CTETRA      1261       1    1912    1913    1919    3525    2348    2366+
+           2365    1588    1021      47
CTETRA      1262       1    1918    3526    1919    3534    1619    1618+
+           2364    1617    4035      49
CTETRA      1263       1    1869    3478    1876    3487    1557     962+
+           2243    1620    3903    1243
CTETRA      1264       1    1869    1870    1876    3478    2245    2244+
+           2243    1557     963     962
CTETRA      1265       1    1875    3488    3487    3496    1451    3906+
+           1621    1182    3931    3930
CTETRA      1266       1    1869    1876    1875    3487    2243    2242+
+           2240    1620    1243    1621
CTETRA      1267       1    5451    5347    1924    3544     836    1622+
+           3252     945    5192     317
CTETRA      1268       1    5427    3721    5323    3729    1454    5053+
+           1453     508    4570    5054
CTETRA      1269       1    2090    2091    2097    3714    2832    2850+
+           2849    1054    1220     751
CTETRA      1270       1    5276    1870    5292    3477    3469    1555+
+           5237     298     149    5215
CTETRA      1271       1    2097    2098    2104    3722    2851    2869+
+           2868     752    1000    1001
CTETRA      1272       1    2070    2076    3690    3698    2793    1623+
+           1008    1624    1625    4485
CTETRA      1273       1    2076    2077    2083    3698    2794    2812+
+           2811    1625    1626    1627
CTETRA      1274       1    5278    5293    1869    3479    5240    1628+
+           3470    1629    5214    1630
CTETRA      1275       1    2070    2077    2076    3698    2795    2794+
+           2793    1624    1626    1625
CTETRA      1276       1    5278    5294    5293    3479    5236    5299+
+           5240    1629    5211    5214
CTETRA      1277       1    2061    2062    2068    3683    2753    2771+
+           2770    1115      66    1631
CTETRA      1278       1    2062    2063    2069    3682    2756    2774+
+           2773      67    1532    1391
CTETRA      1279       1    2027    3642    2028    3650     646     649+
+           2661     765    4353    1209
CTETRA      1280       1    2048    2049    2055    3666    2718    2736+
+           2735      98     106    1509
CTETRA      1281       1    2063    3682    3681    3690    1532    4439+
+           1006    1007    4463    4462
CTETRA      1282       1    5420    5316    5317    3792     884    5395+
+           1106    1105    5130    5131
CTETRA      1283       1    5316    5317    3777       6    5395    5066+
+           5067     885    1632     517
CTETRA      1284       1    5422    3761    5318    3769     115    5063+
+            110    1633    4680    5064
CTETRA      1285       1    2041    3659    3658    3667    1484    4376+
+            271    1485    4400    4399
CTETRA      1286       1    2018    2019    2025    3636    2636    2654+
+           2653    1405    1574    1573
CTETRA      1287       1    2012    2019    2018    3636    2637    2636+
+           2635    1634    1574    1405
CTETRA      1288       1    1991    3604    3603    3612    1635    4225+
+           1275    1417    4249    4248
CTETRA      1289       1    5423    5320    3760    3768    1287    5138+
+            881    1288    5137    4679
CTETRA      1290       1    1998    3612    3611    3620    1636    4247+
+            969    1278    4271    4270
CTETRA      1291       1    5426    5322    5323    3736     351    5389+
+            742     352    5143    5144
CTETRA      1292       1    5423    5320    5319    3753    1287    5392+
+            113    1248    5060    5061
CTETRA      1293       1    2213    3854    3853    3861    1637    4914+
+           1638    1639    4935    4934
CTETRA      1294       1    2206    3853    2213    3854    1587    1638+
+           3163    1640    4914    1637
CTETRA      1295       1    2205    3846    2206    3854    1545    1641+
+           3143    1061    4915    1640
CTETRA      1296       1    1988    1995    1994    3615    2571    2570+
+           2569     126    1350     127
CTETRA      1297       1    2212    3855    3862    3863    1497    4938+
+           1499    1501    4940    4939
CTETRA      1298       1    2205    3854    2212    3855    1061    1498+
+           3160    1062    4917    1497
CTETRA      1299       1    1984    1991    1990    3604    2561    2560+
+           2559    1506    1635    1547
CTETRA      1300       1    2172    3805    3812    3813     928    4800+
+            173     176    4802    4801
CTETRA      1301       1    2002    3623    3622    3631    1514    4278+
+           1513    1578    4302    4301
CTETRA      1302       1    1985    3595    3594    3603    1426    4200+
+            660    1274    4224    4223
CTETRA      1303       1    1983    3597    3596    3605    1642    4206+
+           1549     200    4230    4229
CTETRA      1304       1    2145    3771    2146    3779    1389     574+
+           2981     891    4708    1035
CTETRA      1305       1    2139    3762    2140    3770     629    1086+
+           2965     571    4683    1187
CTETRA      1306       1    1969    1976    1975    3589    2520    2519+
+           2518     800     801      27
CTETRA      1307       1    1969    3581    3580    3589     695    4162+
+           1316     800    4186    4185
CTETRA      1308       1    2083    3706    2090    3707    1643    1609+
+           2830    1644    4508    1053
CTETRA      1309       1    2083    2090    2089    3707    2830    2829+
+           2828    1644    1053    1056
CTETRA      1310       1    2082    3707    2089    3708    1645    1056+
+           2827     749    4512     312
CTETRA      1311       1    2082    3700    3707    3708     747    4511+
+           1645     749    4513    4512
CTETRA      1312       1    1949    1956    1955    3564    2466    2465+
+           2464     821     992     993
CTETRA      1313       1    1949    3556    3555    3564    1284    4093+
+            819     821    4117    4116
CTETRA      1314       1    1995    3614    2002    3623    1349    1512+
+           2590    1397    4279    1514
CTETRA      1315       1    1995    1996    2002    3614    2573    2591+
+           2590    1349    1605    1512
CTETRA      1316       1    1941    3556    1948    3557    1433    1285+
+           2444    1552    4096    1646
CTETRA      1317       1    2003    3613    3621    3622    1647    4274+
+           1648    1649    4276    4275
CTETRA      1318       1    1955    3565    3564    3573    1423    4118+
+            993    1424    4142    4141
CTETRA      1319       1    1948    3557    3556    3565    1646    4096+
+           1285    1428    4120    4119
CTETRA      1320       1    1963    3571    3579    3580    1344    4158+
+           1614    1475    4160    4159
CTETRA      1321       1    1942    1943    1949    3555    2430    2448+
+           2447     833    1307     819
CTETRA      1322       1    1933    1934    1940    3549    2405    2423+
+           2422    1295    1292    1550
CTETRA      1323       1    5344    3560    1945    3568    5187    1650+
+           1651    5186    4129    1652
CTETRA      1324       1    1926    3533    3541    3542     324    4054+
+           1511     496    4056    4055
CTETRA      1325       1    1936    3538    3546    3547     737    4067+
+           1312     848    4069    4068
CTETRA      1326       1    1930    1937    1936    3537    2415    2414+
+           2413     484     483     735
CTETRA      1327       1    1933    3542    3541    3550    1517    4055+
+           1294    1653    4079    4078
CTETRA      1328       1    1929    3529    1930    3538    1324     854+
+           2395      39    4044     736
CTETRA      1329       1    1929    3531    3530    3539    1654    4024+
+             38      40    4048    4047
CTETRA      1330       1    1882    3495    1889    3496    1163     501+
+           2283    1164    3929    1528
CTETRA      1331       1    5345    1951    3553    3561     831     451+
+           5009    5012     865    4108
CTETRA      1332       1    1889    3495    1890    3503     501    1167+
+           2285     502    3950    1169
CTETRA      1333       1    1899    3508    1906    3517     738     739+
+           2330    1655    3987      45
CTETRA      1334       1    1883    3494    1890    3495     506    1168+
+           2286     507    3926    1167
CTETRA      1335       1    1898    3509    1905    3510     666      50+
+           2327    1100    3967    1101
CTETRA      1336       1    1900    3508    3507    3516     663    3961+
+            321     740    3985    3984
CTETRA      1337       1    1904    3510    1905    3518    1102    1101+
+           2326    1656    3991      51
CTETRA      1338       1    1878    3485    3484    3493    1030    3894+
+           1026    1031    3922    3921
CTETRA      1339       1    1885    1886    1892    3492    2275    2293+
+           2292    1657      71    1435
CTETRA      1340       1    1883    3487    3486    3495    1244    3902+
+            505     507    3928    3927
CTETRA      1341       1    2198    2199    2205    3846    3124    3142+
+           3141    1544    1658    1545
CTETRA      1342       1    2199    3838    3845    3846    1659    4891+
+           1534    1658    4893    4892
CTETRA      1343       1    2200    2207    2206    3845    3147    3146+
+           3145    1535    1469    1536
CTETRA      1344       1    2192    2199    2198    3838    3125    3124+
+           3123    1593    1659    1594
CTETRA      1345       1    2155    3791    2156    3799    1486    1178+
+           3007     457    4764    1362
CTETRA      1346       1    2157    3790    3797    3798    1540    4759+
+           1255    1256    4761    4760
CTETRA      1347       1    2155    2156    2162    3799    3007    3025+
+           3024     457    1362     353
CTETRA      1348       1    1883    1890    1889    3495    2286    2285+
+           2284     507    1167     501
CTETRA      1349       1    2010    3621    3629    3630     220    4296+
+            223     785    4298    4297
CTETRA      1350       1    2111    2112    2118    3738    2889    2907+
+           2906    1302    1373    1492
CTETRA      1351       1    2105    2112    2111    3730    2890    2889+
+           2888    1002    1372    1150
CTETRA      1352       1    5244    5259    5260    2235    1858    5267+
+           1859    3347    1233    1543
CTETRA      1353       1    2062    2069    2068    3691    2773    2772+
+           2771      68    1393    1660
CTETRA      1354       1    2228    3876    2235    3877    1560    1237+
+           3223    1329    4977    1330
CTETRA      1355       1    2056    2062    3674    3682    2755    1036+
+             77      85      67    4441
CTETRA      1356       1    1997    3612    3620    3621    1418    4271+
+           1337    1661    4273    4272
CTETRA      1357       1    1978    3594    1985    3595     659     660+
+           2545     648    4200    1426
CTETRA      1358       1    1984    3603    1991    3604    1427    1275+
+           2561    1506    4225    1635
CTETRA      1359       1    5449    1938    1945    3560    3256    2435+
+           3257     162     163    1650
CTETRA      1360       1    2229    3868    3875    3876    1238    4973+
+            904    1235    4975    4974
CTETRA      1361       1    5408    5305    5516    3873    1064    5407+
+           1662    1065    5090    5091
CTETRA      1362       1    1976    1983    1982    3597    2539    2538+
+           2537    1318    1642    1504
CTETRA      1363       1    2231    2238    2237    3874    3232    3231+
+           3230     143     559     144
CTETRA      1364       1    2231    3873    2238    3874     562     558+
+           3232     143    4968     559
CTETRA      1365       1    1982    3597    1983    3605    1504    1642+
+           2538     199    4230     200
CTETRA      1366       1    5460    5355    5295    3480    1319    5210+
+           1663    1322    5208    5209
CTETRA      1367       1    1873    3475    3474    3483    1465    3889+
+           1597    1664    3888    3887
CTETRA      1368       1    5449    5344    5345    3560    1201    5367+
+            160     162    5187    5188
CTETRA      1369       1    2038    2045    2044    3670    2707    2706+
+           2705    1074    1665     216
CTETRA      1370       1    1939    1940    1946    3558    2421    2439+
+           2438    1666    1667    1151
CTETRA      1371       1    1933    1940    1939    3550    2422    2421+
+           2420    1653    1668    1669
CTETRA      1372       1    1941    3549    3548    3557    1293    4074+
+           1291    1552    4098    4097
CTETRA      1373       1    1940    3550    3549    3558    1668    4077+
+           1550    1667    4101    4100
CTETRA      1374       1    5449    5345    5344    3561     160    5367+
+           1201     864    5012    5011
CTETRA      1375       1    1896    1897    1903    3511    2304    2322+
+           2321      55    1670      56
CTETRA      1376       1    5450    5346    5345    3553     378    5366+
+            178     450    5010    5009
CTETRA      1377       1    1890    3502    1897    3503    1314    1315+
+           2305    1169    3948    1671
CTETRA      1378       1    1897    3502    1898    3510    1315    1310+
+           2307    1553    3969    1100
CTETRA      1379       1    2044    2045    2051    3670    2706    2724+
+           2723     216    1665     217
CTETRA      1380       1    1890    1897    1896    3503    2305    2304+
+           2303    1169    1671     504
CTETRA      1381       1    5415    3824    2183    3832    1672    1673+
+           3325     853    4855     851
CTETRA      1382       1    1875    3479    3487    3488    1450    3904+
+           1621    1451    3907    3906
CTETRA      1383       1    5278    1869    1868    3479    3470    2241+
+           3472    1629    1630    1674
CTETRA      1384       1    2052    3669    3677    3678    1675    4428+
+           1676     228    4430    4429
CTETRA      1385       1    5414    3825    5310    3833    1411    5079+
+            609     612    4856    5080
CTETRA      1386       1    5415    2196    2189    3825    3368    3118+
+           3369    1412    1010    1677
CTETRA      1387       1    5277    1869    5293    3478    3471    1628+
+           5238    1556    1557    5213
CTETRA      1388       1    5415    3817    5311    3825    1678    5077+
+           1679    1412    4834    5078
CTETRA      1389       1    2046    2052    3669    3677    2727    1675+
+            428    1680    1676    4428
CTETRA      1390       1    5452    1924    5347    3536    3251    1622+
+           1173    1522     307    5193
CTETRA      1391       1    2230    3867    3874    3875     556    4970+
+            142     905    4972    4971
CTETRA      1392       1    5448    5344    5449    1945    1214    1201+
+           5473    3258    1651    3257
CTETRA      1393       1    5453    5348    3528    3536    1183    5195+
+             64    1681    5194    4041
CTETRA      1394       1    2229    2230    2236    3875    3209    3227+
+           3226     904     905     289
CTETRA      1395       1    5258    5259    2236    3876    5271    1234+
+            287    5097    5098    1236
CTETRA      1396       1    2229    3875    2236    3876     904     289+
+           3226    1235    4974    1236
CTETRA      1397       1    2212    3862    2219    3863    1499     686+
+           3179    1501    4939     527
CTETRA      1398       1    2151    3788    2158    3789     358     417+
+           3014     584    4735    1413
CTETRA      1399       1    2157    3790    3789    3797    1540    4738+
+           1414    1255    4759    4758
CTETRA      1400       1    2221    3861    3868    3869    1472    4954+
+            152     265    4956    4955
CTETRA      1401       1    2156    3791    3790    3798    1178    4741+
+           1176    1361    4762    4761
CTETRA      1402       1    2228    2229    2235    3876    3206    3224+
+           3223    1560    1235    1237
CTETRA      1403       1    2198    2205    2204    3847    3141    3140+
+           3139     974    1060     975
CTETRA      1404       1    2081    2088    2087    3709    2824    2823+
+           2822    1463     203     197
CTETRA      1405       1    2140    3762    3761    3769    1086    4660+
+           1084    1186    4681    4680
CTETRA      1406       1    2196    3833    2203    3834    1011     704+
+           3137    1047    4858     703
CTETRA      1407       1    5421    2147    5422    3769    3381    3382+
+           5500    1286    1166    1633
CTETRA      1408       1    5419    2161    3785    3793    3377     880+
+           1382     879     731    4746
CTETRA      1409       1    5421    3769    5317    3777    1286    5065+
+            107     514    4702    5066
CTETRA      1410       1    2116    3741    3748    3749    1093    4624+
+           1260     730    4626    4625
CTETRA      1411       1    2123    3748    2124    3756    1261    1682+
+           2921     193    4645     184
CTETRA      1412       1    2081    2082    2088    3708    2807    2825+
+           2824     748     749     311
CTETRA      1413       1    2088    3709    3716    3717     203    4536+
+            313     205    4538    4537
CTETRA      1414       1    2164    3805    2171    3806    1095    1250+
+           3049    1096    4782    1369
CTETRA      1415       1    2088    3716    2095    3717     313    1431+
+           2843     205    4537     238
CTETRA      1416       1    2141    3775    2142    3783    1604    1683+
+           2969    1359    4720    1600
CTETRA      1417       1    2141    3783    2148    3784    1359     722+
+           2986     102    4722     721
CTETRA      1418       1    2082    2083    2089    3707    2810    2828+
+           2827    1645    1644    1056
CTETRA      1419       1    2123    2124    2130    3756    2921    2939+
+           2938     193     184     194
CTETRA      1420       1    2124    3748    3755    3756    1682    4643+
+            182     184    4645    4644
CTETRA      1421       1    2060    2067    2066    3693    2767    2766+
+           2765     755     756     272
CTETRA      1422       1    2060    3685    3684    3693    1564    4448+
+            753     755    4472    4471
CTETRA      1423       1    2131    3756    3763    3764     185    4665+
+           1190     936    4667    4666
CTETRA      1424       1    2089    2096    2095    3716    2846    2845+
+           2844     314    1684    1431
CTETRA      1425       1    2060    3676    3684    3685    1562    4447+
+            753    1564    4449    4448
CTETRA      1426       1    2069    3691    3690    3699    1393    4464+
+           1392    1685    4488    4487
CTETRA      1427       1    2020    2027    2026    3643    2659    2658+
+           2657     769     763     422
CTETRA      1428       1    2069    2075    3691    3699    2790    1686+
+           1393    1685    1687    4488
CTETRA      1429       1    2027    3643    3642    3651     763    4332+
+            646     764    4356    4355
CTETRA      1430       1    2019    2020    2026    3643    2639    2657+
+           2656    1137     769     422
CTETRA      1431       1    2075    3691    3699    3700    1686    4488+
+           1687    1688    4490    4489
CTETRA      1432       1    2019    3643    2026    3644    1137     422+
+           2656    1138    4335     421
CTETRA      1433       1    2026    3643    3651    3652     422    4356+
+            418     420    4358    4357
CTETRA      1434       1    2090    3714    2097    3715    1054     751+
+           2849    1055    4531     395
CTETRA      1435       1    2132    3755    3754    3762    1189    4641+
+           1689     627    4662    4661
CTETRA      1436       1    2038    3662    3661    3670    1072    4385+
+           1386    1074    4409    4408
CTETRA      1437       1    2052    3678    3677    3686     228    4429+
+           1676     229    4453    4452
CTETRA      1438       1    1973    1974    1980    3600    2513    2531+
+           2530     798    1410     792
CTETRA      1439       1    5443    5339    1980    3608     243     793+
+           3268     790    5176     794
CTETRA      1440       1    5444    5340    5445    1973     552     652+
+           5477    3266     797    3265
CTETRA      1441       1    5444    5340    1973    3600     552     797+
+           3266    1360    5178     798
CTETRA      1442       1    2130    3756    2131    3764     194     185+
+           2940     186    4667     936
CTETRA      1443       1    5446    5341    1979    3585     447     870+
+           3430     868    5017     656
CTETRA      1444       1    1997    3620    2004    3621    1337    1338+
+           2596    1661    4272     221
CTETRA      1445       1    2124    2131    2130    3756    2941    2940+
+           2939     184     185     194
CTETRA      1446       1    1940    1947    1946    3558    2441    2440+
+           2439    1667    1690    1151
CTETRA      1447       1    1940    3549    3557    3558    1550    4098+
+           1551    1667    4100    4099
CTETRA      1448       1    1981    3606    1988    3607    1691    1692+
+           2552     133    4234     137
CTETRA      1449       1    1974    3590    1975    3598    1693      26+
+           2516    1406    4211      28
CTETRA      1450       1    1913    3516    3524    3525     284    4007+
+            282    1021    4009    4008
CTETRA      1451       1    1982    3597    3605    3606    1504    4230+
+            199    1694    4232    4231
CTETRA      1452       1    1907    1914    1913    3524    2352    2351+
+           2350     286     277     282
CTETRA      1453       1    1907    3507    3515    3516     291    3982+
+            294     285    3984    3983
CTETRA      1454       1    5410    5411    5307    3857    5511    1695+
+            699     701     956    5086
CTETRA      1455       1    5442    5338    5337    3617     449    5374+
+           1229     245    5026    5025
CTETRA      1456       1    5441    5337    5336    3625    1228    5375+
+           1262    1696    5028    5027
CTETRA      1457       1    2015    3631    3639    3640    1145    4324+
+             14     241    4326    4325
CTETRA      1458       1    2002    2009    2008    3631    2609    2608+
+           2607    1578    1144    1143
CTETRA      1459       1    5335    3632    2008    3640    5169     537+
+            534    5168    4327     901
CTETRA      1460       1    1971    3578    1972    3586    1125     257+
+           2509     654    4177     249
CTETRA      1461       1    2219    3870    2226    3871     688    1057+
+           3198     528    4961    1327
CTETRA      1462       1    2220    3862    3869    3870     687    4957+
+            264     689    4959    4958
CTETRA      1463       1    2213    2220    2219    3862    3182    3181+
+           3180    1697     687     686
CTETRA      1464       1    2178    3821    2185    3822     339     465+
+           3087    1378    4826     464
CTETRA      1465       1    2170    3814    2177    3815    1346    1376+
+           3065    1347    4807    1602
CTETRA      1466       1    5446    5342    5341    3585    1123    5370+
+            447     868    5018    5017
CTETRA      1467       1    5342    1972    3577    3585    1698     255+
+           5015    5018     869    4174
CTETRA      1468       1    2158    2165    2164    3797    3033    3032+
+           3031     433     434    1251
CTETRA      1469       1    2149    2150    2156    3790    2991    3009+
+           3008    1175    1257    1176
CTETRA      1470       1    2150    2151    2157    3789    2994    3012+
+           3011     583     584    1414
CTETRA      1471       1    5418    2155    2162    3800    3318    3024+
+           3319    1099     458     355
CTETRA      1472       1    1965    3569    3577    3578     471    4152+
+            254     256    4154    4153
CTETRA      1473       1    2149    2156    2155    3791    3008    3007+
+           3006    1177    1178    1486
CTETRA      1474       1    5419    3792    2155    3800    1353    1354+
+           3317    1356    4767     458
CTETRA      1475       1    2090    2097    2096    3715    2849    2848+
+           2847    1055     395     394
CTETRA      1476       1    5343    1965    3569    3577     248     471+
+           5013    5016     254    4152
CTETRA      1477       1    2091    2098    2097    3714    2852    2851+
+           2850    1220    1699     751
CTETRA      1478       1    2091    3705    3713    3714     491    4526+
+           1381    1220    4528    4527
CTETRA      1479       1    2090    3707    3706    3714    1053    4508+
+           1609    1054    4530    4529
CTETRA      1480       1    2091    3713    2098    3714    1381    1365+
+           2852    1220    4527    1699
CTETRA      1481       1    2210    2217    2216    3850    3175    3174+
+           3173     147     148     155
CTETRA      1482       1    2040    2047    2046    3668    2713    2712+
+           2711     211    1700     212
CTETRA      1483       1    5459    5355    5354    3481    1321    5357+
+           1198      89    4992    4991
CTETRA      1484       1    2046    2047    2053    3668    2712    2730+
+           2729     212    1700    1701
CTETRA      1485       1    2047    3667    2054    3676     374     376+
+           2732    1702    4424    1703
CTETRA      1486       1    2048    2054    3667    3675    2733     376+
+            375    1610    1038    4422
CTETRA      1487       1    2005    2012    2011    3628    2618    2617+
+           2616    1226    1612    1227
CTETRA      1488       1    1997    2004    2003    3621    2596    2595+
+           2594    1661     221    1648
CTETRA      1489       1    2003    2004    2010    3621    2595    2613+
+           2612    1648     221     220
CTETRA      1490       1    1952    3567    1953    3575      32      29+
+           2456      33    4148      31
CTETRA      1491       1    1963    3579    1970    3580    1614    1615+
+           2504    1475    4159    1616
CTETRA      1492       1    5347    3536    1924    3544    5193     307+
+           1622    5192    4063     317
CTETRA      1493       1    5413    3833    5309    3841     611    5081+
+            544     547    4878    5082
CTETRA      1494       1    5413    2210    2203    3841    3364    3156+
+           3365     547     551     705
CTETRA      1495       1    1945    3560    3559    3568    1650    4105+
+            478    1652    4129    4128
CTETRA      1496       1    1954    1961    1960    3574    2479    2478+
+           2477     804    1156    1704
CTETRA      1497       1    1960    1961    1967    3582    2478    2496+
+           2495    1705    1091    1706
CTETRA      1498       1    1960    3574    1961    3582    1704    1156+
+           2478    1705    4167    1091
CTETRA      1499       1    5460    5517    5355    3473    5461    1707+
+           1319     299     301    4988
CTETRA      1500       1    1917    3527    1918    3535    1518    1708+
+           2361     304    4038    1709
CTETRA      1501       1    1916    3513    3521    3522     436    3998+
+           1710    1711    4000    3999
CTETRA      1502       1    1911    1912    1918    3526    2345    2363+
+           2362    1712    1591    1619
CTETRA      1503       1    1918    3527    3526    3535    1708    4014+
+           1619    1709    4038    4037
CTETRA      1504       1    1917    1918    1924    3535    2361    2379+
+           2378     304    1709     305
CTETRA      1505       1    1899    1905    3509    3517    2328      50+
+            665    1655      44    3988
CTETRA      1506       1    1914    3515    3523    3524     855    4004+
+            278     277    4006    4005
CTETRA      1507       1    1899    3509    3508    3517     665    3964+
+            738    1655    3988    3987
CTETRA      1508       1    5455    5351    5456    3512    1571    1455+
+           5466    1572    5200      61
CTETRA      1509       1    1889    3503    1896    3504     502     504+
+           2302     503    3951      60
CTETRA      1510       1    1896    3503    1897    3511     504    1671+
+           2304      55    3972    1670
CTETRA      1511       1    5456    5351    3504    3512    1455    5201+
+             59      61    5200    3975
CTETRA      1512       1    2214    3853    3860    3861    1542    4932+
+            908    1471    4934    4933
CTETRA      1513       1    2207    3852    2214    3853    1239     911+
+           3166    1470    4911    1542
CTETRA      1514       1    2206    3846    3853    3854    1641    4913+
+           1587    1640    4915    4914
CTETRA      1515       1    5517    5273    5288    1874    5281    5226+
+           5224    3461    3460    1521
CTETRA      1516       1    1869    1875    3479    3487    2240    1450+
+           1630    1620    1621    3904
CTETRA      1517       1    1875    3487    1882    3496    1621    1162+
+           2264    1182    3930    1164
CTETRA      1518       1    2172    2173    2179    3812    3054    3072+
+           3071     173     174     175
CTETRA      1519       1    2181    2188    2187    3819    3096    3095+
+           3094     914    1713     915
CTETRA      1520       1    2173    3803    2174    3811     917     919+
+           3057     825    4796     826
CTETRA      1521       1    2173    3804    3803    3811     165    4776+
+            917     825    4797    4796
CTETRA      1522       1    2180    3812    3811    3819    1332    4798+
+            827     913    4819    4818
CTETRA      1523       1    1869    3479    3478    3487    1630    3905+
+           1557    1620    3904    3903
CTETRA      1524       1    1896    3504    3503    3512      60    3951+
+            504      57    3975    3974
CTETRA      1525       1    5422    5319    5423    3768     114     113+
+           5499    1231    5136    1288
CTETRA      1526       1    5422    3768    2134    3776    1231    1608+
+           3311     112    4701    1714
CTETRA      1527       1    2134    3768    3775    3776    1608    4699+
+           1205    1714    4701    4700
CTETRA      1528       1    5456    1909    1902    3505    3450    2339+
+           3451    1403    1457    1194
CTETRA      1529       1    5411    5308    5412    3856     602     946+
+           5510    1715    5114    1530
CTETRA      1530       1    5351    1909    3505    3513    1456    1457+
+           4997    5000     437    3976
CTETRA      1531       1    5455    5350    1916    3513    1215    1217+
+           3448     435    4999     436
CTETRA      1532       1    5419    2168    2161    3793    3376    3042+
+           3377     879     985     731
CTETRA      1533       1    5419    2161    5420    3785    3377    3378+
+           5502    1382     880     595
CTETRA      1534       1    2094    3718    3717    3725    1112    4539+
+            237    1334    4561    4560
CTETRA      1535       1    2101    3726    3725    3733     349    4562+
+           1335     588    4583    4582
CTETRA      1536       1    5419    5315    5316    3800     876    5396+
+           1355    1356    5128    5129
CTETRA      1537       1    2104    3722    2105    3730    1001     997+
+           2870    1149    4573    1002
CTETRA      1538       1    2084    3706    3705    3714    1567    4505+
+            492    1219    4529    4528
CTETRA      1539       1    5427    5324    5428    2092    1452    1384+
+           5494    3300    1716    3299
CTETRA      1540       1    2083    3698    3706    3707    1627    4507+
+           1643    1644    4509    4508
CTETRA      1541       1    2036    3655    3663    3664      72    4390+
+             75     412    4392    4391
CTETRA      1542       1    2125    3746    2126    3754    1717    1480+
+           2927    1718    4639    1082
CTETRA      1543       1    2037    3662    2044    3671    1071    1073+
+           2704     226    4411     214
CTETRA      1544       1    5425    2119    3737    3745    3389    1374+
+            889    1443    1719    4614
CTETRA      1545       1    2221    3861    3860    3868    1472    4933+
+            910     152    4954    4953
CTETRA      1546       1    2138    3763    2139    3771    1508    1507+
+           2962    1388    4686     573
CTETRA      1547       1    2222    2229    2228    3868    3207    3206+
+           3205     153    1238     154
CTETRA      1548       1    2215    3859    2222    3860     696     896+
+           3188     909    4930    1464
CTETRA      1549       1    2212    2213    2219    3862    3162    3180+
+           3179    1499    1697     686
CTETRA      1550       1    2213    3853    2214    3861    1638    1542+
+           3165    1639    4934    1471
CTETRA      1551       1    2206    3846    3845    3853    1641    4892+
+           1536    1587    4913    4912
CTETRA      1552       1    2173    3811    2180    3812     825     827+
+           3074     174    4798    1332
CTETRA      1553       1    2185    2186    2192    3829    3089    3107+
+           3106     466     711    1079
CTETRA      1554       1    5460    5517    5279    5295    5461    5280+
+           3233    1663    5233    5234
CTETRA      1555       1    2142    2143    2149    3782    2972    2990+
+           2989    1477    1252    1254
CTETRA      1556       1    2143    3774    3773    3781     781    4694+
+            933     929    4715    4714
CTETRA      1557       1    2135    2142    2141    3775    2970    2969+
+           2968    1206    1683    1604
CTETRA      1558       1    1996    1997    2003    3613    2576    2594+
+           2593    1720    1721    1647
CTETRA      1559       1    2141    2142    2148    3783    2969    2987+
+           2986    1359    1600     722
CTETRA      1560       1    2142    3775    3782    3783    1683    4718+
+           1477    1600    4720    4719
CTETRA      1561       1    2209    3850    2216    3851     334     155+
+           3172     493    4905     158
CTETRA      1562       1    2053    3677    3676    3685    1722    4426+
+           1561    1563    4450    4449
CTETRA      1563       1    1964    3571    3570    3579    1343    4134+
+           1281    1419    4158    4157
CTETRA      1564       1    5419    5316    5420    3792    1355     884+
+           5502    1353    5130    1105
CTETRA      1565       1    2141    3776    3775    3783    1358    4700+
+           1604    1359    4721    4720
CTETRA      1566       1    1970    3579    3587    3588    1615    4180+
+           1148    1147    4182    4181
CTETRA      1567       1    5447    5343    1952    3576     247    1723+
+           3260    1724    5184      34
CTETRA      1568       1    5418    5419    2155    3800    5503    3317+
+           3318    1099    1356     458
CTETRA      1569       1    5422    2140    3761    3769    3383    1084+
+            115    1633    1186    4680
CTETRA      1570       1    2133    3754    3761    3762    1083    4659+
+           1085     628    4661    4660
CTETRA      1571       1    2014    3626    3625    3634     445    4285+
+            638     635    4309    4308
CTETRA      1572       1    1971    3579    3578    3587    1613    4156+
+           1125     655    4180    4179
CTETRA      1573       1    5425    2126    2119    3745    3388    2928+
+           3389    1443    1479    1719
CTETRA      1574       1    2126    3746    3745    3753    1480    4616+
+           1479    1080    4637    4636
CTETRA      1575       1    2077    2083    3698    3706    2812    1627+
+           1626    1725    1643    4507
CTETRA      1576       1    2093    2100    2099    3727    2856    2855+
+           2854     940     941     367
CTETRA      1577       1    2077    3697    2084    3706    1161    1160+
+           2814    1725    4506    1567
CTETRA      1578       1    2077    3698    3697    3706    1626    4483+
+           1161    1725    4507    4506
CTETRA      1579       1    1890    3494    3502    3503    1168    3947+
+           1314    1169    3949    3948
CTETRA      1580       1    1900    1901    1907    3507    2316    2334+
+           2333     321     292     291
CTETRA      1581       1    1881    1887    3482    3490    2280      83+
+            866     867     519    3913
CTETRA      1582       1    2118    2119    2125    3746    2908    2926+
+           2925    1493    1494    1717
CTETRA      1583       1    1874    1880    3474    3482    2260    1599+
+           1596    1726      82    3884
CTETRA      1584       1    1890    3494    1891    3502    1168    1171+
+           2288    1314    3947    1172
CTETRA      1585       1    2097    3714    2098    3722     751    1699+
+           2851     752    4551    1000
CTETRA      1586       1    5455    5351    5350    3513    1571    5361+
+           1215     435    5000    4999
CTETRA      1587       1    2098    3714    3713    3721    1699    4527+
+           1365    1368    4549    4548
CTETRA      1588       1    1884    3493    1891    3494    1023    1025+
+           2289    1170    3923    1171
CTETRA      1589       1    1927    1934    1933    3541    2406    2405+
+           2404     494    1290    1294
CTETRA      1590       1    2105    3722    3729    3730     997    4571+
+            999    1002    4573    4572
CTETRA      1591       1    5427    5428    5324    3721    5494    1384+
+           1452    1454    1367    5052
CTETRA      1592       1    5430    5326    2091    3705    1526    1380+
+           3398     490    5047     491
CTETRA      1593       1    5279    5294    1868    3480    5235    1727+
+           3235    1728    5212    1729
CTETRA      1594       1    2098    3714    3721    3722    1699    4549+
+           1368    1000    4551    4550
CTETRA      1595       1    5454    1923    1916    3521    3446    2377+
+           3447    1730    1731    1710
CTETRA      1596       1    2076    2082    3699    3707    2809    1732+
+           1733    1734    1645    4510
CTETRA      1597       1    5278    5279    5294    1868    5287    5235+
+           5236    3472    3235    1727
CTETRA      1598       1    5423    2133    5424    3753    3385    3386+
+           5498    1248    1081     123
CTETRA      1599       1    2067    2068    2074    3692    2769    2787+
+           2786    1735    1736    1387
CTETRA      1600       1    1871    1878    1877    3485    2251    2250+
+           2248    1436    1030    1437
CTETRA      1601       1    1989    3605    1990    3613     201     202+
+           2557    1737    4252    1566
CTETRA      1602       1    2055    3666    3674    3675    1509    4419+
+             78    1039    4421    4420
CTETRA      1603       1    1910    1911    1917    3527    2342    2360+
+           2359    1738    1739    1518
CTETRA      1604       1    2039    2040    2046    3660    2693    2711+
+           2710     426     210     209
CTETRA      1605       1    2135    3766    2136    3774    1478     362+
+           2953     775    4695     776
CTETRA      1606       1    2007    3617    3625    3626     131    4284+
+            444     430    4286    4285
CTETRA      1607       1    2000    2007    2006    3618    2605    2604+
+           2603     124     132     125
CTETRA      1608       1    2004    3628    2011    3629    1225    1227+
+           2615     222    4294     225
CTETRA      1609       1    1960    1967    1966    3583    2495    2494+
+           2493    1740    1741    1742
CTETRA      1610       1    1870    3477    1877    3486     149     151+
+           2247     964    3899     812
CTETRA      1611       1    1999    3618    2006    3619      21     125+
+           2602      22    4266    1333
CTETRA      1612       1    2011    2012    2018    3636    2617    2635+
+           2634    1404    1634    1405
CTETRA      1613       1    1942    3547    1943    3555     832    1311+
+           2430     833    4092    1307
CTETRA      1614       1    1932    3543    3542    3551    1523    4058+
+           1743    1525    4082    4081
CTETRA      1615       1    2011    3628    2012    3636    1227    1612+
+           2617    1404    4315    1634
CTETRA      1616       1    5428    2092    5324    3720    3299    1716+
+           1384    1744    1745    5147
CTETRA      1617       1    5423    5320    2120    3760    1287    1746+
+           3308     881    5138     882
CTETRA      1618       1    2207    3844    2208    3852    1409    1242+
+           3149    1239    4909     499
CTETRA      1619       1    5421    5422    2134    3776    5500    3311+
+           3312     111     112    1714
CTETRA      1620       1    1868    1869    1875    3479    2241    2240+
+           2239    1674    1630    1450
CTETRA      1621       1    1877    1878    1884    3485    2250    2271+
+           2270    1437    1030    1029
CTETRA      1622       1    5447    5342    1972    3577     252    1698+
+           3432     253    5015     255
CTETRA      1623       1    1997    3613    3612    3621    1721    4250+
+           1418    1661    4274    4273
CTETRA      1624       1    5415    5312    5311    3817    1747    5400+
+           1679    1678    5076    5077
CTETRA      1625       1    1955    3572    1962    3573     994     990+
+           2482    1424    4140     989
CTETRA      1626       1    1953    3566    3574    3575      30    4145+
+            803      31    4147    4146
CTETRA      1627       1    1968    3589    1975    3590    1568      27+
+           2517    1569    4187      26
CTETRA      1628       1    1969    3580    1970    3588    1316    1616+
+           2503     799    4183    1147
CTETRA      1629       1    1976    3596    1983    3597     461    1549+
+           2539    1318    4206    1642
CTETRA      1630       1    5342    3576    1959    3584    5183    1748+
+           1749    5182    4173     469
CTETRA      1631       1    1961    3573    1962    3581    1155     989+
+           2481     690    4164     691
CTETRA      1632       1    1968    3581    1969    3589     692     695+
+           2500    1568    4186     800
CTETRA      1633       1    2046    3669    3668    3677     428    4404+
+            212    1680    4428    4427
CTETRA      1634       1    1868    3479    1875    3480    1674    1450+
+           2239    1729    3909    1449
CTETRA      1635       1    2017    2023    3638    3646    2648    1750+
+           1751    1752    1753    4343
CTETRA      1636       1    2104    3723    3730    3731     385    4574+
+           1149    1395    4576    4575
CTETRA      1637       1    5459    3480    1875    3488    1258    1449+
+           3237    1259    3908    1451
CTETRA      1638       1    1955    3564    3572    3573     993    4139+
+            994    1424    4141    4140
CTETRA      1639       1    5434    2063    2056    3673    3406    2757+
+           3407    1754    1531      84
CTETRA      1640       1    5459    1868    1875    3480    3236    2239+
+           3237    1258    1729    1449
CTETRA      1641       1    1905    1912    1911    3518    2346    2345+
+           2344      51    1516    1755
CTETRA      1642       1    1911    3518    3526    3527    1755    4013+
+           1712    1739    4015    4014
CTETRA      1643       1    1947    1954    1953    3566    2460    2459+
+           2458     810     802      30
CTETRA      1644       1    5432    5328    5329    3688     770    5383+
+           1050     472    5155    5156
CTETRA      1645       1    1925    3534    3542    3543    1515    4057+
+           1756    1757    4059    4058
CTETRA      1646       1    1911    3526    1918    3527    1712    1619+
+           2362    1739    4014    1708
CTETRA      1647       1    2198    3839    3846    3847    1019    4894+
+           1544     974    4896    4895
CTETRA      1648       1    2079    2086    2085    3711    2818    2817+
+           2816     622     939     942
CTETRA      1649       1    5416    3816    5313       9    1510    5124+
+           1758    1459    1490    1759
CTETRA      1650       1    2199    2206    2205    3846    3144    3143+
+           3142    1658    1641    1545
CTETRA      1651       1    2053    2060    2059    3685    2748    2747+
+           2746    1563    1564     404
CTETRA      1652       1    1926    1933    1932    3542    2403    2402+
+           2401     496    1517    1743
CTETRA      1653       1    5426    5322    3737       4     351    5056+
+           1462     961     887     842
CTETRA      1654       1    2178    2185    2184    3822    3087    3086+
+           3085    1378     464    1087
CTETRA      1655       1    2016    3630    3638    3639      11    4321+
+            784      13    4323    4322
CTETRA      1656       1    2003    3622    3621    3630    1649    4275+
+           1648    1760    4299    4298
CTETRA      1657       1    2100    3727    3726    3735     941    4564+
+            345    1041    4588    4587
CTETRA      1658       1    1904    3518    1911    3519    1656    1755+
+           2343    1442    3992    1761
CTETRA      1659       1    1904    1911    1910    3519    2343    2342+
+           2341    1442    1761    1762
CTETRA      1660       1    2122    3749    2123    3757     586     733+
+           2918     587    4648     195
CTETRA      1661       1    2192    3830    3837    3838    1763    4869+
+           1246    1593    4871    4870
CTETRA      1662       1    2174    3802    2175    3810     984     982+
+           3060     920    4793    1764
CTETRA      1663       1    2209    2210    2216    3850    3155    3173+
+           3172     334     147     155
CTETRA      1664       1    1872    1879    1878    3484    2255    2254+
+           2252    1141    1027    1026
CTETRA      1665       1    2145    3772    3771    3779     931    4688+
+           1389     891    4709    4708
CTETRA      1666       1    5408    5515    5516    5263    5514    1852+
+           1662    1765    1851    5264
CTETRA      1667       1    1897    3503    3502    3511    1671    3948+
+           1315    1670    3972    3971
CTETRA      1668       1    1889    1890    1896    3503    2285    2303+
+           2302     502    1169     504
CTETRA      1669       1    1882    1883    1889    3495    2266    2284+
+           2283    1163     507     501
CTETRA      1670       1    5415    2176    2183    3824    3324    3081+
+           3325    1672    1766    1673
CTETRA      1671       1    2176    3816    3823    3824    1767    4831+
+           1589    1766    4833    4832
CTETRA      1672       1    2139    2146    2145    3771    2982    2981+
+           2980     573     574    1389
CTETRA      1673       1    2165    2166    2172    3804    3035    3053+
+           3052     926     164     166
CTETRA      1674       1    1897    1904    1903    3511    2324    2323+
+           2322    1670    1441      56
CTETRA      1675       1    5414    5415    5311    3825    5507    1679+
+            843    1411    1412    5078
CTETRA      1676       1    1875    1876    1882    3487    2242    2265+
+           2264    1621    1243    1162
CTETRA      1677       1    5455    1896    1903    3512    3244    2321+
+           3245    1572      57      58
CTETRA      1678       1    1876    1883    1882    3487    2267    2266+
+           2265    1243    1244    1162
CTETRA      1679       1    2177    2184    2183    3823    3084    3083+
+           3082    1590     329     328
CTETRA      1680       1    5457    1882    1889    3496    3240    2283+
+           3241     862    1164    1528
CTETRA      1681       1    5421    2147    3769    3777    3381    1166+
+           1286     514     986    4702
CTETRA      1682       1    5421    5422    5318    3769    5500     110+
+            109    1286    1633    5064
CTETRA      1683       1    2169    2170    2176    3815    3045    3063+
+           3062    1541    1347    1768
CTETRA      1684       1    5245    5260    5261    2234    1856    5266+
+           1857    3345    1325     682
CTETRA      1685       1    5458    5459    5354    3489    5463    1198+
+           1317     423     860    4994
CTETRA      1686       1    5246    5261    2233    2234    1860     681+
+           3343    3344     682    3219
CTETRA      1687       1    2169    3815    2176    3816    1541    1768+
+           3062    1554    4810    1767
CTETRA      1688       1    1938    3551    3559    3560    1570    4104+
+            476     163    4106    4105
CTETRA      1689       1    2110    2111    2117    3739    2886    2904+
+           2903    1769    1303    1583
CTETRA      1690       1    2110    3731    2111    3739    1770    1301+
+           2886    1769    4598    1303
CTETRA      1691       1    5451    5347    5452    1924     836    1173+
+           5470    3252    1622    3251
CTETRA      1692       1    3729    3730    3737       2    4572    4593+
+           4592     512    1004     841
CTETRA      1693       1    1879    1885    3484    3492    2274    1028+
+           1027    1771    1657    3919
CTETRA      1694       1    5460    1881    3473    3481    3458    1772+
+            299    1320      91    3881
CTETRA      1695       1    1874    1881    1880    3482    2263    2262+
+           2260    1726     866      82
CTETRA      1696       1    1924    1925    1931    3543    2380    2398+
+           2397     315    1757     316
CTETRA      1697       1    1884    3485    3493    3494    1029    3922+
+           1023    1170    3924    3923
CTETRA      1698       1    1892    1893    1899    3500    2294    2312+
+           2311     668     697    1304
CTETRA      1699       1    1961    3573    3581    3582    1155    4164+
+            690    1091    4166    4165
CTETRA      1700       1    1953    1960    1959    3575    2476    2475+
+           2474      31    1773     467
CTETRA      1701       1    5429    5326    5430    3712    1565    1526+
+           5492    1774    5150    1775
CTETRA      1702       1    5426    2119    2112    3737    3390    2909+
+           3391    1462    1374     840
CTETRA      1703       1    5429    5326    5325    3713    1565    5386+
+           1776    1383    5050    5049
CTETRA      1704       1    5411    5308    5307    3849     602    5404+
+           1695     598    5084    5085
CTETRA      1705       1    5413    5309    5310    3848     544    5402+
+            610     829    5116    5117
CTETRA      1706       1    1934    3541    3540    3549    1290    4052+
+            835    1292    4076    4075
CTETRA      1707       1    5411    5308    3856    3864     602    5114+
+           1715    1777    5113    4943
CTETRA      1708       1    1873    1880    1879    3483    2259    2258+
+           2256    1664    1778    1779
CTETRA      1709       1    5412    5308    5309    3856     946    5403+
+            545    1530    5114    5115
CTETRA      1710       1    5517    5518    5355    3473    5225    5356+
+           1707     301    4989    4988
CTETRA      1711       1    1991    1998    1997    3612    2580    2579+
+           2578    1417    1636    1418
CTETRA      1712       1    2104    2111    2110    3731    2887    2886+
+           2885    1395    1301    1770
CTETRA      1713       1    2205    2212    2211    3855    3160    3159+
+           3158    1062    1497    1180
CTETRA      1714       1    5517    5355    5518    5295    1707    5356+
+           5225    5233    5210    5297
CTETRA      1715       1    5415    5311    5312    3832    1679    5400+
+           1747     853    5120    5121
CTETRA      1716       1    5411    3856    2211    3864    1715    1780+
+           3333    1777    4943    1781
CTETRA      1717       1    2209    2216    2215    3851    3172    3171+
+           3170     493     158     498
CTETRA      1718       1    1967    3582    3590    3591    1706    4189+
+           1782    1126    4191    4190
CTETRA      1719       1    5431    5328    5327    3697     771    5384+
+            952     772    5046    5045
CTETRA      1720       1    1879    3483    1886    3492    1779      69+
+           2276    1771    3918      71
CTETRA      1721       1    5434    2063    3673    3681    3406    1531+
+           1754    1537    1006    4438
CTETRA      1722       1    5435    5331    5330    3673    1122    5381+
+            414    1783    5040    5039
CTETRA      1723       1    5431    5327    3696    3704     952    5153+
+            817    1165    5152    4503
CTETRA      1724       1    2206    2207    2213    3853    3146    3164+
+           3163    1587    1470    1638
CTETRA      1725       1    2061    3684    3683    3692    1784    4445+
+           1115    1785    4469    4468
CTETRA      1726       1    1879    1886    1885    3492    2276    2275+
+           2274    1771      71    1657
CTETRA      1727       1    5444    5445    5340    1986    5477     652+
+            552    3427    3428     548
CTETRA      1728       1    2131    3763    2138    3764    1190    1508+
+           2960     936    4666     937
CTETRA      1729       1    2205    3847    3846    3854    1060    4895+
+           1545    1061    4916    4915
CTETRA      1730       1    2165    2172    2171    3805    3052    3051+
+           3050     927     928    1250
CTETRA      1731       1    2095    2096    2102    3724    2845    2863+
+           2862    1432     403     399
CTETRA      1732       1    2213    3861    2220    3862    1639    1331+
+           3182    1697    4936     687
CTETRA      1733       1    1885    3484    3492    3493    1028    3919+
+           1657    1024    3921    3920
CTETRA      1734       1    5414    5311    5415    3832     843    1679+
+           5507     850    5120     853
CTETRA      1735       1    2125    3747    3754    3755    1786    4640+
+           1718    1787    4642    4641
CTETRA      1736       1    2117    3739    2118    3747    1583    1582+
+           2905    1788    4620    1789
CTETRA      1737       1    2002    3622    2009    3631    1513    1357+
+           2609    1578    4301    1144
CTETRA      1738       1    2189    3818    3817    3825    1790    4814+
+           1791    1677    4835    4834
CTETRA      1739       1    2061    2067    3684    3692    2768     754+
+           1784    1785    1735    4469
CTETRA      1740       1    1902    1908    3506    3514    2337    1792+
+            872    1793    1794    3979
CTETRA      1741       1    2210    3842    3849    3850    1046    4901+
+            145     147    4903    4902
CTETRA      1742       1    2045    3661    3669    3670    1795    4406+
+           1796    1665    4408    4407
CTETRA      1743       1    5413    2203    3833    3841    3365     704+
+            611     547     705    4878
CTETRA      1744       1    2075    2082    2081    3700    2808    2807+
+           2806    1688     747     746
CTETRA      1745       1    1908    3514    1915    3523    1794    1797+
+           2355    1798    4003    1224
CTETRA      1746       1    2187    3820    3819    3827     673    4820+
+            915     563    4841    4840
CTETRA      1747       1    2181    3810    2182    3818    1077      86+
+           3079    1078    4815    1799
CTETRA      1748       1    2068    2069    2075    3691    2772    2790+
+           2789    1660    1393    1686
CTETRA      1749       1    2203    3841    2210    3842     705     551+
+           3156    1045    4880    1046
CTETRA      1750       1    2188    2189    2195    3826    3098    3116+
+           3115    1800    1801     568
CTETRA      1751       1    2175    3809    2182    3810    1211      87+
+           3080    1764    4792      86
CTETRA      1752       1    1915    1916    1922    3522    2357    2375+
+           2374     759    1711     760
CTETRA      1753       1    5421    2134    2141    3776    3312    2967+
+           3313     111    1714    1358
CTETRA      1754       1    1912    3525    1919    3526    1588      47+
+           2365    1591    4011    1618
CTETRA      1755       1    2140    3762    3769    3770    1086    4681+
+           1186    1187    4683    4682
CTETRA      1756       1    5427    5323    5324    3728    1453    5388+
+           1452    1466    5145    5146
CTETRA      1757       1    1911    3518    1912    3526    1755    1516+
+           2345    1712    4013    1591
CTETRA      1758       1    2019    2026    2025    3644    2656    2655+
+           2654    1138     421      42
CTETRA      1759       1    2024    2025    2031    3645    2652    2670+
+           2669     806      41     718
CTETRA      1760       1    2132    3762    2139    3763     627     629+
+           2963    1191    4663    1507
CTETRA      1761       1    2032    3644    3652    3653    1379    4359+
+             52     720    4361    4360
CTETRA      1762       1    2213    3854    3861    3862    1637    4935+
+           1639    1697    4937    4936
CTETRA      1763       1    2220    3869    2227    3870     264     266+
+           3201     689    4958    1448
CTETRA      1764       1    2095    3724    2102    3725    1432     399+
+           2862    1336    4559    1429
CTETRA      1765       1    2109    3733    3740    3741     847    4602+
+            715    1049    4604    4603
CTETRA      1766       1    2103    3724    3731    3732     400    4577+
+           1396     402    4579    4578
CTETRA      1767       1    2026    2032    3644    3652    2673    1379+
+            421     420      52    4359
CTETRA      1768       1    2165    3797    3796    3804     434    4757+
+            181     926    4778    4777
CTETRA      1769       1    1912    1919    1918    3526    2365    2364+
+           2363    1591    1618    1619
CTETRA      1770       1    2222    3860    3859    3867    1464    4930+
+            896     898    4951    4950
CTETRA      1771       1    2227    3870    3869    3877    1448    4958+
+            266    1446    4979    4978
CTETRA      1772       1    2075    2076    2082    3699    2791    2809+
+           2808    1687    1733    1732
CTETRA      1773       1    2225    3871    2226    3879    1268    1327+
+           3197    1269    4984    1265
CTETRA      1774       1    2204    3847    2205    3855     975    1060+
+           3140    1179    4918    1062
CTETRA      1775       1    5408    5515    5263    2232    5514    1851+
+           1765    3339    3340    1802
CTETRA      1776       1    2082    3700    3699    3707     747    4489+
+           1732    1645    4511    4510
CTETRA      1777       1    2076    2083    2082    3707    2811    2810+
+           2809    1734    1644    1645
CTETRA      1778       1    5408    2225    2232    3880    3338    3214+
+           3339    1803    1804    1805
CTETRA      1779       1    5409    5305    5306    3880    1063    5406+
+            970    1806    5108    5109
CTETRA      1780       1    2045    3669    2052    3678    1796    1675+
+           2726    1339    4430     228
CTETRA      1781       1    2181    2182    2188    3818    3079    3097+
+           3096    1078    1799    1807
CTETRA      1782       1    2024    3645    2031    3654     806     718+
+           2669     788    4364    1306
CTETRA      1783       1    2216    2217    2223    3858    3174    3192+
+           3191     156     157     138
CTETRA      1784       1    1983    3596    3604    3605    1549    4227+
+           1546     200    4229    4228
CTETRA      1785       1    2030    3654    2037    3663     783    1075+
+           2685      74    4389      81
CTETRA      1786       1    5408    5409    2225    3880    5513    3337+
+           3338    1803    1806    1804
CTETRA      1787       1    5411    5307    5308    3864    1695    5404+
+            602    1777    5112    5113
CTETRA      1788       1    2039    3652    3660    3661      54    4381+
+            426    1364    4383    4382
CTETRA      1789       1    1981    3598    1982    3606    1407    1808+
+           2535    1691    4233    1694
CTETRA      1790       1    2047    2053    3668    3676    2730    1701+
+           1700    1702    1561    4425
CTETRA      1791       1    1975    3589    3597    3598      27    4208+
+           1323      28    4210    4209
CTETRA      1792       1    5438    2022    5333    3648    3279     232+
+            554     239     236    5165
CTETRA      1793       1    2023    2030    2029    3655    2666    2665+
+           2664    1809      73     632
CTETRA      1794       1    1880    3483    3482    3491    1778    3886+
+             82      79    3916    3915
CTETRA      1795       1    1894    3490    3498    3499    1810    3935+
+            724     309    3937    3936
CTETRA      1796       1    1893    3499    1900    3508     308     310+
+           2314    1305    3962     663
CTETRA      1797       1    1975    3597    1982    3598    1323    1504+
+           2536      28    4209    1808
CTETRA      1798       1    1977    3595    1984    3596     650     651+
+           2542     462    4203    1505
CTETRA      1799       1    5452    5453    1917    3536    5469    3249+
+           3250    1522    1681     306
CTETRA      1800       1    1904    1905    1911    3518    2326    2344+
+           2343    1656      51    1755
CTETRA      1801       1    1908    3506    3514    3515    1792    3979+
+           1794    1434    3981    3980
CTETRA      1802       1    2012    3628    3627    3636    1612    4291+
+           1067    1634    4315    4314
CTETRA      1803       1    2013    2020    2019    3635    2640    2639+
+           2638     440     768    1136
CTETRA      1804       1    1879    1880    1886    3483    2258    2277+
+           2276    1779    1778      69
CTETRA      1805       1    1873    3474    1880    3483    1597    1599+
+           2259    1664    3887    1778
CTETRA      1806       1    1882    3487    1883    3495    1162    1244+
+           2266    1163    3928     507
CTETRA      1807       1    1905    3510    3509    3518    1101    3967+
+             50      51    3991    3990
CTETRA      1808       1    1908    3515    3514    3523    1434    3980+
+           1794    1798    4004    4003
CTETRA      1809       1    1981    1982    1988    3606    2535    2553+
+           2552    1691    1694    1692
CTETRA      1810       1    5459    1881    5460    3481    3457    3458+
+           5462      89      91    1320
CTETRA      1811       1    1878    1885    1884    3493    2273    2272+
+           2271    1031    1024    1023
CTETRA      1812       1    1985    1986    1992    3602    2547    2565+
+           2564    1196    1197      23
CTETRA      1813       1    1879    3475    3483    3484    1140    3888+
+           1779    1027    3891    3890
CTETRA      1814       1    1923    1930    1929    3529    2396    2395+
+           2394    1811     854    1324
CTETRA      1815       1    1871    3476    1878    3485     674     676+
+           2251    1436    3895    1030
CTETRA      1816       1    5453    1923    5349    3529    3445    1812+
+             62    1813    1811    5004
CTETRA      1817       1    1996    3614    3613    3622    1605    4253+
+           1720    1606    4277    4276
CTETRA      1818       1    1999    3611    3610    3619     968    4244+
+             20      22    4268    4267
CTETRA      1819       1    1959    3576    3575    3584    1748    4149+
+            467     469    4173    4172
CTETRA      1820       1    1894    3498    1901    3507     724     726+
+           2317     320    3959     292
CTETRA      1821       1    5447    1959    5342    3576    3261    1749+
+            252    1724    1748    5183
CTETRA      1822       1    1975    1982    1981    3598    2536    2535+
+           2534      28    1808    1407
CTETRA      1823       1    1908    1914    3515    3523    2353     855+
+           1434    1798     278    4004
CTETRA      1824       1    1880    1881    1887    3482    2262    2280+
+           2279      82     866      83
CTETRA      1825       1    1938    3559    1945    3560     476     478+
+           2435     163    4105    1650
CTETRA      1826       1    5341    3584    1966    3592    5181    1146+
+            448    5180    4195    1133
CTETRA      1827       1    1992    3610    1999    3611      24      20+
+           2583      25    4244     968
CTETRA      1828       1    1901    1902    1908    3506    2319    2337+
+           2336     873     872    1792
CTETRA      1829       1    1901    1908    1907    3515    2336    2335+
+           2334     293    1434     294
CTETRA      1830       1    1939    3558    1946    3559    1666    1151+
+           2438     477    4102    1584
CTETRA      1831       1    1978    3586    1979    3594     251     250+
+           2528     659    4199     657
CTETRA      1832       1    1946    3559    3558    3567    1584    4102+
+           1151    1153    4126    4125
CTETRA      1833       1    1915    3514    3522    3523    1797    4001+
+            759    1224    4003    4002
CTETRA      1834       1    5452    1930    5348    3537    3443    1185+
+           1184     482     484    5006
CTETRA      1835       1    1925    1926    1932    3542    2383    2401+
+           2400    1756     496    1743
CTETRA      1836       1    1939    3550    3558    3559    1669    4101+
+           1666     477    4103    4102
CTETRA      1837       1    1925    3534    1926    3542    1515     495+
+           2383    1756    4057     496
CTETRA      1838       1    1916    3522    3521    3530    1711    3999+
+           1710    1814    4023    4022
CTETRA      1839       1    1923    3521    3529    3530    1731    4020+
+           1811    1815    4022    4021
CTETRA      1840       1    1928    1929    1935    3539    2392    2410+
+           2409     661      40      36
CTETRA      1841       1    5447    1952    1959    3576    3260    2473+
+           3261    1724      34    1748
CTETRA      1842       1    1924    3535    1925    3543     305    1816+
+           2380     315    4060    1757
CTETRA      1843       1    1932    1939    1938    3551    2419    2418+
+           2417    1525    1586    1570
CTETRA      1844       1    1900    3507    1907    3516     321     291+
+           2333     740    3984     285
CTETRA      1845       1    1991    3611    1998    3612    1496     969+
+           2580    1417    4247    1636
CTETRA      1846       1    1916    1922    3522    3530    2375     760+
+           1711    1814    1817    4023
CTETRA      1847       1    5453    1930    1923    3529    3444    2396+
+           3445    1813     854    1811
CTETRA      1848       1    1916    1923    1922    3530    2377    2376+
+           2375    1814    1815    1817
CTETRA      1849       1    1922    3522    3530    3531     760    4023+
+           1817     762    4025    4024
CTETRA      1850       1    5346    1944    3545    3553     379     486+
+           5007    5010     452    4086
CTETRA      1851       1    1920    3532    1927    3533     261     263+
+           2387     322    4030     323
CTETRA      1852       1    1991    1992    1998    3611    2563    2581+
+           2580    1496      25     969
CTETRA      1853       1    1947    1948    1954    3565    2443    2461+
+           2460     809    1428     807
CTETRA      1854       1    1897    3510    1904    3511    1553    1102+
+           2324    1670    3970    1441
CTETRA      1855       1    5448    1958    5344    3569    3435    1202+
+           1214     470     268    5014
CTETRA      1856       1    1956    3563    1957    3571     260     259+
+           2468    1818    4136    1342
CTETRA      1857       1    1878    3476    3484    3485     676    3892+
+           1026    1030    3895    3894
CTETRA      1858       1    1928    3531    1929    3539    1200    1654+
+           2392     661    4048      40
CTETRA      1859       1    5452    1917    1924    3536    3250    2378+
+           3251    1522     306     307
CTETRA      1860       1    1911    1918    1917    3527    2362    2361+
+           2360    1739    1708    1518
CTETRA      1861       1    1984    3595    3603    3604     651    4224+
+           1427    1506    4226    4225
CTETRA      1862       1    5442    1994    5337    3616    3271    1230+
+           1229     912     129    5173
CTETRA      1863       1    5447    5342    5343    3576     252    5369+
+            247    1724    5183    5184
CTETRA      1864       1    5290    3475    1872    3476    5219     679+
+            677    5220    3893     675
CTETRA      1865       1    5436    2049    2042    3665    3410    2719+
+           3411    1819    1611    1820
CTETRA      1866       1    1944    3553    1950    3554     452     823+
+           2451     838    4087     822
CTETRA      1867       1    5436    2042    3657    3665    3411    1577+
+           1581    1819    1820    4394
CTETRA      1868       1    5439    5335    5440    2008     530     535+
+           5482    3276     534    3275
CTETRA      1869       1    5450    5346    1931    3552     378     533+
+           3254     531    5190     532
CTETRA      1870       1    1970    3580    3579    3588    1616    4159+
+           1615    1147    4183    4182
CTETRA      1871       1    5437    5332    5333    3656    1579    5379+
+            231     233    5163    5164
CTETRA      1872       1    2010    2016    3630    3638    2629      11+
+            785     786     784    4321
CTETRA      1873       1    1924    3535    3543    3544     305    4060+
+            315     317    4062    4061
CTETRA      1874       1    1966    3583    1967    3592    1742    1741+
+           2494    1133    4194    1128
CTETRA      1875       1    5436    5331    5332    3664    1821    5380+
+           1580     411    5161    5162
CTETRA      1876       1    1939    3551    3550    3559    1586    4080+
+           1669     477    4104    4103
CTETRA      1877       1    5435    5436    5331    3665    5486    1821+
+           1122    1822    1819    5037
CTETRA      1878       1    5436    5332    5331    3665    1580    5380+
+           1821    1819    5038    5037
CTETRA      1879       1    2034    3650    2041    3659     766    1482+
+           2697    1131    4377    1484
CTETRA      1880       1    1917    3528    3527    3536     303    4017+
+           1518     306    4041    4040
CTETRA      1881       1    2042    3665    2049    3666    1820    1611+
+           2719      97    4395     106
CTETRA      1882       1    5445    1973    5340    3592    3265     797+
+            652    1823     796    5179
CTETRA      1883       1    5409    3872    2225    3880     971    1267+
+           3337    1806    4987    1804
CTETRA      1884       1    1987    3607    1988    3616     134     137+
+           2551     336    4260     128
CTETRA      1885       1    2223    3866    2230    3867     140     557+
+           3210     899    4949     556
CTETRA      1886       1    1966    3584    3583    3592    1146    4171+
+           1742    1133    4195    4194
CTETRA      1887       1    5453    3528    1917    3536      64     303+
+           3249    1681    4041     306
CTETRA      1888       1    5452    5348    5347    3537    1184    5364+
+           1173     482    5006    5005
CTETRA      1889       1    5408    5305    5409    3880    1064    1063+
+           5513    1803    5108    1806
CTETRA      1890       1    5409    5306    5305    3865     970    5406+
+           1063     907    5088    5089
CTETRA      1891       1    2085    2086    2092    3719    2817    2835+
+           2834     943     208    1109
CTETRA      1892       1    2022    3648    3647    3656     236    4347+
+            235     234    4371    4370
CTETRA      1893       1    2093    3719    3718    3727    1104    4542+
+            938     940    4566    4565
CTETRA      1894       1    1996    2003    2002    3622    2593    2592+
+           2591    1606    1649    1513
CTETRA      1895       1    1982    3598    3597    3606    1808    4209+
+           1504    1694    4233    4232
CTETRA      1896       1    1982    1989    1988    3606    2555    2554+
+           2553    1694    1824    1692
CTETRA      1897       1    2092    3720    3719    3728    1745    4545+
+           1109    1468    4569    4568
CTETRA      1898       1    5428    2085    2092    3720    3298    2834+
+           3299    1744     944    1745
CTETRA      1899       1    5278    1868    5294    3479    3472    1727+
+           5236    1629    1674    5211
CTETRA      1900       1    1987    1988    1994    3616    2551    2569+
+           2568     336     128     129
CTETRA      1901       1    5446    5342    5447    1959    1123     252+
+           5475    3262    1749    3261
CTETRA      1902       1    5446    5342    1959    3584    1123    1749+
+           3262    1124    5182     469
CTETRA      1903       1    1989    3606    3605    3614    1824    4231+
+            201    1825    4255    4254
CTETRA      1904       1    1946    1953    1952    3567    2457    2456+
+           2455    1153      29      32
CTETRA      1905       1    2009    3631    3630    3639    1144    4300+
+             10      12    4324    4323
CTETRA      1906       1    1988    3606    3614    3615    1692    4255+
+           1348     126    4257    4256
CTETRA      1907       1    5293    3478    1869    3479    5213    1557+
+           1628    5214    3905    1630
CTETRA      1908       1    2226    2227    2233    3878    3200    3218+
+           3217    1328    1447     683
CTETRA      1909       1    1977    1984    1983    3596    2542    2541+
+           2540     462    1505    1549
CTETRA      1910       1    5244    5260    5245    2235    1859    1856+
+           5250    3347    1543    3346
CTETRA      1911       1    5260    2234    2235    3877    1325    3222+
+           1543    5100    1326    1330
CTETRA      1912       1    2227    2234    2233    3878    3220    3219+
+           3218    1447     684     683
CTETRA      1913       1    2023    3647    3646    3655     780    4344+
+           1753    1809    4368    4367
CTETRA      1914       1    1995    2002    2001    3623    2590    2589+
+           2588    1397    1514    1398
CTETRA      1915       1    2010    2017    2016    3638    2631    2630+
+           2629     786    1751     784
CTETRA      1916       1    2207    2214    2213    3853    3166    3165+
+           3164    1470    1542    1638
CTETRA      1917       1    2206    2213    2212    3854    3163    3162+
+           3161    1640    1637    1498
CTETRA      1918       1    2019    3635    2020    3643    1136     768+
+           2639    1137    4334     769
CTETRA      1919       1    2191    3830    2192    3838     326    1763+
+           3105     327    4871    1593
CTETRA      1920       1    2192    3830    3829    3837    1763    4848+
+           1079    1246    4869    4868
CTETRA      1921       1    2032    3653    3652    3661     720    4360+
+             52    1394    4384    4383
CTETRA      1922       1    5427    3729    5323       3     508    5054+
+           1453     510     509    1440
CTETRA      1923       1    2156    2163    2162    3799    3027    3026+
+           3025    1362     346     353
CTETRA      1924       1    2017    3638    3637    3646    1751    4319+
+           1401    1752    4343    4342
CTETRA      1925       1    5277    5293    5292    3478    5238    5300+
+           5239    1556    5213    5216
CTETRA      1926       1    2165    3796    2166    3804     181    1296+
+           3035     926    4777     164
CTETRA      1927       1    5417    2162    2169    3808    3320    3043+
+           3321     455     713     714
CTETRA      1928       1    5426    3737    2112       4    1462     840+
+           3391     961     842     170
CTETRA      1929       1    2031    2032    2038    3653    2671    2689+
+           2688     719     720    1385
CTETRA      1930       1    5418    5314    5315    3808     454    5397+
+            877     456    5126    5127
CTETRA      1931       1    5416    5417    2169    3816    5505    3321+
+           3322    1510    1487    1554
CTETRA      1932       1    2030    3655    3654    3663      73    4366+
+            783      74    4390    4389
CTETRA      1933       1    2052    3677    2059    3686    1676     408+
+           2745     229    4452     409
CTETRA      1934       1    2163    2170    2169    3807    3046    3045+
+           3044     348    1345     712
CTETRA      1935       1    2040    3659    2047    3668    1132    1483+
+           2713     211    4402    1700
CTETRA      1936       1    2017    2018    2024    3637    2633    2651+
+           2650    1401    1400    1826
CTETRA      1937       1    5434    5435    2043    3672    5487    3285+
+           3286     415     416     626
CTETRA      1938       1    2148    3783    2149    3791     722    1249+
+           2988     723    4742    1177
CTETRA      1939       1    2057    3679    3687    3688     643    4456+
+            957     473    4458    4457
CTETRA      1940       1    5279    5295    5294    3480    5234    5298+
+           5235    1728    5209    5212
CTETRA      1941       1    2018    3636    2025    3645    1405    1573+
+           2653     805    4339      41
CTETRA      1942       1    5417    5314    3808    3816     453    5126+
+            455    1487    5125    4811
CTETRA      1943       1    2051    2058    2057    3687    2742    2741+
+           2740     951     947     957
CTETRA      1944       1    2144    2145    2151    3780    2978    2996+
+           2995     575     892     356
CTETRA      1945       1    2050    3671    3679    3680     215    4434+
+            642     624    4436    4435
CTETRA      1946       1    2142    3775    3774    3782    1683    4697+
+            777    1477    4718    4717
CTETRA      1947       1    5422    5423    2127    3768    5499    3309+
+           3310    1231    1288    1607
CTETRA      1948       1    2031    2038    2037    3662    2688    2687+
+           2686    1827    1072    1071
CTETRA      1949       1    2139    2140    2146    3770    2965    2983+
+           2982     571    1187     572
CTETRA      1950       1    2119    2126    2125    3746    2928    2927+
+           2926    1494    1480    1717
CTETRA      1951       1    2031    3653    2038    3662     719    1385+
+           2688    1827    4386    1072
CTETRA      1952       1    2030    2031    2037    3654    2668    2686+
+           2685     783    1306    1075
CTETRA      1953       1    2058    3678    3686    3687     227    4453+
+            230     947    4455    4454
CTETRA      1954       1    2009    2015    3631    3639    2626    1145+
+           1144      12      14    4324
CTETRA      1955       1    2119    3745    2126    3746    1719    1479+
+           2928    1494    4616    1480
CTETRA      1956       1    2132    2139    2138    3763    2963    2962+
+           2961    1191    1507    1508
CTETRA      1957       1    5428    2105    2098    3721    3394    2871+
+           3395    1367     998    1368
CTETRA      1958       1    5435    2056    3665    3673    3408    1828+
+           1822    1783      84    4416
CTETRA      1959       1    2078    2079    2085    3711    2798    2816+
+           2815    1272     622     942
CTETRA      1960       1    2103    2104    2110    3731    2867    2885+
+           2884    1396    1395    1770
CTETRA      1961       1    2052    2053    2059    3677    2728    2746+
+           2745    1676    1722     408
CTETRA      1962       1    2029    2030    2036    3655    2665    2683+
+           2682     632      73      72
CTETRA      1963       1    2040    2041    2047    3659    2696    2714+
+           2713    1132    1484    1483
CTETRA      1964       1    2109    3732    2110    3740     856     858+
+           2883     715    4601     716
CTETRA      1965       1    2103    3723    2104    3731     386     385+
+           2867    1396    4576    1395
CTETRA      1966       1    2076    3699    3698    3707    1733    4486+
+           1625    1734    4510    4509
CTETRA      1967       1    2070    3689    2077    3698     708     890+
+           2795    1624    4484    1626
CTETRA      1968       1    2087    3709    3717    3718     197    4538+
+            204     198    4540    4539
CTETRA      1969       1    2101    2108    2107    3734    2878    2877+
+           2876     591     592     605
CTETRA      1970       1    2062    3674    3682    3683    1036    4441+
+             67      66    4443    4442
CTETRA      1971       1    2054    2061    2060    3684    2751    2750+
+           2749    1829    1784     753
CTETRA      1972       1    2054    2060    3676    3684    2749    1562+
+           1703    1829     753    4447
CTETRA      1973       1    2068    2075    2074    3700    2789    2788+
+           2787    1830    1688    1116
CTETRA      1974       1    2041    3650    3658    3659    1482    4375+
+            271    1484    4377    4376
CTETRA      1975       1    2088    3709    3708    3716     203    4515+
+            311     313    4536    4535
CTETRA      1976       1    2047    3659    3667    3668    1483    4400+
+            374    1700    4402    4401
CTETRA      1977       1    2080    3701    2081    3709     607    1117+
+           2804    1831    4516    1463
CTETRA      1978       1    2032    2038    3653    3661    2689    1385+
+            720    1394    1386    4384
CTETRA      1979       1    2040    3651    3659    3660     778    4378+
+           1132     210    4380    4379
CTETRA      1980       1    2094    3718    3725    3726    1112    4561+
+           1334     344    4563    4562
CTETRA      1981       1    5429    3712    2085    3720    1774    1832+
+           3297    1833    4547     944
CTETRA      1982       1    2058    3687    3686    3695     947    4454+
+            230     614    4478    4477
CTETRA      1983       1    2037    2043    3663    3671    2702     625+
+             81     226     213    4412
CTETRA      1984       1    5430    2071    2078    3704    3294    2796+
+           3295    1273    1188    1221
CTETRA      1985       1    5436    5332    3656    3664    1580    5163+
+            634     411    5162    4393
CTETRA      1986       1    2095    3716    2096    3724    1431    1684+
+           2845    1432    4557     403
CTETRA      1987       1    2074    2081    2080    3701    2805    2804+
+           2803    1113    1117     607
CTETRA      1988       1    5431    5328    5432    3696     771     770+
+           5490     817    5154     818
CTETRA      1989       1    2012    3635    2019    3636    1495    1136+
+           2637    1634    4313    1574
CTETRA      1990       1    2080    2081    2087    3709    2804    2822+
+           2821    1831    1463     197
CTETRA      1991       1    2018    2024    3637    3645    2651    1826+
+           1400     805     806    4340
CTETRA      1992       1    2068    3692    3691    3700    1736    4467+
+           1660    1830    4491    4490
CTETRA      1993       1    1970    3587    1977    3588    1148     463+
+           2523    1147    4181     460
CTETRA      1994       1    2137    3765    3764    3772     189    4669+
+            187    1390    4690    4689
CTETRA      1995       1    5412    5309    5413    3848     545     544+
+           5509    1529    5116     829
CTETRA      1996       1    2112    3737    3730       2     840    4593+
+           1372     167     841    1004
CTETRA      1997       1    1983    3604    1990    3605    1546    1547+
+           2558     200    4228     202
CTETRA      1998       1    2117    3740    3739    3747    1298    4600+
+           1583    1788    4621    4620
CTETRA      1999       1    1989    1990    1996    3613    2557    2575+
+           2574    1737    1566    1720
CTETRA      2000       1    1990    3605    3604    3613     202    4228+
+           1547    1566    4252    4251
CTETRA      2001       1    1968    1969    1975    3589    2500    2518+
+           2517    1568     800      27
CTETRA      2002       1    2132    3755    3762    3763    1189    4662+
+            627    1191    4664    4663
CTETRA      2003       1    5436    5332    5437    3656    1580    1579+
+           5485     634    5163     233
CTETRA      2004       1    1947    3558    3557    3566    1690    4099+
+            808     810    4123    4122
CTETRA      2005       1    5435    5331    5436    3664    1122    1821+
+           5486     410    5161     411
CTETRA      2006       1    1956    3563    3571    3572     260    4136+
+           1818     995    4138    4137
CTETRA      2007       1    2127    2128    2134    3767    2931    2949+
+           2948    1013     398    1203
CTETRA      2008       1    1961    3574    3573    3582    1156    4143+
+           1155    1091    4167    4166
CTETRA      2009       1    2031    3645    3653    3654     718    4362+
+            719    1306    4364    4363
CTETRA      2010       1    2117    2124    2123    3748    2922    2921+
+           2920    1299    1682    1261
CTETRA      2011       1    1941    1948    1947    3557    2444    2443+
+           2442    1552    1646     808
CTETRA      2012       1    1918    1925    1924    3535    2381    2380+
+           2379    1709    1816     305
CTETRA      2013       1    5427    2105    5428    3721    3393    3394+
+           5494    1454     998    1367
CTETRA      2014       1    1918    3534    1925    3535    1617    1515+
+           2381    1709    4036    1816
CTETRA      2015       1    1892    3500    1899    3509     668    1304+
+           2311     664    3965     665
CTETRA      2016       1    2188    3819    3826    3827    1713    4838+
+           1800     991    4840    4839
CTETRA      2017       1    2125    3747    3746    3754    1786    4619+
+           1717    1718    4640    4639
CTETRA      2018       1    2111    3738    2118    3739    1302    1492+
+           2906    1303    4597    1582
CTETRA      2019       1    5435    2049    5436    3665    3409    3410+
+           5486    1822    1611    1819
CTETRA      2020       1    2124    2125    2131    3755    2924    2942+
+           2941     182    1787     183
CTETRA      2021       1    5459    5460    1868    3480    5462    3234+
+           3236    1258    1322    1729
CTETRA      2022       1    2076    3698    2083    3707    1625    1627+
+           2811    1734    4509    1644
CTETRA      2023       1    1910    3519    1911    3527    1762    1761+
+           2342    1738    4016    1739
CTETRA      2024       1    2109    3740    2116    3741     715     717+
+           2900    1049    4603    1093
CTETRA      2025       1    1903    3511    1904    3519      56    1441+
+           2323    1834    3994    1442
CTETRA      2026       1    1903    1904    1910    3519    2323    2341+
+           2340    1834    1442    1762
CTETRA      2027       1    1903    3519    1910    3520    1834    1762+
+           2340     857    3995    1835
CTETRA      2028       1    2131    3756    3755    3763     185    4644+
+            183    1190    4665    4664
CTETRA      2029       1    2208    3844    3851    3852    1242    4907+
+            497     499    4909    4908
CTETRA      2030       1    2110    3739    2117    3740    1769    1583+
+           2903     716    4600    1298
CTETRA      2031       1    2137    2138    2144    3772    2959    2977+
+           2976    1390     930     932
CTETRA      2032       1    5454    1903    1910    3520    3246    2340+
+           3247    1836     857    1835
CTETRA      2033       1    5324    3720    2092    3728    5147    1745+
+           1716    5146    4569    1468
CTETRA      2034       1    5454    3520    1910    3528    1836    1835+
+           3247      65    4019     302
CTETRA      2035       1    2077    2084    2083    3706    2814    2813+
+           2812    1725    1567    1643
CTETRA      2036       1    1910    3520    3519    3528    1835    3995+
+           1762     302    4019    4018
CTETRA      2037       1    5454    5350    5455    1903    1216    1215+
+           5467    3246    1837    3245
CTETRA      2038       1    2140    2147    2146    3770    2985    2984+
+           2983    1187    1159     572
CTETRA      2039       1    2230    3866    2231    3874     557    1097+
+           3212     142    4969     143
CTETRA      2040       1    2120    3751    2121    3759    1603    1264+
+           2912    1601    4654     372
CTETRA      2041       1    2138    2139    2145    3771    2962    2980+
+           2979    1388     573    1389
CTETRA      2042       1    5455    1903    5350    3512    3245    1837+
+           1215    1572      58    5199
CTETRA      2043       1    5456    5457    1889    3504    5465    3241+
+           3242      59     863     503
CTETRA      2044       1    2166    3796    3795    3803    1296    4754+
+           1089     916    4775    4774
CTETRA      2045       1    1886    1892    3492    3500    2293    1435+
+             71     702     668    3941
CTETRA      2046       1    2163    3798    2164    3806    1090    1094+
+           3029     347    4783    1096
CTETRA      2047       1    1888    3489    1895    3498     425     424+
+           2301     875    3934     725
CTETRA      2048       1    2230    3874    2237    3875     142     144+
+           3229     905    4971     290
CTETRA      2049       1    2151    3781    3780    3788     577    4713+
+            356     358    4734    4733
CTETRA      2050       1    5257    5258    2237    3875    5272     288+
+            669    5095    5096     290
CTETRA      2051       1    1887    1888    1894    3490    2281    2299+
+           2298     519     874    1810
CTETRA      2052       1    5417    2182    2175       8    3372    3080+
+           3373     935    1212     924
CTETRA      2053       1    5417    5418    2162    3808    5504    3319+
+           3320     455     456     713
CTETRA      2054       1    1874    3474    3473    3482    1596    3885+
+            300    1726    3884    3883
CTETRA      2055       1    5457    5352    1902    3497     861    1192+
+           3452    1199    4995    1193
CTETRA      2056       1    2139    3763    3762    3770    1507    4663+
+            629     571    4684    4683
CTETRA      2057       1    2160    3787    3786    3794     383    4729+
+            728    1098    4750    4749
CTETRA      2058       1    5273    5274    5289    1873    5282    5228+
+           5227    3463    3462    1598
CTETRA      2059       1    5273    5289    5288    3474    5227    5304+
+           5226    1595    5221    5223
CTETRA      2060       1    2159    2160    2166    3795    3019    3037+
+           3036     578     579    1089
CTETRA      2061       1    5448    5344    1945    3568    1214    1651+
+           3258    1838    5186    1652
CTETRA      2062       1    2068    3691    2075    3700    1660    1686+
+           2789    1830    4490    1688
CTETRA      2063       1    2183    3824    3831    3832    1673    4853+
+            330     851    4855    4854
CTETRA      2064       1    5448    5343    5344    3568     246    5368+
+           1214    1838    5185    5186
CTETRA      2065       1    5448    5344    5343    3569    1214    5368+
+            246     470    5014    5013
CTETRA      2066       1    2167    3802    2174    3803     983     984+
+           3058    1059    4773     919
CTETRA      2067       1    2145    3772    3779    3780     931    4709+
+            891     892    4711    4710
CTETRA      2068       1    2079    2080    2086    3710    2801    2819+
+           2818     621     608     206
CTETRA      2069       1    2078    3711    2085    3712    1272     942+
+           2815    1223    4523    1832
CTETRA      2070       1    2182    3817    2189    3818      88    1791+
+           3099    1799    4814    1790
CTETRA      2071       1    2085    3711    2086    3719     942     939+
+           2817     943    4544     208
CTETRA      2072       1    5429    5325    3712    3720    1776    5149+
+           1774    1833    5148    4547
CTETRA      2073       1    2181    3818    2188    3819    1078    1807+
+           3096     914    4817    1713
CTETRA      2074       1    2055    3675    3674    3683    1039    4420+
+             78    1037    4444    4443
CTETRA      2075       1    2065    3695    3694    3703     615    4476+
+            813    1421    4500    4499
CTETRA      2076       1    5416    5312    5313    3824    1839    5399+
+           1758    1840    5122    5123
CTETRA      2077       1    5415    5312    3824    3832    1747    5122+
+           1672     853    5121    4855
CTETRA      2078       1    2208    2215    2214    3852    3169    3168+
+           3167     499     500     911
CTETRA      2079       1    2105    2112    3730       2    2890    1372+
+           1002    1003     167    1004
CTETRA      2080       1    5311    3840    3832       5    5119    4877+
+           5120     846     392    1020
CTETRA      2081       1    1909    1916    1915    3522    2358    2357+
+           2356    1439    1711     759
CTETRA      2082       1    5453    5349    5348    3529      62    5363+
+           1183    1813    5004    5003
CTETRA      2083       1    5408    5516    5515    5256    1662    1852+
+           5514     295    5269    1861
CTETRA      2084       1    1922    1929    1928    3531    2393    2392+
+           2391     762    1654    1200
CTETRA      2085       1    5411    2204    2211    3856    3332    3157+
+           3333    1715    1503    1780
CTETRA      2086       1    5348    1930    3529    3537    1185     854+
+           5003    5006     484    4042
CTETRA      2087       1    2188    3819    3818    3826    1713    4817+
+           1807    1800    4838    4837
CTETRA      2088       1    2058    2065    2064    3695    2761    2760+
+           2759     614     615     617
CTETRA      2089       1    1909    3505    3513    3514    1457    3976+
+            437    1438    3978    3977
CTETRA      2090       1    2150    3789    2157    3790     583    1414+
+           3011    1257    4738    1540
CTETRA      2091       1    5454    1916    5350    3521    3447    1217+
+           1216    1730    1710    5002
CTETRA      2092       1    5454    5349    1923    3521      63    1812+
+           3446    1730    5001    1731
CTETRA      2093       1    5414    5311    5310    3825     843    5401+
+            609    1411    5078    5079
CTETRA      2094       1    2174    2181    2180    3811    3077    3076+
+           3075     826    1076     827
CTETRA      2095       1    5415    5416    5312    3817    5506    1839+
+           1747    1678    1841    5076
CTETRA      2096       1    5454    5349    3520    3528      63    5197+
+           1836      65    5196    4019
CTETRA      2097       1    2150    3782    3781    3789    1253    4716+
+            582     583    4737    4736
CTETRA      2098       1    5243    5259    5244    2236    1866    1858+
+           5254    3349    1234    3348
CTETRA      2099       1    2119    3738    3745    3746    1375    4615+
+           1719    1494    4617    4616
CTETRA      2100       1    2118    3739    3746    3747    1582    4618+
+           1493    1789    4620    4619
CTETRA      2101       1    2209    3842    2210    3850     333    1046+
+           3155     334    4903     147
CTETRA      2102       1    5412    5413    2197    3848    5509    3329+
+           3330    1529     829     830
CTETRA      2103       1    2193    2194    2200    3836    3111    3129+
+           3128     489     570    1245
CTETRA      2104       1    5245    5260    2234    2235    1856    1325+
+           3345    3346    1543    3222
CTETRA      2105       1    2223    3859    3858    3866     897    4927+
+            138     140    4948    4947
CTETRA      2106       1    2191    3838    2198    3839     327    1594+
+           3122    1018    4873    1019
CTETRA      2107       1    2225    3872    3879    3880    1267    4985+
+           1269    1804    4987    4986
CTETRA      2108       1    2211    3856    3863    3864    1780    4941+
+           1500    1781    4943    4942
CTETRA      2109       1    2125    3754    2132    3755    1718    1689+
+           2944    1787    4641    1189
CTETRA      2110       1    5408    5516    5305    5263    1662    5407+
+           1064    1765    5264    5107
CTETRA      2111       1    2117    3747    2124    3748    1788    1842+
+           2922    1299    4622    1682
CTETRA      2112       1    2117    3740    3747    3748    1298    4621+
+           1788    1299    4623    4622
CTETRA      2113       1    5515    5247    5263    2232    5248    1853+
+           1851    3340    3341    1802
CTETRA      2114       1    2227    2228    2234    3877    3203    3221+
+           3220    1446    1329    1326
CTETRA      2115       1    2226    3871    3878    3879    1327    4982+
+           1328    1265    4984    4983
CTETRA      2116       1    2205    2206    2212    3854    3143    3161+
+           3160    1061    1640    1498
CTETRA      2117       1    5408    2232    5263    3880    3339    1802+
+           1765    1803    1805    5106
CTETRA      2118       1    2215    3852    3859    3860     500    4929+
+            696     909    4931    4930
CTETRA      2119       1    2183    3824    3823    3831    1673    4832+
+            328     330    4853    4852
CTETRA      2120       1    2200    3836    2201    3844    1245    1032+
+           3130    1408    4887    1241
CTETRA      2121       1    2124    3748    3747    3755    1682    4622+
+           1842     182    4643    4642
CTETRA      2122       1    5416    5313    3816    3824    1758    5124+
+           1510    1840    5123    4833
CTETRA      2123       1    2166    3796    3803    3804    1296    4775+
+            916     164    4777    4776
CTETRA      2124       1    5448    1945    1952    3568    3258    2454+
+           3259    1838    1652    1843
CTETRA      2125       1    2159    2166    2165    3796    3036    3035+
+           3034     180    1296     181
CTETRA      2126       1    2119    3738    3737    3745    1375    4594+
+           1374    1719    4615    4614
CTETRA      2127       1    5447    5343    5448    1952     247     246+
+           5474    3260    1723    3259
CTETRA      2128       1    1951    1958    1957    3562    2472    2471+
+           2470     815    1119     816
CTETRA      2129       1    1961    1968    1967    3582    2498    2497+
+           2496    1091    1092    1706
CTETRA      2130       1    2061    2068    2067    3692    2770    2769+
+           2768    1785    1736    1735
CTETRA      2131       1    5424    2133    2126    3753    3386    2947+
+           3387     123    1081    1080
CTETRA      2132       1    1967    3583    3582    3591    1741    4168+
+           1706    1126    4192    4191
CTETRA      2133       1    1959    3583    1966    3584     468    1742+
+           2492     469    4171    1146
CTETRA      2134       1    5445    1966    1973    3592    3264    2511+
+           3265    1823    1133     796
CTETRA      2135       1    1918    3526    3534    3535    1619    4035+
+           1617    1709    4037    4036
CTETRA      2136       1    2133    3754    3753    3761    1083    4638+
+           1081    1085    4659    4658
CTETRA      2137       1    5430    5327    5326    3705    1527    5385+
+           1526     490    5048    5047
CTETRA      2138       1    2049    3665    2056    3674    1611    1828+
+           2738      76    4418      77
CTETRA      2139       1    2151    3781    3788    3789     577    4734+
+            358     584    4736    4735
CTETRA      2140       1    2079    3702    2080    3710     620     606+
+           2801     621    4519     608
CTETRA      2141       1    2137    3764    2138    3772     187     937+
+           2959    1390    4689     930
CTETRA      2142       1    2116    2117    2123    3748    2902    2920+
+           2919    1260    1299    1261
CTETRA      2143       1    2067    3684    3692    3693     754    4469+
+           1735     756    4471    4470
CTETRA      2144       1    2120    3759    2127    3760    1601    1012+
+           2929     882    4655     883
CTETRA      2145       1    5422    2147    2140    3769    3382    2985+
+           3383    1633    1166    1186
CTETRA      2146       1    2134    3768    3767    3775    1608    4678+
+           1203    1205    4699    4698
CTETRA      2147       1    5423    5320    5424    2120    1287     122+
+           5498    3308    1746    3307
CTETRA      2148       1    5416    2189    2182    3817    3370    3099+
+           3371    1841    1791      88
CTETRA      2149       1    5430    5326    3704    3712    1526    5151+
+           1273    1775    5150    4525
CTETRA      2150       1    2099    3735    2106    3736    1481     341+
+           2872     368    4589     340
CTETRA      2151       1    5430    3704    2078    3712    1273    1221+
+           3295    1775    4525    1223
CTETRA      2152       1    2096    3716    3723    3724    1684    4555+
+            396     403    4557    4556
CTETRA      2153       1    2066    3685    3693    3694     405    4472+
+            272     407    4474    4473
CTETRA      2154       1    2118    3746    2125    3747    1493    1717+
+           2925    1789    4619    1786
CTETRA      2155       1    2094    2095    2101    3725    2842    2860+
+           2859    1334    1336    1335
CTETRA      2156       1    2071    2072    2078    3703    2779    2797+
+           2796    1420    1415    1222
CTETRA      2157       1    2092    3719    2093    3727    1109    1104+
+           2836    1467    4566     940
CTETRA      2158       1    2072    2078    3703    3711    2797    1222+
+           1415    1271    1272    4522
CTETRA      2159       1    2033    2034    2040    3651    2677    2695+
+           2694     419     767     778
CTETRA      2160       1    2068    3683    3691    3692    1631    4466+
+           1660    1736    4468    4467
CTETRA      2161       1    2045    3670    3669    3678    1665    4407+
+           1796    1339    4431    4430
CTETRA      2162       1    2054    3675    2061    3684    1038    1040+
+           2751    1829    4446    1784
CTETRA      2163       1    5410    5411    2211    3864    5511    3333+
+           3334    1844    1777    1781
CTETRA      2164       1    2225    2226    2232    3879    3197    3215+
+           3214    1269    1265    1266
CTETRA      2165       1    2191    3831    3838    3839     325    4872+
+            327    1018    4874    4873
CTETRA      2166       1    2009    2016    2015    3639    2628    2627+
+           2626      12      13      14
CTETRA      2167       1    2184    3823    3830    3831     329    4850+
+           1088     331    4852    4851
CTETRA      2168       1    1988    1989    1995    3614    2554    2572+
+           2571    1348    1825    1349
CTETRA      2169       1    5443    2000    1993    3609    3424    2586+
+           3425     244      17      16
CTETRA      2170       1    1981    3598    3606    3607    1407    4233+
+           1691     133    4235    4234
CTETRA      2171       1    2175    3802    3809    3810     982    4791+
+           1211    1764    4793    4792
CTETRA      2172       1    2181    3811    3818    3819    1076    4816+
+           1078     914    4818    4817
CTETRA      2173       1    2162    2163    2169    3807    3026    3044+
+           3043     354     348     712
CTETRA      2174       1    1948    3556    3564    3565    1285    4117+
+           1283    1428    4119    4118
CTETRA      2175       1    2185    2192    2191    3830    3106    3105+
+           3104    1592    1763     326
CTETRA      2176       1    5445    5340    5341    3592     652    5371+
+            446    1823    5179    5180
CTETRA      2177       1    5415    2189    5416    3817    3369    3370+
+           5506    1678    1791    1841
CTETRA      2178       1    5416    5313    5312    3809    1758    5399+
+           1839    1458    5074    5075
CTETRA      2179       1    2029    3647    3655    3656     795    4368+
+            632     631    4370    4369
CTETRA      2180       1    2185    3829    2192    3830     466    1079+
+           3106    1592    4848    1763
CTETRA      2181       1    2020    3634    2021    3642     637     636+
+           2642     644    4331     645
CTETRA      2182       1    1950    3554    3562    3563     822    4111+
+            814     258    4113    4112
CTETRA      2183       1    2021    3634    3633    3642     636    4307+
+            966     645    4331    4330
CTETRA      2184       1    1932    3542    1933    3550    1743    1517+
+           2402    1845    4079    1653
CTETRA      2185       1    5460    5355    5517    5295    1319    1707+
+           5461    1663    5210    5233
CTETRA      2186       1    1885    3492    1892    3501    1657    1435+
+           2292    1519    3943     667
CTETRA      2187       1    2160    2161    2167    3794    3022    3040+
+           3039    1098     732    1218
CTETRA      2188       1    5439    2021    3633    3641    3417     966+
+            529     524     526    4328
CTETRA      2189       1    5434    3673    5330    3681    1754    5039+
+            413    1537    4438    5042
CTETRA      2190       1    5460    5295    5279    3480    1663    5234+
+           3233    1322    5209    1728
CTETRA      2191       1    1926    1927    1933    3541    2386    2404+
+           2403    1511     494    1294
CTETRA      2192       1    5456    5352    5457    3504    1402     861+
+           5465      59    5202     863
CTETRA      2193       1    5288    3473    1874    3474    4990     300+
+           1521    5223    3885    1596
CTETRA      2194       1    2060    2061    2067    3684    2750    2768+
+           2767     753    1784     754
CTETRA      2195       1    5277    5278    5293    1869    5286    5240+
+           5238    3471    3470    1628
CTETRA      2196       1    5517    5288    5518    3473    5224    5296+
+           5225     301    4990    4989
CTETRA      2197       1    5350    1916    3513    3521    1217     436+
+           4999    5002    1710    3998
CTETRA      2198       1    2039    2045    3661    3669    2708    1795+
+           1364     427    1796    4406
CTETRA      2199       1    5433    2050    2057    3688    3288    2739+
+           3289     475     958     473
CTETRA      2200       1    5454    5350    5349    3521    1216    5362+
+             63    1730    5002    5001
CTETRA      2201       1    1911    3519    3518    3527    1761    3992+
+           1755    1739    4016    4015
CTETRA      2202       1    5454    5350    1903    3520    1216    1837+
+           3246    1836    5198     857
CTETRA      2203       1    2067    3692    2074    3701    1735    1387+
+           2786    1300    4493    1113
CTETRA      2204       1    1910    3527    1917    3528    1738    1518+
+           2359     302    4017     303
CTETRA      2205       1    1909    3513    1916    3522     437     436+
+           2358    1439    4000    1711
CTETRA      2206       1    2036    3664    3663    3672     412    4391+
+             75     630    4415    4414
CTETRA      2207       1    1929    1930    1936    3538    2395    2413+
+           2412      39     736     737
CTETRA      2208       1    5438    2028    3641    3649    3415     525+
+           1069    1070    1207    4350
CTETRA      2209       1    1916    3521    1923    3530    1710    1731+
+           2377    1814    4022    1815
CTETRA      2210       1    3801       8    3809       9     925    1213+
+           4790    1846    1520    1460
CTETRA      2211       1    2170    2177    2176    3815    3065    3064+
+           3063    1347    1602    1768
CTETRA      2212       1    2175    3802    3801    3809     982    4770+
+            921    1211    4791    4790
CTETRA      2213       1    1902    1909    1908    3514    2339    2338+
+           2337    1793    1438    1794
CTETRA      2214       1    5453    5454    5349    1923    5468      63+
+             62    3445    3446    1812
CTETRA      2215       1    5455    1909    5351    3513    3449    1456+
+           1571     435     437    5000
CTETRA      2216       1    5416    2169    2176    3816    3322    3062+
+           3323    1510    1554    1767
CTETRA      2217       1    1902    3505    1909    3514    1194    1457+
+           2339    1793    3978    1438
CTETRA      2218       1    5453    5454    1910    3528    5468    3247+
+           3248      64      65     302
CTETRA      2219       1    2168    2175    2174    3802    3061    3060+
+           3059     981     982     984
CTETRA      2220       1    2175    2182    2181    3810    3080    3079+
+           3078    1764      86    1077
CTETRA      2221       1    1887    1894    1893    3499    2298    2297+
+           2296     520     309     308
CTETRA      2222       1    2174    2175    2181    3810    3060    3078+
+           3077     920    1764    1077
CTETRA      2223       1    5313    3801    3809       9    5073    4790+
+           5074    1759    1846    1460
CTETRA      2224       1    2213    2214    2220    3861    3165    3183+
+           3182    1639    1471    1331
CTETRA      2225       1    1974    3590    3598    3599    1693    4211+
+           1406     894    4213    4212
CTETRA      2226       1    1872    1878    3476    3484    2252     676+
+            675    1141    1026    3892
CTETRA      2227       1    5458    3488    1875    3496      99    1451+
+           3238     100    3931    1182
CTETRA      2228       1    1973    3591    1974    3600    1127    1847+
+           2513     798    4216    1410
CTETRA      2229       1    2218    3864    3871    3872     521    4963+
+            523    1548    4965    4964
CTETRA      2230       1    5409    2218    2225    3872    3336    3195+
+           3337     971    1548    1267
CTETRA      2231       1    2211    3863    2218    3864    1500     522+
+           3176    1781    4942     521
CTETRA      2232       1    1910    3519    3527    3528    1762    4016+
+           1738     302    4018    4017
CTETRA      2233       1    1894    1901    1900    3507    2317    2316+
+           2315     320     292     321
CTETRA      2234       1    5291    3476    1871    3477    5217     674+
+            297    5218    3897     150
CTETRA      2235       1    5428    5325    5429    3720    1848    1776+
+           5493    1744    5148    1833
CTETRA      2236       1    5428    5429    2085    3720    5493    3297+
+           3298    1744    1833     944
CTETRA      2237       1    5428    5429    5325    3713    5493    1776+
+           1848    1366    1383    5049
CTETRA      2238       1    5258    2236    3875    3876     287     289+
+           5096    5097    1236    4974
CTETRA      2239       1    5446    1959    1966    3584    3262    2492+
+           3263    1124     469    1146
CTETRA      2240       1    5427    2112    2105       2    3392    2890+
+           3393     511     167    1003
CTETRA      2241       1    1909    1915    3514    3522    2356    1797+
+           1438    1439     759    4001
CTETRA      2242       1    1895    3497    1902    3506     859    1193+
+           2320     871    3956     872
CTETRA      2243       1    1952    3575    1959    3576      33     467+
+           2473      34    4149    1748
CTETRA      2244       1    5257    2237    3874    3875     669     144+
+           5094    5095     290    4971
CTETRA      2245       1    5259    2235    3876    3877    1233    1237+
+           5098    5099    1330    4977
CTETRA      2246       1    1939    3550    1940    3558    1669    1668+
+           2421    1666    4101    1667
CTETRA      2247       1    1923    3529    1929    3530    1811    1324+
+           2394    1815    4021      38
CTETRA      2248       1    1941    3548    3556    3557    1291    4095+
+           1433    1552    4097    4096
CTETRA      2249       1    5241    5257    5242    2238    1863    1864+
+           5253    3353     560    3352
CTETRA      2250       1    5453    5348    1930    3529    1183    1185+
+           3444    1813    5003     854
CTETRA      2251       1    1901    3498    3506    3507     726    3957+
+            873     292    3959    3958
CTETRA      2252       1    1943    3547    3546    3555    1311    4068+
+            479    1307    4092    4091
CTETRA      2253       1    5245    5261    5246    2234    1857    1860+
+           5251    3345     682    3344
CTETRA      2254       1    5427       3    2112       2     510     169+
+           3392     511     168     167
CTETRA      2255       1    1897    3502    3510    3511    1315    3969+
+           1553    1670    3971    3970
CTETRA      2256       1    2218    2219    2225    3871    3178    3196+
+           3195     523     528    1268
CTETRA      2257       1    2192    3837    2199    3838    1246    1539+
+           3125    1593    4870    1659
CTETRA      2258       1    1879    3484    3483    3492    1027    3890+
+           1779    1771    3919    3918
CTETRA      2259       1    2176    3815    2177    3823    1768    1602+
+           3064    1589    4830    1590
CTETRA      2260       1    1913    3517    3516    3525    1297    3986+
+            284    1021    4010    4009
CTETRA      2261       1    1901    3506    1908    3515     873    1792+
+           2336     293    3981    1434
CTETRA      2262       1    1906    3508    3516    3517     739    3985+
+            741      45    3987    3986
CTETRA      2263       1    2177    3815    3822    3823    1602    4828+
+           1377    1590    4830    4829
CTETRA      2264       1    1937    3537    3545    3546     483    4064+
+            485    1313    4066    4065
CTETRA      2265       1    1947    3565    1954    3566     809     807+
+           2460     810    4121     802
CTETRA      2266       1    1988    3607    3606    3615     137    4234+
+           1692     126    4258    4257
CTETRA      2267       1    2184    2185    2191    3830    3086    3104+
+           3103    1088    1592     326
CTETRA      2268       1    2177    3822    2184    3823    1377    1087+
+           3084    1590    4829     329
CTETRA      2269       1    5416    3816    2176    3824    1510    1767+
+           3323    1840    4833    1766
CTETRA      2270       1    1922    3530    1929    3531    1817      38+
+           2393     762    4024    1654
CTETRA      2271       1    2188    3826    2195    3827    1800     568+
+           3115     991    4839     567
CTETRA      2272       1    2189    3825    2196    3826    1677    1010+
+           3118    1801    4836    1009
CTETRA      2273       1    2176    3816    3815    3823    1767    4810+
+           1768    1589    4831    4830
CTETRA      2274       1    2178    3813    2179    3821     338     177+
+           3070     339    4824     918
CTETRA      2275       1    5243    5258    5259    2236    1865    5271+
+           1866    3349     287    1234
CTETRA      2276       1    5457    1902    1895    3497    3452    2320+
+           3453    1199    1193     859
CTETRA      2277       1    2176    3823    2183    3824    1589     328+
+           3081    1766    4832    1673
CTETRA      2278       1    1941    1942    1948    3556    2427    2445+
+           2444    1433     834    1285
CTETRA      2279       1    2161    3793    2168    3794     731     985+
+           3042     732    4748     979
CTETRA      2280       1    2167    3794    2168    3802    1218     979+
+           3041     983    4771     981
CTETRA      2281       1    1908    1915    1914    3523    2355    2354+
+           2353    1798    1224     278
CTETRA      2282       1    1888    1895    1894    3498    2301    2300+
+           2299     875     725     724
CTETRA      2283       1    3729       2    3737       4     512     841+
+           4592     839     171     842
CTETRA      2284       1    5320    3752    2120    3760    5139     543+
+           1746    5138    4657     882
CTETRA      2285       1    1936    3537    1937    3546     735     483+
+           2414    1312    4066    1313
CTETRA      2286       1    1949    1950    1956    3563    2449    2467+
+           2466     820     258     260
CTETRA      2287       1    1935    3547    1942    3548     734     832+
+           2428      37    4071    1430
CTETRA      2288       1    2120    3751    3759    3760    1603    4654+
+           1601     882    4656    4655
CTETRA      2289       1    2125    2126    2132    3754    2927    2945+
+           2944    1718    1082    1689
CTETRA      2290       1    1902    3506    3505    3514     872    3955+
+           1194    1793    3979    3978
CTETRA      2291       1    2097    3722    2104    3723     752    1001+
+           2868     384    4553     385
CTETRA      2292       1    1927    1928    1934    3540    2389    2407+
+           2406    1017     662     835
CTETRA      2293       1    2083    2084    2090    3706    2813    2831+
+           2830    1643    1567    1609
CTETRA      2294       1    2104    3723    3722    3730     385    4553+
+           1001    1149    4574    4573
CTETRA      2295       1    5273    5288    1874    3474    5226    1521+
+           3460    1595    5223    1596
CTETRA      2296       1    2062    2068    3683    3691    2771    1631+
+             66      68    1660    4466
CTETRA      2297       1    5460    1881    1874    3473    3458    2263+
+           3459     299    1772     300
CTETRA      2298       1    1912    3517    3525    3526      46    4010+
+           1588    1591    4012    4011
CTETRA      2299       1    5423    5424    5320    3753    5498     122+
+           1287    1248     123    5060
CTETRA      2300       1    2069    3690    2076    3699    1392    1623+
+           2792    1685    4487    1733
CTETRA      2301       1    2126    2133    2132    3754    2947    2946+
+           2945    1082    1083    1689
CTETRA      2302       1    2096    3716    3715    3723    1684    4534+
+            394     396    4555    4554
CTETRA      2303       1    2061    3683    2068    3692    1115    1631+
+           2770    1785    4468    1736
CTETRA      2304       1    1936    3538    3537    3546     737    4043+
+            735    1312    4067    4066
CTETRA      2305       1    2054    3676    3675    3684    1703    4423+
+           1038    1829    4447    4446
CTETRA      2306       1    2023    3646    2030    3655    1753     782+
+           2666    1809    4367      73
CTETRA      2307       1    2132    3754    2133    3762    1689    1083+
+           2946     627    4661     628
CTETRA      2308       1    2047    2054    2053    3676    2732    2731+
+           2730    1702    1703    1561
CTETRA      2309       1    5344    1958    3561    3569    1202     267+
+           5011    5014     268    4130
CTETRA      2310       1    5445    1979    5341    3593    3429     870+
+            446     653    1341    5020
CTETRA      2311       1    2048    2055    2054    3675    2735    2734+
+           2733    1610    1039    1038
CTETRA      2312       1    2046    3660    3668    3669     209    4403+
+            212     428    4405    4404
CTETRA      2313       1    5349    1923    3521    3529    1812    1731+
+           5001    5004    1811    4020
CTETRA      2314       1    2038    3661    2045    3670    1386    1795+
+           2707    1074    4408    1665
CTETRA      2315       1    2219    2226    2225    3871    3198    3197+
+           3196     528    1327    1268
CTETRA      2316       1    2219    3863    3870    3871     527    4960+
+            688     528    4962    4961
CTETRA      2317       1    5417    5418    5314       8    5504     454+
+            453     935     923    1558
CTETRA      2318       1    5441    2014    2007    3625    3420    2624+
+           3421    1696     638     444
CTETRA      2319       1    1932    1933    1939    3550    2402    2420+
+           2419    1845    1653    1669
CTETRA      2320       1    2014    3633    2021    3634     639     966+
+           2643     635    4307     636
CTETRA      2321       1    1988    3606    1989    3614    1692    1824+
+           2554    1348    4255    1825
CTETRA      2322       1    2013    2014    2020    3634    2623    2641+
+           2640     959     635     637
CTETRA      2323       1    2212    2219    2218    3863    3179    3178+
+           3177    1501     527     522
CTETRA      2324       1    2004    3621    3620    3629     221    4272+
+           1338     222    4296    4295
CTETRA      2325       1    2011    2017    3629    3637    2632    1139+
+            225    1399    1401    4318
CTETRA      2326       1    1947    3557    1948    3565     808    1646+
+           2443     809    4120    1428
CTETRA      2327       1    2001    3624    3623    3632    1158    4281+
+           1398    1363    4305    4304
CTETRA      2328       1    2003    2010    2009    3630    2612    2611+
+           2610    1760     785      10
CTETRA      2329       1    1989    3613    1996    3614    1737    1720+
+           2574    1825    4253    1605
CTETRA      2330       1    1967    1968    1974    3590    2497    2515+
+           2514    1782    1569    1693
CTETRA      2331       1    1967    3582    1968    3590    1706    1092+
+           2497    1782    4189    1569
CTETRA      2332       1    1963    3572    3571    3580    1476    4137+
+           1344    1475    4161    4160
CTETRA      2333       1    1968    1975    1974    3590    2517    2516+
+           2515    1569      26    1693
CTETRA      2334       1    1948    3556    1949    3564    1285    1284+
+           2446    1283    4117     821
CTETRA      2335       1    1956    3564    3563    3572     992    4115+
+            260     995    4139    4138
CTETRA      2336       1    5445    5341    1966    3592     446     448+
+           3264    1823    5180    1133
CTETRA      2337       1    1995    3615    3623    3624    1350    4280+
+           1397    1157    4282    4281
CTETRA      2338       1    2202    2209    2208    3843    3153    3152+
+           3151    1052     332    1240
CTETRA      2339       1    1995    3615    3614    3623    1350    4256+
+           1349    1397    4280    4279
CTETRA      2340       1    5412    5309    3848    3856     545    5116+
+           1529    1530    5115    4921
CTETRA      2341       1    5412    2197    2204    3848    3330    3138+
+           3331    1529     830    1502
CTETRA      2342       1    2018    3637    3636    3645    1400    4316+
+           1405     805    4340    4339
CTETRA      2343       1    2197    3847    2204    3848     973     975+
+           3138     830    4898    1502
CTETRA      2344       1    1946    1947    1953    3566    2440    2458+
+           2457    1152     810      30
CTETRA      2345       1    2197    3840    3847    3848     390    4897+
+            973     830    4899    4898
CTETRA      2346       1    1945    3567    1952    3568    1585      32+
+           2454    1652    4127    1843
CTETRA      2347       1    1952    3568    3567    3576    1843    4127+
+             32      34    4151    4150
CTETRA      2348       1    2019    3636    3635    3644    1574    4313+
+           1136    1138    4337    4336
CTETRA      2349       1    5422    2140    5423    3761    3383    3384+
+           5499     115    1084     116
CTETRA      2350       1    2005    3619    3627    3628    1277    4290+
+           1473    1226    4292    4291
CTETRA      2351       1    1946    3558    1947    3566    1151    1690+
+           2440    1152    4123     810
CTETRA      2352       1    1990    3604    1991    3612    1547    1635+
+           2560    1416    4249    1417
CTETRA      2353       1    1974    1975    1981    3598    2516    2534+
+           2533    1406      28    1407
CTETRA      2354       1    1985    3594    3602    3603     660    4221+
+           1196    1274    4223    4222
CTETRA      2355       1    1925    3542    1932    3543    1756    1743+
+           2400    1757    4058    1523
CTETRA      2356       1    2010    3629    2017    3638     223    1139+
+           2631     786    4320    1751
CTETRA      2357       1    1990    3612    1997    3613    1416    1418+
+           2577    1566    4250    1721
CTETRA      2358       1    1932    3542    3550    3551    1743    4079+
+           1845    1525    4081    4080
CTETRA      2359       1    5423    3753    5319    3761    1248    5061+
+            113     116    4658    5062
CTETRA      2360       1    1928    3532    3531    3540     978    4027+
+           1200     662    4051    4050
CTETRA      2361       1    1931    1932    1938    3551    2399    2417+
+           2416    1524    1525    1570
CTETRA      2362       1    1956    3571    1963    3572    1818    1344+
+           2485     995    4137    1476
CTETRA      2363       1    2125    2132    2131    3755    2944    2943+
+           2942    1787    1189     183
CTETRA      2364       1    1899    1906    1905    3517    2330    2329+
+           2328    1655      45      44
CTETRA      2365       1    2131    2132    2138    3763    2943    2961+
+           2960    1190    1191    1508
CTETRA      2366       1    2042    3649    3657    3658    1575    4372+
+           1577      96    4374    4373
CTETRA      2367       1    1925    1932    1931    3543    2400    2399+
+           2398    1757    1523     316
CTETRA      2368       1    5441    1994    2001    3624    3272    2587+
+           3273    1263    1142    1158
CTETRA      2369       1    5437    3649    5333    3657    1232    5033+
+            231    1576    4372    5036
CTETRA      2370       1    5437    5333    5332    3657     231    5379+
+           1579    1576    5036    5035
CTETRA      2371       1    5450    1938    5345    3552    3255     161+
+            178     531     319    5189
CTETRA      2372       1    1945    3559    3567    3568     478    4126+
+           1585    1652    4128    4127
CTETRA      2373       1    5449    1945    5344    3560    3257    1651+
+           1201     162    1650    5187
CTETRA      2374       1    5455    5456    1896    3512    5466    3243+
+           3244    1572      61      57
CTETRA      2375       1    2088    2089    2095    3716    2826    2844+
+           2843     313     314    1431
CTETRA      2376       1    5455    5456    5351    1909    5466    1455+
+           1571    3449    3450    1456
CTETRA      2377       1    5451    5346    1944    3545     377     379+
+           3440     837    5007     486
CTETRA      2378       1    1904    3510    3518    3519    1102    3991+
+           1656    1442    3993    3992
CTETRA      2379       1    5246    5262    5247    2233    1855    1854+
+           5249    3343     693    3342
CTETRA      2380       1    5409    5410    2218    3872    5512    3335+
+           3336     971     972    1548
CTETRA      2381       1    5262    2232    3879    3880    1849    1266+
+           5104    5105    1805    4986
CTETRA      2382       1    1986    3594    3593    3602    1195    4197+
+            549    1197    4221    4220
CTETRA      2383       1    2082    2089    2088    3708    2827    2826+
+           2825     749     312     311
CTETRA      2384       1    5247    5262    2232    2233    1854    1849+
+           3341    3342     693    3216
CTETRA      2385       1    2031    2037    3654    3662    2686    1075+
+           1306    1827    1071    4387
CTETRA      2386       1    2045    2046    2052    3669    2709    2727+
+           2726    1796     428    1675
CTETRA      2387       1    2053    3668    3676    3677    1701    4425+
+           1561    1722    4427    4426
CTETRA      2388       1    2220    2227    2226    3870    3201    3200+
+           3199     689    1448    1057
CTETRA      2389       1    2039    2046    2045    3669    2710    2709+
+           2708     427     428    1796
CTETRA      2390       1    1937    3545    1943    3546     485     480+
+           2432    1313    4065     479
CTETRA      2391       1    5452    5347    1937    3537    1173    1174+
+           3442     482    5005     483
CTETRA      2392       1    2012    2013    2019    3635    2620    2638+
+           2637    1495     440    1136
CTETRA      2393       1    1997    3612    1998    3620    1418    1636+
+           2579    1337    4271    1278
CTETRA      2394       1    5289    3474    1873    3475    5221    1597+
+           1598    5222    3889    1465
CTETRA      2395       1    5418    3801    5314       8     922    5072+
+            454     923     925    1558
CTETRA      2396       1    2032    3652    2039    3661      52      54+
+           2691    1394    4383    1364
CTETRA      2397       1    1980    1981    1987    3608    2532    2550+
+           2549     794     135     136
CTETRA      2398       1    5343    3568    1952    3576    5185    1843+
+           1723    5184    4151      34
CTETRA      2399       1    1945    1946    1952    3567    2437    2455+
+           2454    1585    1153      32
CTETRA      2400       1    2047    3668    3667    3676    1700    4401+
+            374    1702    4425    4424
CTETRA      2401       1    1952    1953    1959    3575    2456    2474+
+           2473      33      31     467
CTETRA      2402       1    2016    3638    2023    3647     784    1750+
+           2647     779    4345     780
CTETRA      2403       1    2023    2029    3647    3655    2664     795+
+            780    1809     632    4368
CTETRA      2404       1    1980    3599    1981    3608     893     791+
+           2532     794    4238     135
CTETRA      2405       1    5435    3665    5331    3673    1822    5037+
+           1122    1783    4416    5040
CTETRA      2406       1    1981    3599    3598    3607     791    4212+
+           1407     133    4236    4235
CTETRA      2407       1    2017    3629    3637    3638    1139    4318+
+           1401    1751    4320    4319
CTETRA      2408       1    5428    5324    5325    3720    1384    5387+
+           1848    1744    5147    5148
CTETRA      2409       1    2008    3632    3631    3640     537    4303+
+           1143     901    4327    4326
CTETRA      2410       1    2024    3637    3645    3646    1826    4340+
+            806     787    4342    4341
CTETRA      2411       1    5410    5307    3864    3872     699    5112+
+           1844     972    5111    4965
CTETRA      2412       1    2069    2070    2076    3690    2775    2793+
+           2792    1392    1008    1623
CTETRA      2413       1    1982    3605    1989    3606     199     201+
+           2555    1694    4231    1824
CTETRA      2414       1    2042    3658    3657    3666      96    4373+
+           1577      97    4397    4396
CTETRA      2415       1    2225    3879    2232    3880    1269    1266+
+           3214    1804    4986    1805
CTETRA      2416       1    2109    3733    3732    3740     847    4581+
+            856     715    4602    4601
CTETRA      2417       1    5410    5306    5307    3872     700    5405+
+            699     972    5110    5111
CTETRA      2418       1    5410    2211    2218    3864    3334    3176+
+           3335    1844    1781     521
CTETRA      2419       1    5434    5435    5330    3673    5487     414+
+            413    1754    1783    5039
CTETRA      2420       1    2067    3693    3692    3701     756    4470+
+           1735    1300    4494    4493
CTETRA      2421       1    2086    3710    2087    3718     206     196+
+           2820     207    4541     198
CTETRA      2422       1    2124    3747    2125    3755    1842    1786+
+           2924     182    4642    1787
CTETRA      2423       1    2075    3699    2082    3700    1687    1732+
+           2808    1688    4489     747
CTETRA      2424       1    2054    3667    3675    3676     376    4422+
+           1038    1703    4424    4423
CTETRA      2425       1    2033    2040    2039    3660    2694    2693+
+           2692     774     210     426
CTETRA      2426       1    2038    2039    2045    3661    2690    2708+
+           2707    1386    1364    1795
CTETRA      2427       1    2046    3668    2053    3677     212    1701+
+           2729    1680    4427    1722
CTETRA      2428       1    2053    2054    2060    3676    2731    2749+
+           2748    1561    1703    1562
CTETRA      2429       1    2012    3627    3635    3636    1067    4312+
+           1495    1634    4314    4313
CTETRA      2430       1    2026    2033    2032    3652    2675    2674+
+           2673     420      53      52
CTETRA      2431       1    2003    3621    2010    3630    1648     220+
+           2612    1760    4298     785
CTETRA      2432       1    2067    2073    3693    3701    2784     273+
+            756    1300     824    4494
CTETRA      2433       1    2070    3681    3689    3690     954    4460+
+            708    1008    4462    4461
CTETRA      2434       1    2003    2009    3622    3630    2610    1357+
+           1649    1760      10    4299
CTETRA      2435       1    1996    3613    2003    3622    1720    1647+
+           2593    1606    4276    1649
CTETRA      2436       1    2069    2076    2075    3699    2792    2791+
+           2790    1685    1733    1687
CTETRA      2437       1    2044    3662    3670    3671    1073    4409+
+            216     214    4411    4410
CTETRA      2438       1    2057    2058    2064    3687    2741    2759+
+           2758     957     947     619
CTETRA      2439       1    2034    2035    2041    3650    2680    2698+
+           2697     766    1210    1482
CTETRA      2440       1    2078    3703    3711    3712    1222    4522+
+           1272    1223    4524    4523
CTETRA      2441       1    2002    2003    2009    3622    2592    2610+
+           2609    1513    1649    1357
CTETRA      2442       1    2017    2024    2023    3646    2650    2649+
+           2648    1752     787    1753
CTETRA      2443       1    2023    2024    2030    3646    2649    2667+
+           2666    1753     787     782
CTETRA      2444       1    5433    5434    2050    3680    5488    3287+
+           3288    1425     758     624
CTETRA      2445       1    2023    3638    3646    3647    1750    4343+
+           1753     780    4345    4344
CTETRA      2446       1    2036    2037    2043    3663    2684    2702+
+           2701      75      81     625
CTETRA      2447       1    2042    3657    3665    3666    1577    4394+
+           1820      97    4396    4395
CTETRA      2448       1    5435    5330    5331    3672     414    5381+
+           1122     416    5159    5160
CTETRA      2449       1    5433    2063    5434    3681    3405    3406+
+           5488     955    1006    1537
CTETRA      2450       1    2031    3654    3653    3662    1306    4363+
+            719    1827    4387    4386
CTETRA      2451       1    5432    5328    3688    3696     770    5155+
+            472     818    5154    4481
CTETRA      2452       1    5435    2056    2049    3665    3408    2738+
+           3409    1822    1828    1611
CTETRA      2453       1    1953    3574    1960    3575     803    1704+
+           2476      31    4146    1773
CTETRA      2454       1    2060    2066    3685    3693    2765     405+
+           1564     755     272    4472
CTETRA      2455       1    2095    2102    2101    3725    2862    2861+
+           2860    1336    1429    1335
CTETRA      2456       1    1959    1960    1966    3583    2475    2493+
+           2492     468    1740    1742
CTETRA      2457       1    2066    2067    2073    3693    2766    2784+
+           2783     272     756     273
CTETRA      2458       1    1959    3575    1960    3583     467    1773+
+           2475     468    4170    1740
CTETRA      2459       1    2081    3701    3700    3708    1117    4492+
+            746     748    4514    4513
CTETRA      2460       1    2080    3709    2087    3710    1831     197+
+           2821     608    4517     196
CTETRA      2461       1    2095    3717    3724    3725     238    4558+
+           1432    1336    4560    4559
CTETRA      2462       1    2103    3731    2110    3732    1396    1770+
+           2884     402    4578     858
CTETRA      2463       1    1940    3557    1947    3558    1551     808+
+           2441    1667    4099    1690
CTETRA      2464       1    1902    3497    3505    3506    1193    3954+
+           1194     872    3956    3955
CTETRA      2465       1    1881    3481    1888    3490      91      90+
+           2282     867    3912     874
CTETRA      2466       1    2223    3859    3866    3867     897    4948+
+            140     899    4950    4949
CTETRA      2467       1    2085    3712    3711    3720    1832    4523+
+            942     944    4547    4546
CTETRA      2468       1    5450    5345    5346    3552     178    5366+
+            378     531    5189    5190
CTETRA      2469       1    2111    3731    3730    3738    1301    4575+
+           1150    1302    4596    4595
CTETRA      2470       1    2110    2117    2116    3740    2903    2902+
+           2901     716    1298     717
CTETRA      2471       1    2058    2059    2065    3686    2744    2762+
+           2761     230     409     613
CTETRA      2472       1    2080    2087    2086    3710    2821    2820+
+           2819     608     196     206
CTETRA      2473       1    2199    3838    3837    3845    1659    4870+
+           1539    1534    4891    4890
CTETRA      2474       1    5425    5322    5426    2106     888     351+
+           5496    3304     350    3303
CTETRA      2475       1    2093    3718    3726    3727     938    4563+
+            343     940    4565    4564
CTETRA      2476       1    5430    5431    5327    2084    5491     952+
+           1527    3399    3400    1559
CTETRA      2477       1    2072    3702    2079    3711     789     620+
+           2799    1271    4521     622
CTETRA      2478       1    2169    3808    3815    3816     714    4809+
+           1541    1554    4811    4810
CTETRA      2479       1    1932    3550    1939    3551    1845    1669+
+           2419    1525    4080    1586
CTETRA      2480       1    5415    5416    2176    3824    5506    3323+
+           3324    1672    1840    1766
CTETRA      2481       1    5418    2175    2168    3801    3374    3061+
+           3375     922     921     980
CTETRA      2482       1    2118    2125    2124    3747    2925    2924+
+           2923    1789    1786    1842
CTETRA      2483       1    2173    3804    3811    3812     165    4797+
+            825     174    4799    4798
CTETRA      2484       1    2210    3842    3841    3849    1046    4880+
+            551     145    4901    4900
CTETRA      2485       1    2187    3819    2188    3827     915    1713+
+           3095     563    4840     991
CTETRA      2486       1    2152    3779    2153    3787     429     580+
+           3000     380    4730     381
CTETRA      2487       1    5411    2217    5412       7    3361    3362+
+           5510     599     601     948
CTETRA      2488       1    2061    3675    3683    3684    1040    4444+
+           1115    1784    4446    4445
CTETRA      2489       1    5418    5315    5419    3800     877     876+
+           5503    1099    5128    1356
CTETRA      2490       1    2129    3758    3757    3765     388    4650+
+            190     192    4671    4670
CTETRA      2491       1    1938    3552    3551    3560     319    4083+
+           1570     163    4107    4106
CTETRA      2492       1    2142    3782    2149    3783    1477    1254+
+           2989    1600    4719    1249
CTETRA      2493       1    2146    3778    2153    3779    1118     967+
+           3001    1035    4707     580
CTETRA      2494       1    5411    3849    5307    3857     598    5085+
+           1695     956    4922    5086
CTETRA      2495       1    2120    3752    3751    3760     543    4633+
+           1603     882    4657    4656
CTETRA      2496       1    2071    3695    3703    3704    1422    4500+
+           1420    1188    4502    4501
CTETRA      2497       1    2108    3734    3741    3742     592    4605+
+           1048     538    4607    4606
CTETRA      2498       1    5424    2120    5320    3752    3307    1746+
+            122     119     543    5139
CTETRA      2499       1    2134    3775    2141    3776    1205    1604+
+           2967    1714    4700    1358
CTETRA      2500       1    2112    2119    2118    3738    2909    2908+
+           2907    1373    1375    1492
CTETRA      2501       1    5410    2231    2224    3865    3358    3213+
+           3359    1850     906    1181
CTETRA      2502       1    5323    3728    2099    3736    5145     366+
+            743    5144    4591     368
CTETRA      2503       1    2089    3715    2096    3716     750     394+
+           2846     314    4534    1684
CTETRA      2504       1    5420    2141    2148       1    3314    2986+
+           3315    1107     105    1130
CTETRA      2505       1    2144    3773    3772    3780     934    4691+
+            932     575    4712    4711
CTETRA      2506       1    2154    3778    3785    3786     988    4725+
+            596     727    4727    4726
CTETRA      2507       1    2110    3732    3739    3740     858    4599+
+           1769     716    4601    4600
CTETRA      2508       1    2099    2100    2106    3735    2855    2873+
+           2872    1481    1041     341
CTETRA      2509       1    2202    2203    2209    3842    3136    3154+
+           3153    1044    1045     333
CTETRA      2510       1    2123    3749    3756    3757     733    4646+
+            193     195    4648    4647
CTETRA      2511       1    2217    3850    3857    3858     148    4923+
+            698     157    4925    4924
CTETRA      2512       1    2102    2103    2109    3732    2864    2882+
+           2881     401     402     856
CTETRA      2513       1    5414    2203    2196    3833    3366    3137+
+           3367     612     704    1011
CTETRA      2514       1    5408    2238    5409    3873    3355    3356+
+           5513    1065     558     561
CTETRA      2515       1    2100    3726    2101    3734     345     349+
+           2858     604    4585     591
CTETRA      2516       1    2065    2072    2071    3703    2780    2779+
+           2778    1421    1415    1420
CTETRA      2517       1    2189    2196    2195    3826    3118    3117+
+           3116    1801    1009     568
CTETRA      2518       1    2130    3757    3764    3765     191    4668+
+            186     188    4670    4669
CTETRA      2519       1    2145    2152    2151    3780    2998    2997+
+           2996     892     357     356
CTETRA      2520       1    2080    3701    3709    3710     607    4516+
+           1831     608    4518    4517
CTETRA      2521       1    2052    2059    2058    3686    2745    2744+
+           2743     229     409     230
CTETRA      2522       1    5413    2203    5414    3833    3365    3366+
+           5508     611     704     612
CTETRA      2523       1    2076    3690    3698    3699    1623    4485+
+           1625    1733    4487    4486
CTETRA      2524       1    2070    3690    3689    3698    1008    4461+
+            708    1624    4485    4484
CTETRA      2525       1    2062    3682    2069    3691      67    1391+
+           2773      68    4465    1393
CTETRA      2526       1    2143    3774    3781    3782     781    4715+
+            929    1252    4717    4716
CTETRA      2527       1    2144    3773    3780    3781     934    4712+
+            575     576    4714    4713
CTETRA      2528       1    2068    2074    3692    3700    2787    1387+
+           1736    1830    1116    4491
CTETRA      2529       1    5313    5314    3801       9    5398    5072+
+           5073    1759    1489    1846
CTETRA      2530       1    5257    2237    2238    3874     669    3231+
+            560    5094     144     559
CTETRA      2531       1    5429    2098    2091    3713    3396    2852+
+           3397    1383    1365    1381
CTETRA      2532       1    5419    5420    5316    3785    5502     884+
+           1355    1382     595    5068
CTETRA      2533       1    2231    3866    3865    3873    1097    4946+
+            906     562    4967    4966
CTETRA      2534       1    5428    5325    5324    3713    1848    5387+
+           1384    1366    5049    5051
CTETRA      2535       1    5416    3809    5312    3817    1458    5075+
+           1839    1841    4812    5076
CTETRA      2536       1    2196    3826    3833    3834    1009    4857+
+           1011    1047    4859    4858
CTETRA      2537       1    5460    5279    1868    3480    3233    3235+
+           3234    1322    1728    1729
CTETRA      2538       1    2182    2189    2188    3818    3099    3098+
+           3097    1799    1790    1807
CTETRA      2539       1    5416    2182    5417       9    3371    3372+
+           5505    1459    1461    1488
CTETRA      2540       1    2174    3803    3802    3810     919    4773+
+            984     920    4794    4793
CTETRA      2541       1    2189    3818    3825    3826    1790    4835+
+           1677    1801    4837    4836
CTETRA      2542       1    2188    3818    2189    3826    1807    1790+
+           3098    1800    4837    1801
CTETRA      2543       1    5294    3479    1868    3480    5211    1674+
+           1727    5212    3909    1729
CTETRA      2544       1    2160    3787    3794    3795     383    4750+
+           1098     579    4752    4751
CTETRA      2545       1    2167    3795    3794    3802    1058    4751+
+           1218     983    4772    4771
CTETRA      2546       1    2130    2131    2137    3764    2940    2958+
+           2957     186     936     187
CTETRA      2547       1    2174    3810    2181    3811     920    1077+
+           3077     826    4795    1076
CTETRA      2548       1    5458    5459    1875    3488    5463    3237+
+           3238      99    1259    1451
CTETRA      2549       1    2182    3810    3817    3818      86    4813+
+             88    1799    4815    4814
CTETRA      2550       1    2048    3667    3666    3675     375    4398+
+             98    1610    4422    4421
CTETRA      2551       1    5431    5327    2084    3697     952    1559+
+           3400     772    5045    1160
CTETRA      2552       1    5327    2084    3697    3705    1559    1160+
+           5045    5048     492    4504
CTETRA      2553       1    5422    2127    2134    3768    3310    2948+
+           3311    1231    1607    1608
CTETRA      2554       1    2046    2053    2052    3677    2729    2728+
+           2727    1680    1722    1676
CTETRA      2555       1    2044    2051    2050    3679    2723    2722+
+           2721     218     219     642
CTETRA      2556       1    5440    2014    5336    3633    3419    1005+
+           1282     965     639    5030
CTETRA      2557       1    2198    3839    3838    3846    1019    4873+
+           1594    1544    4894    4893
CTETRA      2558       1    2150    3782    3789    3790    1253    4737+
+            583    1257    4739    4738
CTETRA      2559       1    2204    3855    2211    3856    1179    1180+
+           3157    1503    4920    1780
CTETRA      2560       1    2129    2136    2135    3766    2954    2953+
+           2952     361     362    1478
CTETRA      2561       1    2050    3680    3679    3688     624    4435+
+            642     958    4459    4458
CTETRA      2562       1    1989    1996    1995    3614    2574    2573+
+           2572    1825    1605    1349
CTETRA      2563       1    1989    3605    3613    3614     201    4252+
+           1737    1825    4254    4253
CTETRA      2564       1    2192    2193    2199    3837    3108    3126+
+           3125    1246    1247    1539
CTETRA      2565       1    2135    3767    3766    3774    1204    4675+
+           1478     775    4696    4695
CTETRA      2566       1    5426    5427    5323       3    5495    1453+
+            742     960     510    1440
CTETRA      2567       1    1990    1997    1996    3613    2577    2576+
+           2575    1566    1721    1720
CTETRA      2568       1    1870    1877    1876    3486    2247    2246+
+           2244     964     812     811
CTETRA      2569       1    1968    3582    3581    3590    1092    4165+
+            692    1569    4189    4188
CTETRA      2570       1    2011    3629    3628    3637     225    4294+
+           1227    1399    4318    4317
CTETRA      2571       1    1997    2003    3613    3621    2594    1647+
+           1721    1661    1648    4274
CTETRA      2572       1    1960    3574    3582    3583    1704    4167+
+           1705    1740    4169    4168
CTETRA      2573       1    1967    3583    3591    3592    1741    4192+
+           1126    1128    4194    4193
CTETRA      2574       1    2101    3725    2102    3733    1335    1429+
+           2861     588    4582     589
CTETRA      2575       1    2169    3807    2170    3815     712    1345+
+           3045    1541    4808    1347
CTETRA      2576       1    1877    1883    3486    3494    2268     505+
+            812    1445     506    3925
CTETRA      2577       1    2200    3837    3844    3845    1538    4888+
+           1408    1535    4890    4889
CTETRA      2578       1    1956    1957    1963    3571    2468    2486+
+           2485    1818    1342    1344
CTETRA      2579       1    2102    3725    3724    3732    1429    4559+
+            399     401    4580    4579
CTETRA      2580       1    2190    3839    2197    3840     996    1016+
+           3119     389    4876     390
CTETRA      2581       1    2198    3838    2199    3846    1594    1659+
+           3124    1544    4893    1658
CTETRA      2582       1    2184    3822    2185    3830    1087     464+
+           3086    1088    4849    1592
CTETRA      2583       1    1957    3563    3562    3571     259    4112+
+            816    1342    4136    4135
CTETRA      2584       1    1933    3541    3549    3550    1294    4076+
+           1295    1653    4078    4077
CTETRA      2585       1    1915    1921    3523    3531    2372     280+
+           1224     761     281    4026
CTETRA      2586       1    1906    1913    1912    3517    2349    2348+
+           2347      45    1297      46
CTETRA      2587       1    5449    1951    5345    3561    3437     831+
+            160     864     865    5012
CTETRA      2588       1    5450    5345    1951    3553     178     831+
+           3438     450    5009     451
CTETRA      2589       1    5454    5349    5350    3520      63    5362+
+           1216    1836    5197    5198
CTETRA      2590       1    5427    2105    3729       2    3393     999+
+            508     511    1003     512
CTETRA      2591       1    2212    3854    2213    3862    1498    1637+
+           3162    1499    4937    1697
CTETRA      2592       1    2226    3870    2227    3878    1057    1448+
+           3200    1328    4981    1447
CTETRA      2593       1    1925    3535    3534    3543    1816    4036+
+           1515    1757    4060    4059
CTETRA      2594       1    1895    3498    3497    3506     725    3933+
+            859     871    3957    3956
CTETRA      2595       1    1894    3499    3498    3507     309    3936+
+            724     320    3960    3959
CTETRA      2596       1    2172    3805    3804    3812     928    4779+
+            166     173    4800    4799
CTETRA      2597       1    2200    3837    3836    3844    1538    4867+
+           1245    1408    4888    4887
CTETRA      2598       1    5408    5516    5256    3873    1662    5269+
+            295    1065    5091    5092
CTETRA      2599       1    1887    3490    1894    3499     519    1810+
+           2298     520    3937     309
CTETRA      2600       1    5442    5337    2007    3617    1229     443+
+           3422     245    5025     131
CTETRA      2601       1    5426    5323    5322       3     742    5389+
+            351     960    1440     886
CTETRA      2602       1    5440    5441    5336    2014    5481    1262+
+           1282    3419    3420    1005
CTETRA      2603       1    1880    3474    3482    3483    1599    3884+
+             82    1778    3887    3886
CTETRA      2604       1    5353    1895    3489    3497      94     424+
+           4993    4996     859    3932
CTETRA      2605       1    1874    3473    1881    3482     300    1772+
+           2263    1726    3883     866
CTETRA      2606       1    5292    3477    1870    3478    5215     149+
+           1555    5216    3901     963
CTETRA      2607       1    2037    3663    3662    3671      81    4388+
+           1071     226    4412    4411
CTETRA      2608       1    5420    5421    5317       6    5501     107+
+           1106     518     515    1632
CTETRA      2609       1    5441    5336    2014    3625    1262    1005+
+           3420    1696    5027     638
CTETRA      2610       1    1950    3555    3554    3563    1289    4090+
+            822     258    4114    4113
CTETRA      2611       1    1934    3540    3548    3549     835    4073+
+           1014    1292    4075    4074
CTETRA      2612       1    2199    3845    2206    3846    1534    1536+
+           3144    1658    4892    1641
CTETRA      2613       1    5451    1931    5346    3544    3253     533+
+            377     945     318    5191
CTETRA      2614       1    5451    5346    5347    3544     377    5365+
+            836     945    5191    5192
CTETRA      2615       1    1933    3549    1940    3550    1295    1550+
+           2422    1653    4077    1668
CTETRA      2616       1    5409    2231    5410    3865    3357    3358+
+           5512     907     906    1850
CTETRA      2617       1    5433    2070    2063    3681    3404    2776+
+           3405     955     954    1006
CTETRA      2618       1    5453    5348    5349    3528    1183    5363+
+             62      64    5195    5196
CTETRA      2619       1    2045    2051    3670    3678    2724     217+
+           1665    1339     224    4431
CTETRA      2620       1    5421    3777    5317       6     514    5066+
+            107     515     517    1632
CTETRA      2621       1    2035    3649    2042    3658    1208    1575+
+           2700     270    4374      96
CTETRA      2622       1    5434    2056    5435    3673    3407    3408+
+           5487    1754      84    1783
CTETRA      2623       1    2056    3665    3673    3674    1828    4416+
+             84      77    4418    4417
CTETRA      2624       1    2008    3631    2015    3640    1143    1145+
+           2625     901    4326     241
CTETRA      2625       1    5436    2042    5437    3657    3411    3412+
+           5485    1581    1577    1576
CTETRA      2626       1    5436    3657    5332    3665    1581    5035+
+           1580    1819    4394    5038
CTETRA      2627       1    2056    3673    2063    3682      84    1531+
+           2757      85    4440    1532
CTETRA      2628       1    2193    3836    2200    3837     489    1245+
+           3128    1247    4867    1538
CTETRA      2629       1    1922    1923    1929    3530    2376    2394+
+           2393    1817    1815      38
CTETRA      2630       1    2008    3623    3631    3632    1491    4302+
+           1143     537    4304    4303
CTETRA      2631       1    1908    1909    1915    3514    2338    2356+
+           2355    1794    1438    1797
CTETRA      2632       1    5415    5312    5416    3824    1747    1839+
+           5506    1672    5122    1840
CTETRA      2633       1    5440    5336    2001    3632    1282    1444+
+           3274     536    5170    1363
CTETRA      2634       1    5415    2189    3817    3825    3369    1791+
+           1678    1412    1677    4834
CTETRA      2635       1    2224    3858    3865    3866     139    4945+
+           1181     141    4947    4946
CTETRA      2636       1    5440    5336    5441    2001    1282    1262+
+           5481    3274    1444    3273
CTETRA      2637       1    5334    3640    2015    3648    5167     241+
+            641    5166    4349     240
CTETRA      2638       1    5410    3857    5306    3865     701    5087+
+            700    1850    4944    5088
CTETRA      2639       1    5410    5307    5411    3864     699    1695+
+           5511    1844    5112    1777
CTETRA      2640       1    2085    3719    2092    3720     943    1109+
+           2834     944    4545    1745
CTETRA      2641       1    1973    3592    3591    3600     796    4193+
+           1127     798    4217    4216
CTETRA      2642       1    5433    5329    5434    3680    1051     757+
+           5488    1425    5157     758
CTETRA      2643       1    1998    1999    2005    3619    2582    2600+
+           2599    1276      22    1277
CTETRA      2644       1    1976    1977    1983    3596    2522    2540+
+           2539     461     462    1549
CTETRA      2645       1    5433    5434    5329    3681    5488     757+
+           1051     955    1537    5041
CTETRA      2646       1    5429    2078    2085    3712    3296    2815+
+           3297    1774    1223    1832
CTETRA      2647       1    5447    1965    5343    3577    3433     248+
+            247     253     254    5016
CTETRA      2648       1    2005    3620    3619    3628    1279    4269+
+           1277    1226    4293    4292
CTETRA      2649       1    2074    2075    2081    3700    2788    2806+
+           2805    1116    1688     746
CTETRA      2650       1    5434    3672    2043    3680     415     626+
+           3286     758    4437     623
CTETRA      2651       1    5262    5263    2232    3880    5265    1802+
+           1849    5105    5106    1805
CTETRA      2652       1    5246    5261    5262    2233    1860    5268+
+           1855    3343     681     693
CTETRA      2653       1    5442    5337    5338    3616    1229    5374+
+            449     912    5173    5174
CTETRA      2654       1    2207    3845    3844    3852    1469    4889+
+           1409    1239    4910    4909
CTETRA      2655       1    5438    5439    5334    3641    5483     640+
+            555    1069     524    5031
CTETRA      2656       1    2211    3856    3855    3863    1780    4920+
+           1180    1500    4941    4940
CTETRA      2657       1    1998    3611    3619    3620     969    4268+
+           1276    1278    4270    4269
CTETRA      2658       1    5418    3793    5314    3801     878    5071+
+            454     922    4768    5072
CTETRA      2659       1    5418    2168    5419    3793    3375    3376+
+           5503     878     985     879
CTETRA      2660       1    5441    2001    5336    3624    3273    1444+
+           1262    1263    1158    5171
CTETRA      2661       1    2135    3774    2142    3775     775     777+
+           2970    1206    4697    1683
CTETRA      2662       1    2123    2130    2129    3757    2938    2937+
+           2936     195     191     190
CTETRA      2663       1    1970    3579    1971    3587    1615    1613+
+           2506    1148    4180     655
CTETRA      2664       1    2147    2154    2153    3778    3004    3003+
+           3002     987     988     967
CTETRA      2665       1    2158    3789    3788    3796    1413    4735+
+            417     179    4756    4755
CTETRA      2666       1    2137    2144    2143    3773    2976    2975+
+           2974    1352     934     933
CTETRA      2667       1    5416    5313    3809       9    1758    5074+
+           1458    1459    1759    1460
CTETRA      2668       1    5313    3816    5314       9    5124    5125+
+           5398    1759    1490    1489
CTETRA      2669       1    2113    3751    2120    3752    1103    1603+
+           2910     365    4633     543
CTETRA      2670       1    1963    3571    1964    3579    1344    1343+
+           2487    1614    4158    1419
CTETRA      2671       1    2117    2118    2124    3747    2905    2923+
+           2922    1788    1789    1842
CTETRA      2672       1    5416    2182    3809    3817    3371      87+
+           1458    1841      88    4812
CTETRA      2673       1    2161    2168    2167    3794    3042    3041+
+           3040     732     979    1218
CTETRA      2674       1    2118    3739    3738    3746    1582    4597+
+           1492    1493    4618    4617
CTETRA      2675       1    5314       8    3801       9    1558     925+
+           5072    1489    1520    1846
CTETRA      2676       1    5421    2154    2147    3777    3380    3004+
+           3381     514     513     986
CTETRA      2677       1    2110    3732    3731    3739     858    4578+
+           1770    1769    4599    4598
CTETRA      2678       1    5410    3864    2218    3872    1844     521+
+           3335     972    4965    1548
CTETRA      2679       1    5262    2232    2233    3879    1849    3216+
+            693    5104    1266     694
CTETRA      2680       1    2204    3848    3847    3855    1502    4898+
+            975    1179    4919    4918
CTETRA      2681       1    2096    2097    2103    3723    2848    2866+
+           2865     396     384     386
CTETRA      2682       1    5413    5414    2190       5    5508    3327+
+           3328     849     844     391
CTETRA      2683       1    5430    5327    5431    3704    1527     952+
+           5491    1273    5152    1165
CTETRA      2684       1    2059    2060    2066    3685    2747    2765+
+           2764     404    1564     405
CTETRA      2685       1    5446    5447    5342    1972    5475     252+
+           1123    3431    3432    1698
CTETRA      2686       1    2055    2056    2062    3674    2737    2755+
+           2754      78      77    1036
CTETRA      2687       1    5408    5263    5305    3880    1765    5107+
+           1064    1803    5106    5108
CTETRA      2688       1    5411    5412    2204    3856    5510    3331+
+           3332    1715    1530    1503
CTETRA      2689       1    5441    2007    5337    3625    3421     443+
+           1228    1696     444    5028
CTETRA      2690       1    5409    5306    3872    3880     970    5110+
+            971    1806    5109    4987
CTETRA      2691       1    2007    3625    2014    3626     444     638+
+           2624     430    4285     445
CTETRA      2692       1    5409    5410    5306    3865    5512     700+
+            970     907    1850    5088
CTETRA      2693       1    5410    2224    3857    3865    3359     902+
+            701    1850    1181    4944
CTETRA      2694       1    2053    2059    3677    3685    2746     408+
+           1722    1563     404    4450
CTETRA      2695       1    5409    3865    5305    3873     907    5089+
+           1063     561    4966    5090
CTETRA      2696       1    2096    2103    2102    3724    2865    2864+
+           2863     403     400     399
CTETRA      2697       1    5429    5430    2078    3712    5492    3295+
+           3296    1774    1775    1223
CTETRA      2698       1    1972    3578    3577    3586     257    4153+
+            255     249    4177    4176
CTETRA      2699       1    2072    3703    3702    3711    1415    4498+
+            789    1271    4522    4521
CTETRA      2700       1    2006    3618    2007    3626     125     132+
+           2604    1068    4287     430
CTETRA      2701       1    5429    5325    5326    3712    1776    5386+
+           1565    1774    5149    5150
CTETRA      2702       1    2034    2041    2040    3659    2697    2696+
+           2695    1131    1484    1132
CTETRA      2703       1    2025    2026    2032    3644    2655    2673+
+           2672      42     421    1379
CTETRA      2704       1    5425    5426    5322    3737    5496     351+
+            888     889    1462    5056
CTETRA      2705       1    2033    2039    3652    3660    2692      54+
+             53     774     426    4381
CTETRA      2706       1    2022    3647    2029    3656     235     795+
+           2663     234    4370     631
CTETRA      2707       1    2024    3646    3645    3654     787    4341+
+            806     788    4365    4364
CTETRA      2708       1    5427    5324    2092    3728    1452    1716+
+           3300    1466    5146    1468
CTETRA      2709       1    2017    3637    2024    3646    1401    1826+
+           2650    1752    4342     787
CTETRA      2710       1    2099    3727    3735    3736     367    4588+
+           1481     368    4590    4589
CTETRA      2711       1    2016    2017    2023    3638    2630    2648+
+           2647     784    1751    1750
CTETRA      2712       1    1967    3590    1974    3591    1782    1693+
+           2514    1126    4190    1847
CTETRA      2713       1    1974    3591    3599    3600    1847    4214+
+            894    1410    4216    4215
CTETRA      2714       1    1974    3591    3590    3599    1847    4190+
+           1693     894    4214    4213
CTETRA      2715       1    1939    1946    1945    3559    2438    2437+
+           2436     477    1584     478
CTETRA      2716       1    5441    5442    5337    2007    5480    1229+
+           1228    3421    3422     443
CTETRA      2717       1    1946    3566    1953    3567    1152      30+
+           2457    1153    4124      29
CTETRA      2718       1    1960    3575    3574    3583    1773    4146+
+           1704    1740    4170    4169
CTETRA      2719       1    2077    3689    3697    3698     890    4482+
+           1161    1626    4484    4483
CTETRA      2720       1    1934    1935    1941    3548    2408    2426+
+           2425    1014      37    1291
CTETRA      2721       1    5350    3512    1903    3520    5199      58+
+           1837    5198    3997     857
CTETRA      2722       1    1967    1974    1973    3591    2514    2513+
+           2512    1126    1847    1127
CTETRA      2723       1    1924    3536    3535    3544     307    4039+
+            305     317    4063    4062
CTETRA      2724       1    5341    1979    3585    3593     870     656+
+           5017    5020    1341    4196
CTETRA      2725       1    1960    3582    1967    3583    1705    1706+
+           2495    1740    4168    1741
CTETRA      2726       1    5438    2035    2028    3649    3414    2681+
+           3415    1070    1208    1207
CTETRA      2727       1    5456    5351    5352    3504    1455    5360+
+           1402      59    5201    5202
CTETRA      2728       1    1903    3511    3519    3520      56    3994+
+           1834     857    3996    3995
CTETRA      2729       1    1880    1886    3483    3491    2277      69+
+           1778      79      70    3916
CTETRA      2730       1    5448    1952    5343    3568    3259    1723+
+            246    1838    1843    5185
CTETRA      2731       1    5408    5515    5241    5256    5514    5252+
+           3354     295    1861    1862
CTETRA      2732       1    1953    1954    1960    3574    2459    2477+
+           2476     803     804    1704
CTETRA      2733       1    5247    5262    5263    2232    1854    5265+
+           1853    3341    1849    1802
CTETRA      2734       1    5452    5348    5453    3536    1184    1183+
+           5469    1522    5194    1681
CTETRA      2735       1    5446    1972    5342    3585    3431    1698+
+           1123     868     869    5018
CTETRA      2736       1    5448    5343    1965    3569     246     248+
+           3434     470    5013     471
CTETRA      2737       1    1885    3493    3492    3501    1024    3920+
+           1657    1519    3944    3943
CTETRA      2738       1    1886    3492    3491    3500      71    3917+
+             70     702    3941    3940
CTETRA      2739       1    1871    3477    3476    3485     150    3897+
+            674    1436    3896    3895
CTETRA      2740       1    1885    1891    3493    3501    2290    1025+
+           1024    1519    1308    3944
CTETRA      2741       1    1891    3493    3501    3502    1025    3944+
+           1308    1172    3946    3945
CTETRA      2742       1    1872    3476    3475    3484     675    3893+
+            679    1141    3892    3891
CTETRA      2743       1    1873    1879    3475    3483    2256    1140+
+           1465    1664    1779    3888
CTETRA      2744       1    1881    3473    3481    3482    1772    3881+
+             91     866    3883    3882
CTETRA      2745       1    5273    1873    5289    3474    3463    1598+
+           5227    1595    1597    5221
CTETRA      2746       1    2121    3751    3758    3759    1264    4652+
+            370     372    4654    4653
CTETRA      2747       1    1888    1894    3490    3498    2299    1810+
+            874     875     724    3935
CTETRA      2748       1    5413    5310    5414       5     610     609+
+           5508     849     845     844
CTETRA      2749       1    5420    5317    5316       6    1106    5395+
+            884     518    1632     885
$*
$* PROPERTY CARDS
$*
$*  Property: Aluminum 6061
PSOLID         1       1       0                           SMECH
$*
$* MATERIAL CARDS
$*
$*  Material: Aluminum_6061::Upper Leg_fem1::[1]
MAT1           16.8980+7        0.3300002.7110-62.2380-5
MATT1          1       1               2               3
TABLEM1        1                       1                                +
+        20.00006.8980+7 21.11006.8980+7 23.89006.8980+7 37.78006.8290+7+
+        51.67006.8290+7 65.56006.7600+7 79.44006.6910+7 93.33006.6221+7+
+       107.22006.5531+7121.11006.4841+7135.00006.4151+7148.89006.3461+7+
+       162.78006.2772+7176.67006.1392+7190.56006.0702+7204.44005.9323+7+
+       218.33005.8633+7232.22005.7253+7246.11005.5874+7260.00005.4494+7+
+       273.89005.3114+7287.78005.1735+7301.67005.0355+7315.56004.8976+7+
+       329.44004.7596+7343.33004.6216+7357.22004.4147+7371.11004.2767+7+
+       385.00004.1388+7398.89003.9318+7412.78003.7939+7426.67003.5869+7+
+           ENDT
TABLEM1        2                       1                                +
+        20.00000.330000 21.11000.330000    ENDT
TABLEM1        3                       1                                +
+        20.00002.2380-5 93.33002.3184-5107.22002.3346-5121.11002.3508-5+
+       135.00002.3670-5148.89002.3832-5162.78002.3994-5176.67002.4138-5+
+       190.56002.4300-5204.44002.4444-5218.33002.4588-5232.22002.4732-5+
+       246.11002.4876-5260.00002.5002-5273.89002.5146-5287.78002.5272-5+
+       301.67002.5398-5315.56002.5524-5    ENDT
$*
$* LOAD AND CONSTRAINT CARDS
$*
$*  Constraint: Fixed(1)
SPC            1    5224  123456  0.0000
SPC            1    5225  123456  0.0000
SPC            1    5226  123456  0.0000
SPC            1    5227  123456  0.0000
SPC            1    5228  123456  0.0000
SPC            1    5229  123456  0.0000
SPC            1    5230  123456  0.0000
SPC            1    5231  123456  0.0000
SPC            1    5232  123456  0.0000
SPC            1    5233  123456  0.0000
SPC            1    5234  123456  0.0000
SPC            1    5235  123456  0.0000
SPC            1    5236  123456  0.0000
SPC            1    5237  123456  0.0000
SPC            1    5238  123456  0.0000
SPC            1    5239  123456  0.0000
SPC            1    5240  123456  0.0000
SPC            1    5273  123456  0.0000
SPC            1    5274  123456  0.0000
SPC            1    5275  123456  0.0000
SPC            1    5276  123456  0.0000
SPC            1    5277  123456  0.0000
SPC            1    5278  123456  0.0000
SPC            1    5279  123456  0.0000
SPC            1    5280  123456  0.0000
SPC            1    5281  123456  0.0000
SPC            1    5282  123456  0.0000
SPC            1    5283  123456  0.0000
SPC            1    5284  123456  0.0000
SPC            1    5285  123456  0.0000
SPC            1    5286  123456  0.0000
SPC            1    5287  123456  0.0000
SPC            1    5288  123456  0.0000
SPC            1    5289  123456  0.0000
SPC            1    5290  123456  0.0000
SPC            1    5291  123456  0.0000
SPC            1    5292  123456  0.0000
SPC            1    5293  123456  0.0000
SPC            1    5294  123456  0.0000
SPC            1    5295  123456  0.0000
SPC            1    5296  123456  0.0000
SPC            1    5297  123456  0.0000
SPC            1    5298  123456  0.0000
SPC            1    5299  123456  0.0000
SPC            1    5300  123456  0.0000
SPC            1    5301  123456  0.0000
SPC            1    5302  123456  0.0000
SPC            1    5303  123456  0.0000
SPC            1    5304  123456  0.0000
SPC            1    5517  123456  0.0000
SPC            1    5518  123456  0.0000
$*  Load: Force(1)
FORCE          2    1851       02.7428+61.000000  0.0000  0.0000
FORCE          2    1852       03.4100+61.000000  0.0000  0.0000
FORCE          2    1853       02.5989+61.000000  0.0000  0.0000
FORCE          2    1854       02.6447+61.000000  0.0000  0.0000
FORCE          2    1855       02.5402+61.000000  0.0000  0.0000
FORCE          2    1856       02.6183+61.000000  0.0000  0.0000
FORCE          2    1857       02.5713+61.000000  0.0000  0.0000
FORCE          2    1858       02.5979+61.000000  0.0000  0.0000
FORCE          2    1859       02.5979+61.000000  0.0000  0.0000
FORCE          2    1860       02.6334+61.000000  0.0000  0.0000
FORCE          2    1861       02.8130+61.000000  0.0000  0.0000
FORCE          2    1862       02.6690+61.000000  0.0000  0.0000
FORCE          2    1863       02.6447+61.000000  0.0000  0.0000
FORCE          2    1864       02.5402+61.000000  0.0000  0.0000
FORCE          2    1865       02.5713+61.000000  0.0000  0.0000
FORCE          2    1866       02.6183+61.000000  0.0000  0.0000
FORCE          2    1867       02.6334+61.000000  0.0000  0.0000
FORCE          2    5248       01.0379+61.000000  0.0000  0.0000
FORCE          2    5249       01.0837+61.000000  0.0000  0.0000
FORCE          2    5250       01.2238+61.000000  0.0000  0.0000
FORCE          2    5251       01.1769+61.000000  0.0000  0.0000
FORCE          2    5252       01.1080+61.000000  0.0000  0.0000
FORCE          2    5253       01.0837+61.000000  0.0000  0.0000
FORCE          2    5254       01.2238+61.000000  0.0000  0.0000
FORCE          2    5255       01.1769+61.000000  0.0000  0.0000
FORCE          2    5264       01.7050+61.000000  0.0000  0.0000
FORCE          2    5265       01.5610+61.000000  0.0000  0.0000
FORCE          2    5266       01.3945+61.000000  0.0000  0.0000
FORCE          2    5267       01.3741+61.000000  0.0000  0.0000
FORCE          2    5268       01.4565+61.000000  0.0000  0.0000
FORCE          2    5269       01.7050+61.000000  0.0000  0.0000
FORCE          2    5270       01.5610+61.000000  0.0000  0.0000
FORCE          2    5271       01.3945+61.000000  0.0000  0.0000
FORCE          2    5272       01.4565+61.000000  0.0000  0.0000
ENDDATA 6d4c1084
