$*$$$$$$$$$$$$$$$$$$$$$$$$$$$$$$$$$$$$$$$$$$$$$$$$$$$$$$$$$$$$$$$$$
$*
$*                    Simcenter v12.0.0.27 Translator
$*                    for NX Nastran version 12.0
$*
$*             FEM FILE: C:\Users\jabbo\OneDrive\Documents\GitHub\Capstone2018\Structures\CAD\Upper Leg_fem1.fem
$*             SIM FILE: C:\Users\jabbo\OneDrive\Documents\GitHub\Capstone2018\Structures\CAD\Upper Leg_sim1.sim
$*        ANALYSIS TYPE: Structural
$*        SOLUTION NAME: Single Leg with buckling load
$*        SOLUTION TYPE: SOL 105 Linear Buckling
$*
$*    SOLVER INPUT FILE: upper_leg_sim1-single_leg_with_buckling_load.dat
$*        CREATION DATE: 19-Feb-2019
$*        CREATION TIME: 12:27:44
$*             HOSTNAME: Lenovo
$*      NASTRAN LICENSE: Desktop Bundle
$*
$*                UNITS: mm (milli-newton)
$*                      ... LENGTH : mm
$*                      ... TIME   : sec
$*                      ... MASS   : kilogram (kg)
$*                      ... TEMPERATURE : deg Celsius
$*                      ... FORCE  : milli-newton
$*                      ... THERMAL ENERGY : mN-mm (micro-joule)
$*
$* IMPORTANT NOTE:
$*     This banner was generated by Simcenter and altering this 
$*     information may compromise the pre and post processing of results
$*
$*$$$$$$$$$$$$$$$$$$$$$$$$$$$$$$$$$$$$$$$$$$$$$$$$$$$$$$$$$$$$$$$$$
$*
$*$$$$$$$$$$$$$$$$$$$$$$$$$$$$$$$$$$$
$*
$* FILE MANAGEMENT
$*
$*$$$$$$$$$$$$$$$$$$$$$$$$$$$$$$$$$$$
$*
$*
$*$$$$$$$$$$$$$$$$$$$$$$$$$$$$$$$$$$$
$*
$* EXECUTIVE CONTROL
$*
$*$$$$$$$$$$$$$$$$$$$$$$$$$$$$$$$$$$$
$*
ID,NASTRAN,upper_leg_sim1-single_leg_with_buckling_load
SOL 105
CEND
$*
$*$$$$$$$$$$$$$$$$$$$$$$$$$$$$$$$$$$$
$*
$* CASE CONTROL
$*
$*$$$$$$$$$$$$$$$$$$$$$$$$$$$$$$$$$$$
$*
ECHO = NONE
SPC = 1
OUTPUT
DISPLACEMENT(PLOT,REAL) = ALL
SPCFORCES(PLOT,REAL) = ALL
STRESS(PLOT,REAL,VONMISES,CENTER) = ALL
$*  Step: Subcase - Buckling Loads
SUBCASE 1
  LABEL = Subcase - Buckling Loads
  LOAD = 101
$*  Step: Subcase - Buckling Method
SUBCASE 2
  LABEL = Subcase - Buckling Method
  METHOD = 102
$*
$*$$$$$$$$$$$$$$$$$$$$$$$$$$$$$$$$$$$
$*
$* BULK DATA
$*
$*$$$$$$$$$$$$$$$$$$$$$$$$$$$$$$$$$$$
$*
BEGIN BULK
$*
$* SOLUTION CARDS
$*
$*  Modeling Object: Real Eigenvalue - Lanczos1
EIGRL        102                      10       0       7            MASS
$*
$* PARAM CARDS
$*
PARAM      K6ROT100.0000
PARAM     OIBULK     YES
PARAM    OMACHPR     YES
PARAM       POST      -2
PARAM    POSTEXT     YES
PARAM    UNITSYS   MN-MM
$*
$* GRID CARDS
$*
GRID*                  1               01.7295691935E+03-3.560404924E+01+
*       2.8278868458E+01               0
GRID*                  2               01.7320218586E+03-1.501681186E+01+
*       -4.306847630E+01               0
GRID*                  3               01.7318019361E+031.3055146550E+01+
*       -4.363221348E+01               0
GRID*                  4               01.7246195735E+031.2692950303E+01+
*       4.2267414222E+01               0
GRID*                  5               01.6202559542E+034.5457288804E+01+
*       2.6631829630E+00               0
GRID*                  6               01.7230745874E+034.5931072845E+01+
*       4.5012467703E+00               0
GRID*                  7               01.7222902601E+034.4727357382E+01+
*       1.3779615744E+01               0
GRID*                  8               01.7078135645E+03-1.667300186E+01+
*       -4.171056258E+01               0
GRID*                  9               01.2406298739E+03-1.386327052E+01+
*       -4.247388112E+01               0
GRID*                 10               01.4854227027E+03-1.414449998E+01+
*       -4.304074744E+01               0
GRID*                 11               01.5662846951E+031.4598947368E+01+
*       4.2260938641E+01               0
GRID*                 12               01.4357688125E+03-1.316903933E+01+
*       -4.330391060E+01               0
GRID*                 13               01.7807782621E+03-1.354650090E+01+
*       -4.256563768E+01               0
GRID*                 14               01.5743105838E+034.4921449463E+01+
*       -3.966456448E+00               0
GRID*                 15               01.5946258106E+03-1.363185245E+01+
*       -4.325745131E+01               0
GRID*                 16               01.5964451185E+033.4865121630E+01+
*       -2.810313140E+01               0
GRID*                 17               01.5419654687E+03-3.483511657E+01+
*       2.7981849964E+01               0
GRID*                 18               01.7609433312E+03-4.237775427E+01+
*       -1.678120793E+01               0
GRID*                 19               01.5420995204E+033.4821205129E+01+
*       -2.788709016E+01               0
GRID*                 20               01.7053341151E+03-3.557649277E+01+
*       2.7270653271E+01               0
GRID*                 21               01.7533966359E+03-4.700578591E+01+
*       -3.597757311E+00               0
GRID*                 22               01.5702893257E+034.1938982430E+01+
*       -1.927455985E+01               0
GRID*                 23               01.6252119100E+033.7763157349E+01+
*       2.5729410428E+01               0
GRID*                 24               01.6018939771E+034.6037708877E+01+
*       -4.062712408E+00               0
GRID*                 25               01.5709992133E+031.3747381283E+01+
*       4.3310387770E+01               0
GRID*                 26               01.5293080054E+031.2501342511E+01+
*       -4.339985961E+01               0
GRID*                 27               01.5429443738E+032.5283034618E+01+
*       -3.924760688E+01               0
GRID*                 28               01.5429443691E+031.2501342511E+01+
*       -4.339985961E+01               0
GRID*                 29               01.5429443691E+03-1.250134251E+01+
*       -4.339985961E+01               0
GRID*                 30               01.5429443724E+03-2.528384148E+01+
*       -3.924698788E+01               0
GRID*                 31               01.5293080093E+03-2.528390304E+01+
*       -3.924694065E+01               0
GRID*                 32               01.5700135685E+032.7520072519E-15+
*       -4.675000000E+01               0
GRID*                 33               01.5834464043E+03-1.250134251E+01+
*       -4.339985961E+01               0
GRID*                 34               01.5700135685E+03-1.250134251E+01+
*       -4.339985961E+01               0
GRID*                 35               01.5429443691E+032.7573453491E-15+
*       -4.675000000E+01               0
GRID*                 36               01.5293080054E+032.7169876719E-15+
*       -4.675000000E+01               0
GRID*                 37               01.5158751696E+032.7626834464E-15+
*       -4.675000000E+01               0
GRID*                 38               01.5293080054E+03-1.250134251E+01+
*       -4.339985961E+01               0
GRID*                 39               01.7379189251E+03-3.030168779E+01+
*       3.5790263460E+01               0
GRID*                 40               01.7244860893E+03-3.945498499E+01+
*       2.6635405294E+01               0
GRID*                 41               01.7244860893E+03-3.030168779E+01+
*       3.5790263460E+01               0
GRID*                 42               05.2774762551E+022.9144972707E-15+
*       -4.675000000E+01               0
GRID*                 43               05.4138398915E+022.9548549479E-15+
*       -4.675000000E+01               0
GRID*                 44               05.2774761715E+02-1.278117919E+01+
*       -4.259814077E+01               0
GRID*                 45               05.6845318860E+02-1.250134251E+01+
*       -4.339985961E+01               0
GRID*                 46               05.6845318113E+02-2.528261889E+01+
*       -3.924792582E+01               0
GRID*                 47               05.5481681695E+02-2.528255707E+01+
*       -3.924797325E+01               0
GRID*                 48               05.4138398001E+021.2783249597E+01+
*       -4.259655241E+01               0
GRID*                 49               05.5481681583E+022.5284592108E+01+
*       -3.924641202E+01               0
GRID*                 50               05.4138398001E+022.5284592108E+01+
*       -3.924641202E+01               0
GRID*                 51               05.4138398915E+02-1.250134251E+01+
*       -4.339985961E+01               0
GRID*                 52               05.2774761715E+02-2.528252170E+01+
*       -3.924800038E+01               0
GRID*                 53               07.4430122117E+021.2501342512E+01+
*       -4.339985961E+01               0
GRID*                 54               07.4430121011E+022.5284876605E+01+
*       -3.924619376E+01               0
GRID*                 55               07.5793757376E+022.5284881181E+01+
*       -3.924619025E+01               0
GRID*                 56               07.4430122117E+02-1.250134251E+01+
*       -4.339985961E+01               0
GRID*                 57               07.5793758480E+02-1.250134251E+01+
*       -4.339985961E+01               0
GRID*                 58               07.4430122252E+02-2.528370826E+01+
*       -3.924709008E+01               0
GRID*                 59               07.3086838535E+02-1.250134251E+01+
*       -4.339985961E+01               0
GRID*                 60               07.3086838670E+02-2.528370826E+01+
*       -3.924709008E+01               0
GRID*                 61               07.1723202171E+022.8771305898E-15+
*       -4.675000000E+01               0
GRID*                 62               07.3086838535E+022.9174882671E-15+
*       -4.675000000E+01               0
GRID*                 63               07.1723202171E+02-1.250134251E+01+
*       -4.339985961E+01               0
GRID*                 64               07.4430122117E+022.8717924926E-15+
*       -4.675000000E+01               0
GRID*                 65               07.3086838535E+021.2501342512E+01+
*       -4.339985961E+01               0
GRID*                 66               01.7458616011E+032.6742828938E-15+
*       -4.675000000E+01               0
GRID*                 67               01.7594979647E+032.7146405710E-15+
*       -4.675000000E+01               0
GRID*                 68               01.7458616011E+03-1.250134251E+01+
*       -4.339985961E+01               0
GRID*                 69               01.7594979647E+03-1.250134251E+01+
*       -4.339985961E+01               0
GRID*                 70               01.7324287653E+032.7199786683E-15+
*       -4.675000000E+01               0
GRID*                 71               01.7387382020E+03-7.508405930E+00+
*       -4.328423815E+01               0
GRID*                 72               01.7257124218E+03-7.508405930E+00+
*       -4.653423815E+01               0
GRID*                 73               01.7391452577E+03-2.000974844E+01+
*       -4.318409776E+01               0
GRID*                 74               01.7386282408E+036.5275732749E+00+
*       -4.356610674E+01               0
GRID*                 75               01.7390352964E+036.5275732749E+00+
*       -4.681610674E+01               0
GRID*                 76               01.7256024606E+036.5275732749E+00+
*       -4.681610674E+01               0
GRID*                 77               01.2191316048E+024.5684705016E+01+
*       6.7284898078E+00               0
GRID*                 78               01.0827679704E+024.5684716497E+01+
*       -6.718373729E+00               0
GRID*                 79               01.0827679700E+024.5684706817E+01+
*       6.7284844976E+00               0
GRID*                 80               01.2722523753E+03-4.568476167E+01+
*       -6.718240592E+00               0
GRID*                 81               01.2722523761E+03-4.568466022E+01+
*       6.7286218273E+00               0
GRID*                 82               01.2586160124E+03-4.568465699E+01+
*       6.7286313439E+00               0
GRID*                 83               01.0827679704E+024.2332830240E+01+
*       -1.922778125E+01               0
GRID*                 84               09.4843961216E+014.2332830240E+01+
*       -1.922778125E+01               0
GRID*                 85               01.3534599518E+022.5281671612E+01+
*       3.9248333821E+01               0
GRID*                 86               01.3534599518E+023.4434968815E+01+
*       3.0093475654E+01               0
GRID*                 87               01.2191315935E+023.4434968815E+01+
*       3.0093475654E+01               0
GRID*                 88               01.3534599729E+021.2499663169E+01+
*       4.3400829231E+01               0
GRID*                 89               01.2170963211E+022.5281734025E+01+
*       3.9248285939E+01               0
GRID*                 90               01.7324287653E+03-1.260013643E-14+
*       4.6750000000E+01               0
GRID*                 91               01.7458616011E+031.2499663170E+01+
*       4.3400829231E+01               0
GRID*                 92               01.7350370595E+036.3464751514E+00+
*       4.2883707111E+01               0
GRID*                 93               01.7220112793E+036.3464751514E+00+
*       4.6133707111E+01               0
GRID*                 94               01.7354441151E+031.8846138321E+01+
*       4.2784536342E+01               0
GRID*                 95               02.4362279372E+02-4.568469488E+01+
*       -6.718437451E+00               0
GRID*                 96               02.2998643032E+02-4.568473126E+01+
*       6.7284124365E+00               0
GRID*                 97               02.3018995790E+02-4.568469488E+01+
*       -6.718437451E+00               0
GRID*                 98               02.1655359450E+02-4.568473126E+01+
*       6.7284124364E+00               0
GRID*                 99               02.1655359434E+02-4.568469780E+01+
*       -6.718428868E+00               0
GRID*                100               02.0291723092E+02-4.568472712E+01+
*       6.7284246590E+00               0
GRID*                101               02.4362279392E+02-4.568473555E+01+
*       6.7283998138E+00               0
GRID*                102               01.7053595664E+03-4.568471389E+01+
*       -6.718381401E+00               0
GRID*                103               01.7053595665E+03-4.568470827E+01+
*       6.7284802227E+00               0
GRID*                104               01.6917232030E+03-4.568470682E+01+
*       6.7284844976E+00               0
GRID*                105               02.5705562761E+022.5283841478E+01+
*       -3.924698788E+01               0
GRID*                106               02.5705563094E+021.2501342512E+01+
*       -4.339985961E+01               0
GRID*                107               02.4362279512E+021.2501342512E+01+
*       -4.339985961E+01               0
GRID*                108               02.4362279179E+022.5283841478E+01+
*       -3.924698788E+01               0
GRID*                109               02.7069199336E+024.2332853602E+01+
*       -1.922771240E+01               0
GRID*                110               02.7069199073E+023.4430673765E+01+
*       -3.010144744E+01               0
GRID*                111               02.5705562761E+023.4430612199E+01+
*       -3.010149468E+01               0
GRID*                112               02.5725915753E+024.2332853602E+01+
*       -1.922771240E+01               0
GRID*                113               02.4362279179E+023.4430612199E+01+
*       -3.010149468E+01               0
GRID*                114               02.4362279392E+024.2332849287E+01+
*       -1.922772512E+01               0
GRID*                115               03.1119402548E+023.4430738696E+01+
*       -3.010139763E+01               0
GRID*                116               02.9776118966E+022.5283967975E+01+
*       -3.924689084E+01               0
GRID*                117               02.9776118966E+023.4430738696E+01+
*       -3.010139763E+01               0
GRID*                118               02.8412482918E+024.2332853601E+01+
*       -1.922771240E+01               0
GRID*                119               02.8412482655E+023.4430673765E+01+
*       -3.010144744E+01               0
GRID*                120               03.5189959294E+021.2499663169E+01+
*       4.3400829231E+01               0
GRID*                121               03.5189958575E+022.5281030796E+01+
*       3.9248825438E+01               0
GRID*                122               03.3826322266E+022.5281105190E+01+
*       3.9248768364E+01               0
GRID*                123               01.6105156049E+034.2337688002E+01+
*       1.9219354613E+01               0
GRID*                124               01.6241519685E+034.2337684093E+01+
*       1.9219366135E+01               0
GRID*                125               01.6283097963E+034.3413368117E+01+
*       8.0549865627E+00               0
GRID*                126               01.6146734327E+034.3413372026E+01+
*       8.0549750405E+00               0
GRID*                127               01.6160981264E+034.4381604780E+01+
*       1.3827562536E+01               0
GRID*                128               03.7896878473E+022.5280964644E+01+
*       3.9248876188E+01               0
GRID*                129               03.7896878473E+023.4434261848E+01+
*       3.0094018020E+01               0
GRID*                130               03.6553594891E+023.4434261848E+01+
*       3.0094018020E+01               0
GRID*                131               01.6782903671E+03-4.568471650E+01+
*       -6.718373729E+00               0
GRID*                132               01.6782903672E+03-4.568470682E+01+
*       6.7284844974E+00               0
GRID*                133               01.6646540037E+03-4.568470502E+01+
*       6.7284898076E+00               0
GRID*                134               03.5189959137E+024.2337642426E+01+
*       1.9219488927E+01               0
GRID*                135               03.5189958575E+023.4434327999E+01+
*       3.0093967271E+01               0
GRID*                136               03.9240162706E+02-4.233771616E+01+
*       1.9219271625E+01               0
GRID*                137               03.9240162221E+02-3.443579433E+01+
*       3.0092842332E+01               0
GRID*                138               03.7896879124E+02-4.233771616E+01+
*       1.9219271624E+01               0
GRID*                139               03.7896878638E+02-3.443579433E+01+
*       3.0092842331E+01               0
GRID*                140               04.0603798529E+02-2.528256894E+01+
*       3.9247645409E+01               0
GRID*                141               03.9240162221E+02-2.528249713E+01+
*       3.9247700507E+01               0
GRID*                142               04.0603798529E+02-3.443586615E+01+
*       3.0092787234E+01               0
GRID*                143               03.7896879240E+021.2499663169E+01+
*       4.3400829231E+01               0
GRID*                144               03.6533242157E+022.5281030796E+01+
*       3.9248825438E+01               0
GRID*                145               03.7896879240E+023.8871817561E-14+
*       4.6750000000E+01               0
GRID*                146               03.6533242157E+021.2781367626E+01+
*       4.2597996207E+01               0
GRID*                147               04.0603798529E+02-1.278290578E+01+
*       4.2596816178E+01               0
GRID*                148               04.0603799186E+022.1385702360E-14+
*       4.6750000000E+01               0
GRID*                149               03.9240162822E+025.2656354084E-15+
*       4.6750000000E+01               0
GRID*                150               03.9240162822E+02-1.249966317E+01+
*       4.3400829231E+01               0
GRID*                151               01.5429443703E+034.5684735546E+01+
*       6.7283998140E+00               0
GRID*                152               01.5429443705E+034.5684694883E+01+
*       -6.718437451E+00               0
GRID*                153               01.5293080069E+034.5684691770E+01+
*       -6.718446626E+00               0
GRID*                154               05.1431478102E+022.5284527968E+01+
*       -3.924646123E+01               0
GRID*                155               05.0067841788E+022.5284460710E+01+
*       -3.924651282E+01               0
GRID*                156               05.1431478102E+023.4431298687E+01+
*       -3.010096802E+01               0
GRID*                157               05.0067841788E+023.4431231429E+01+
*       -3.010101962E+01               0
GRID*                158               01.4617367722E+034.2332798796E+01+
*       -1.922787390E+01               0
GRID*                159               01.4481004086E+034.2332795272E+01+
*       -1.922788429E+01               0
GRID*                160               01.4617367722E+034.5684685067E+01+
*       -6.718466379E+00               0
GRID*                161               01.4481004086E+034.5684681544E+01+
*       -6.718476763E+00               0
GRID*                162               05.1431478133E+023.4434139566E+01+
*       3.0094111831E+01               0
GRID*                163               05.1431478812E+024.2337621101E+01+
*       1.9219551776E+01               0
GRID*                164               05.0067842447E+024.2337624490E+01+
*       1.9219541788E+01               0
GRID*                165               02.7069199312E+02-4.568469177E+01+
*       -6.718446626E+00               0
GRID*                166               02.5705562974E+02-4.568473555E+01+
*       6.7283998140E+00               0
GRID*                167               02.5725915730E+02-4.568469177E+01+
*       -6.718446627E+00               0
GRID*                168               05.2774762395E+024.2337621101E+01+
*       1.9219551776E+01               0
GRID*                169               05.1431478812E+024.5684660218E+01+
*       6.7286218278E+00               0
GRID*                170               06.0895522388E+02-1.249966317E+01+
*       4.3400829231E+01               0
GRID*                171               06.0895522388E+02-1.607338105E-14+
*       4.6750000000E+01               0
GRID*                172               05.9552238806E+023.1820530512E-15+
*       4.6750000000E+01               0
GRID*                173               01.3805291804E+03-2.528090908E+01+
*       3.9248918812E+01               0
GRID*                174               01.3668928087E+03-1.249966317E+01+
*       4.3400829231E+01               0
GRID*                175               01.3668928170E+03-2.528086654E+01+
*       3.9248951454E+01               0
GRID*                176               05.9552237810E+02-2.528302824E+01+
*       3.9247293049E+01               0
GRID*                177               05.8188602442E+02-1.249966317E+01+
*       4.3400829231E+01               0
GRID*                178               05.8188601486E+02-2.528297294E+01+
*       3.9247335478E+01               0
GRID*                179               05.9552238751E+02-4.233771335E+01+
*       1.9219279906E+01               0
GRID*                180               05.9552237810E+02-3.443632545E+01+
*       3.0092434875E+01               0
GRID*                181               05.8188601486E+02-3.443627014E+01+
*       3.0092477304E+01               0
GRID*                182               01.6917232030E+034.5684716498E+01+
*       6.7284559494E+00               0
GRID*                183               01.6917232030E+034.2337677385E+01+
*       1.9219385904E+01               0
GRID*                184               01.7069918399E+034.3650253429E+01+
*       8.9740382350E+00               0
GRID*                185               01.7078059504E+034.7965535914E+01+
*       2.2556644847E+00               0
GRID*                186               01.7078059504E+034.4618496801E+01+
*       1.4746594439E+01               0
GRID*                187               06.2259158610E+02-4.568464871E+01+
*       -6.718573540E+00               0
GRID*                188               06.0895522242E+02-4.568465119E+01+
*       -6.718566228E+00               0
GRID*                189               06.2259158610E+02-4.233276244E+01+
*       -1.922798106E+01               0
GRID*                190               06.0895522242E+02-4.233276492E+01+
*       -1.922797375E+01               0
GRID*                191               01.3432835821E+01-4.568471023E+01+
*       6.7284746310E+00               0
GRID*                192               02.7069199207E+01-4.568471000E+01+
*       -6.718392894E+00               0
GRID*                193               02.7069199210E+01-4.568471067E+01+
*       6.7284731329E+00               0
GRID*                194               06.4966078560E+02-4.568464657E+01+
*       -6.718579831E+00               0
GRID*                195               06.3602442290E+02-4.568474635E+01+
*       6.7283679861E+00               0
GRID*                196               06.3602442192E+02-4.568464871E+01+
*       -6.718573539E+00               0
GRID*                197               06.3602442192E+02-4.233276244E+01+
*       -1.922798106E+01               0
GRID*                198               01.3534599739E+034.5684760284E+01+
*       6.7283269080E+00               0
GRID*                199               01.3534599745E+034.5684670700E+01+
*       -6.718508721E+00               0
GRID*                200               01.3398236108E+034.5684667115E+01+
*       -6.718519287E+00               0
GRID*                201               06.4966078665E+02-4.568473843E+01+
*       6.7283913127E+00               0
GRID*                202               06.2259158184E+02-3.442960484E+01+
*       -3.010226750E+01               0
GRID*                203               06.0895521718E+02-3.442948089E+01+
*       -3.010236259E+01               0
GRID*                204               06.3602441766E+02-3.442960484E+01+
*       -3.010226750E+01               0
GRID*                205               06.2259158184E+02-2.528283413E+01+
*       -3.924776069E+01               0
GRID*                206               01.3805291734E+034.5684758103E+01+
*       6.7283333358E+00               0
GRID*                207               01.3668928103E+034.5684670700E+01+
*       -6.718508721E+00               0
GRID*                208               01.3668928097E+034.5684760284E+01+
*       6.7283269077E+00               0
GRID*                209               06.4966077638E+021.2783457302E+01+
*       -4.259639306E+01               0
GRID*                210               06.3602442334E+022.8931448816E-15+
*       -4.675000000E+01               0
GRID*                211               06.3602442334E+021.2501342512E+01+
*       -4.339985961E+01               0
GRID*                212               06.4966077638E+022.5284799814E+01+
*       -3.924625267E+01               0
GRID*                213               01.3805291739E+034.5684674325E+01+
*       -6.718498038E+00               0
GRID*                214               06.6309362142E+02-4.568464657E+01+
*       -6.718579830E+00               0
GRID*                215               06.6309362247E+02-4.568473843E+01+
*       6.7283913131E+00               0
GRID*                216               06.6309362280E+021.2501342512E+01+
*       -4.339985961E+01               0
GRID*                217               06.6309361220E+022.5284799814E+01+
*       -3.924625267E+01               0
GRID*                218               06.7672997561E+022.5284834717E+01+
*       -3.924622589E+01               0
GRID*                219               07.5793758808E+023.4435565588E+01+
*       3.0093017823E+01               0
GRID*                220               07.5793758367E+024.2337603479E+01+
*       1.9219603711E+01               0
GRID*                221               07.4430121997E+024.2337603669E+01+
*       1.9219603150E+01               0
GRID*                222               07.9843961902E+024.5684643050E+01+
*       6.7286724202E+00               0
GRID*                223               07.8500678320E+024.5684643050E+01+
*       6.7286724206E+00               0
GRID*                224               07.8500678320E+024.2337603933E+01+
*       1.9219602371E+01               0
GRID*                225               07.7137042390E+023.4435565588E+01+
*       3.0093017823E+01               0
GRID*                226               07.7137041949E+024.2337603479E+01+
*       1.9219603711E+01               0
GRID*                227               07.5793758480E+021.2499663170E+01+
*       4.3400829231E+01               0
GRID*                228               07.5793758808E+022.5282268383E+01+
*       3.9247875993E+01               0
GRID*                229               07.4430122252E+022.5282028922E+01+
*       3.9248059701E+01               0
GRID*                230               07.8500678426E+02-3.270332812E-15+
*       4.6750000000E+01               0
GRID*                231               07.7137042390E+021.2782605214E+01+
*       4.2597046762E+01               0
GRID*                232               07.7137042062E+029.3728569538E-15+
*       4.6750000000E+01               0
GRID*                233               04.8724558172E+02-2.528250989E+01+
*       -3.924800944E+01               0
GRID*                234               04.8724558172E+02-3.442928060E+01+
*       -3.010251626E+01               0
GRID*                235               04.7381274590E+02-3.442928060E+01+
*       -3.010251626E+01               0
GRID*                236               07.8500678426E+02-1.249966317E+01+
*       4.3400829231E+01               0
GRID*                237               07.7137042062E+02-1.249966317E+01+
*       4.3400829231E+01               0
GRID*                238               07.7137040958E+02-2.528320184E+01+
*       3.9247159870E+01               0
GRID*                239               07.5793757376E+02-1.278353867E+01+
*       4.2596330639E+01               0
GRID*                240               07.5793757376E+02-2.528320184E+01+
*       3.9247159870E+01               0
GRID*                241               04.0502035031E+01-4.568471067E+01+
*       6.7284731329E+00               0
GRID*                242               05.4138398455E+01-4.568471192E+01+
*       6.7284694408E+00               0
GRID*                243               04.0705562634E+01-4.233767281E+01+
*       1.9219399396E+01               0
GRID*                244               02.7069199210E+01-4.233767155E+01+
*       1.9219403089E+01               0
GRID*                245               01.4888059717E+034.2332802215E+01+
*       -1.922786383E+01               0
GRID*                246               01.4888059762E+033.4429635594E+01+
*       -3.010224391E+01               0
GRID*                247               01.4751696132E+033.4429555240E+01+
*       -3.010230556E+01               0
GRID*                248               07.4430122117E+02-3.026790436E-14+
*       4.6750000000E+01               0
GRID*                249               07.4430122117E+02-1.249966317E+01+
*       4.3400829231E+01               0
GRID*                250               08.6621438328E+02-4.233761864E+01+
*       1.9219559020E+01               0
GRID*                251               08.5257801954E+02-4.233762473E+01+
*       1.9219541084E+01               0
GRID*                252               08.6621438328E+02-4.568465776E+01+
*       6.7286290675E+00               0
GRID*                253               08.5257801954E+02-4.568466384E+01+
*       6.7286111320E+00               0
GRID*                254               08.3914518372E+02-4.233762473E+01+
*       1.9219541084E+01               0
GRID*                255               08.3914518372E+02-4.568466384E+01+
*       6.7286111316E+00               0
GRID*                256               08.3914518227E+02-4.568464619E+01+
*       -6.718580950E+00               0
GRID*                257               08.2550881998E+02-4.568467124E+01+
*       6.7285893313E+00               0
GRID*                258               08.2550881855E+02-4.568464422E+01+
*       -6.718586750E+00               0
GRID*                259               08.5257802649E+02-3.443124040E+01+
*       -3.010101274E+01               0
GRID*                260               08.5257801809E+02-4.233275992E+01+
*       -1.922798847E+01               0
GRID*                261               08.3914519067E+02-3.443124040E+01+
*       -3.010101274E+01               0
GRID*                262               08.3914518227E+02-4.233275992E+01+
*       -1.922798847E+01               0
GRID*                263               08.2550881855E+02-4.233275796E+01+
*       -1.922799427E+01               0
GRID*                264               09.0671641717E+024.5684652861E+01+
*       6.7286435036E+00               0
GRID*                265               09.0671641865E+024.5684652861E+01+
*       -6.718561288E+00               0
GRID*                266               08.9328358135E+024.5684652861E+01+
*       6.7286435041E+00               0
GRID*                267               08.9328358283E+024.5684652861E+01+
*       -6.718561287E+00               0
GRID*                268               08.7964721910E+024.5684657759E+01+
*       -6.718546851E+00               0
GRID*                269               08.9328358283E+024.2332766597E+01+
*       -1.922796881E+01               0
GRID*                270               08.7964720857E+023.4431528734E+01+
*       -3.010079154E+01               0
GRID*                271               08.7964721910E+024.2332771495E+01+
*       -1.922795437E+01               0
GRID*                272               09.2035278090E+024.5684657759E+01+
*       6.7286290679E+00               0
GRID*                273               01.5158751711E+03-4.233765265E+01+
*       1.9219458791E+01               0
GRID*                274               01.5158751750E+03-3.443456683E+01+
*       3.0093784043E+01               0
GRID*                275               01.5022388120E+03-3.443448275E+01+
*       3.0093848552E+01               0
GRID*                276               09.8792400997E+02-2.528264586E+01+
*       3.9247586401E+01               0
GRID*                277               09.8792401628E+02-1.249966317E+01+
*       4.3400829231E+01               0
GRID*                278               09.7449117415E+02-2.528264586E+01+
*       3.9247586401E+01               0
GRID*                279               09.7449118046E+02-1.249966317E+01+
*       4.3400829231E+01               0
GRID*                280               09.6085481682E+02-1.249966317E+01+
*       4.3400829231E+01               0
GRID*                281               01.0015603750E+03-2.528247289E+01+
*       3.9247719103E+01               0
GRID*                282               01.7605155700E+023.4434819997E+01+
*       3.0093589823E+01               0
GRID*                283               01.6241519563E+024.2337663774E+01+
*       1.9219426011E+01               0
GRID*                284               01.6241519402E+023.4434897749E+01+
*       3.0093530174E+01               0
GRID*                285               01.0015603810E+03-4.233760393E+01+
*       1.9219602371E+01               0
GRID*                286               09.8792401727E+02-4.233760511E+01+
*       1.9219598918E+01               0
GRID*                287               01.0015603810E+03-4.568464305E+01+
*       6.7286724202E+00               0
GRID*                288               09.8792401727E+02-4.568464422E+01+
*       6.7286689666E+00               0
GRID*                289               01.0286295805E+03-4.233760348E+01+
*       1.9219603711E+01               0
GRID*                290               01.0149932168E+03-4.233760393E+01+
*       1.9219602371E+01               0
GRID*                291               01.0286295805E+03-4.568464260E+01+
*       6.7286737599E+00               0
GRID*                292               01.0149932168E+03-4.568464305E+01+
*       6.7286724206E+00               0
GRID*                293               01.1503392144E+034.2332760303E+01+
*       -1.922798735E+01               0
GRID*                294               01.1503392174E+033.4429764778E+01+
*       -3.010214480E+01               0
GRID*                295               01.1369063786E+034.2332760303E+01+
*       -1.922798735E+01               0
GRID*                296               01.1369063816E+033.4429764778E+01+
*       -3.010214480E+01               0
GRID*                297               01.1503392174E+032.5282994066E+01+
*       -3.924763800E+01               0
GRID*                298               01.1369063816E+032.5282994066E+01+
*       -3.924763800E+01               0
GRID*                299               01.1098371791E+034.2332758567E+01+
*       -1.922799247E+01               0
GRID*                300               01.0962008154E+034.2332757286E+01+
*       -1.922799625E+01               0
GRID*                301               01.1098371791E+034.5684644834E+01+
*       -6.718584946E+00               0
GRID*                302               01.0962008154E+034.5684643553E+01+
*       -6.718588722E+00               0
GRID*                303               01.1232700149E+034.5684644834E+01+
*       -6.718584947E+00               0
GRID*                304               01.1232700149E+034.2332758567E+01+
*       -1.922799247E+01               0
GRID*                305               01.1232700244E+032.5283155375E+01+
*       3.9247195515E+01               0
GRID*                306               01.1232700244E+033.4436452582E+01+
*       3.0092337342E+01               0
GRID*                307               01.1098371886E+032.5283155375E+01+
*       3.9247195515E+01               0
GRID*                308               01.1369063772E+031.2499663170E+01+
*       4.3400829231E+01               0
GRID*                309               01.1232700136E+031.2499663170E+01+
*       4.3400829231E+01               0
GRID*                310               01.1369063772E+03-2.349943875E-14+
*       4.6750000000E+01               0
GRID*                311               01.1232700136E+03-1.148840847E-14+
*       4.6750000000E+01               0
GRID*                312               01.1369063878E+032.5283120472E+01+
*       3.9247222292E+01               0
GRID*                313               01.4898235819E+023.4434897749E+01+
*       3.0093530174E+01               0
GRID*                314               01.3534599630E+024.2337665898E+01+
*       1.9219419751E+01               0
GRID*                315               01.2181139762E+03-4.568475695E+01+
*       -6.718254503E+00               0
GRID*                316               01.2181139771E+03-4.568465396E+01+
*       6.7286402605E+00               0
GRID*                317               01.2044776134E+03-4.568465119E+01+
*       6.7286484452E+00               0
GRID*                318               01.2315468121E+03-4.568475695E+01+
*       -6.718254502E+00               0
GRID*                319               01.2315468129E+03-4.568465396E+01+
*       6.7286402610E+00               0
GRID*                320               01.2315468189E+03-2.528093955E+01+
*       3.9248895443E+01               0
GRID*                321               01.2181139831E+03-2.528093955E+01+
*       3.9248895443E+01               0
GRID*                322               01.2181139831E+03-3.443423675E+01+
*       3.0094037274E+01               0
GRID*                323               01.2856852119E+03-4.568466022E+01+
*       6.7286218278E+00               0
GRID*                324               01.2856852119E+03-4.233762110E+01+
*       1.9219551776E+01               0
GRID*                325               01.2993215825E+032.5282509887E+01+
*       -3.924800944E+01               0
GRID*                326               01.2856852187E+032.5282521704E+01+
*       -3.924800038E+01               0
GRID*                327               01.2993215825E+033.4429280597E+01+
*       -3.010251626E+01               0
GRID*                328               01.2856852187E+033.4429292415E+01+
*       -3.010250719E+01               0
GRID*                329               01.2856852119E+034.2332773949E+01+
*       -1.922794713E+01               0
GRID*                330               01.2722523761E+034.2332773949E+01+
*       -1.922794713E+01               0
GRID*                331               01.2722523828E+033.4429292415E+01+
*       -3.010250719E+01               0
GRID*                332               01.2586160189E+033.4429327782E+01+
*       -3.010248006E+01               0
GRID*                333               01.2586160109E+031.2501342511E+01+
*       -4.339985961E+01               0
GRID*                334               01.2722523828E+032.5282521704E+01+
*       -3.924800038E+01               0
GRID*                335               01.2722523745E+031.2501342511E+01+
*       -4.339985961E+01               0
GRID*                336               01.3398236169E+033.4436009022E+01+
*       3.0092677629E+01               0
GRID*                337               01.3398236102E+034.2337722579E+01+
*       1.9219252709E+01               0
GRID*                338               01.3263907811E+033.4436009022E+01+
*       3.0092677629E+01               0
GRID*                339               01.3263907744E+034.2337722579E+01+
*       1.9219252709E+01               0
GRID*                340               01.3534599729E+031.2499663170E+01+
*       4.3400829231E+01               0
GRID*                341               01.3398236169E+032.5282711814E+01+
*       3.9247535804E+01               0
GRID*                342               01.3398236092E+031.2499663170E+01+
*       4.3400829231E+01               0
GRID*                343               01.3534599800E+033.4435937960E+01+
*       3.0092732145E+01               0
GRID*                344               01.3534599800E+032.5282640753E+01+
*       3.9247590320E+01               0
GRID*                345               01.3939620081E+031.2499663170E+01+
*       4.3400829231E+01               0
GRID*                346               01.3805291723E+031.2499663170E+01+
*       4.3400829231E+01               0
GRID*                347               01.3805291723E+032.2531947816E-14+
*       4.6750000000E+01               0
GRID*                348               02.7069199238E+01-3.443516055E+01+
*       3.0093328551E+01               0
GRID*                349               01.6512211679E+03-4.233766590E+01+
*       1.9219419751E+01               0
GRID*                350               01.6512211690E+03-3.443496881E+01+
*       3.0093475654E+01               0
GRID*                351               01.6375848060E+03-3.443489775E+01+
*       3.0093530174E+01               0
GRID*                352               01.4075983794E+03-2.528096464E+01+
*       3.9248876188E+01               0
GRID*                353               01.3939620162E+03-2.528090908E+01+
*       3.9248918812E+01               0
GRID*                354               01.4075983794E+03-3.443426185E+01+
*       3.0094018020E+01               0
GRID*                355               01.3939620162E+03-3.443420629E+01+
*       3.0094060644E+01               0
GRID*                356               01.4481004086E+03-4.233764243E+01+
*       1.9219488927E+01               0
GRID*                357               01.4481004142E+03-3.443432800E+01+
*       3.0093967271E+01               0
GRID*                358               01.4346675728E+03-4.233764243E+01+
*       1.9219488927E+01               0
GRID*                359               01.4346675784E+03-3.443432800E+01+
*       3.0093967270E+01               0
GRID*                360               01.3668928087E+032.0635469351E-14+
*       4.6750000000E+01               0
GRID*                361               01.3805291723E+03-1.249966317E+01+
*       4.3400829231E+01               0
GRID*                362               01.7865671642E+034.5684710233E+01+
*       6.7284746310E+00               0
GRID*                363               01.7729308008E+034.5684710002E+01+
*       -6.718392894E+00               0
GRID*                364               01.7729308008E+034.5684710667E+01+
*       6.7284731329E+00               0
GRID*                365               05.4138398315E+01-3.443027523E+01+
*       -3.010175320E+01               0
GRID*                366               04.0502035029E+01-4.233282373E+01+
*       -1.922780042E+01               0
GRID*                367               04.0705562494E+01-3.443027523E+01+
*       -3.010175320E+01               0
GRID*                368               02.7069199208E+01-4.233282373E+01+
*       -1.922780042E+01               0
GRID*                369               01.5158751708E+034.5684739861E+01+
*       6.7283870980E+00               0
GRID*                370               01.5158751711E+034.5684691770E+01+
*       -6.718446626E+00               0
GRID*                371               01.5022388075E+034.5684688487E+01+
*       -6.718456301E+00               0
GRID*                372               01.5429443724E+033.4435459344E+01+
*       3.0093099327E+01               0
GRID*                373               01.5293080066E+034.2337700747E+01+
*       1.9219317052E+01               0
GRID*                374               01.5293080093E+033.4435520911E+01+
*       3.0093052094E+01               0
GRID*                375               01.5563772061E+034.5684735546E+01+
*       6.7283998138E+00               0
GRID*                376               01.5429443703E+034.2337696432E+01+
*       1.9219329768E+01               0
GRID*                377               01.5022388072E+034.5684744101E+01+
*       6.7283746012E+00               0
GRID*                378               01.5158751708E+034.2337700747E+01+
*       1.9219317052E+01               0
GRID*                379               01.5022388072E+034.2337704987E+01+
*       1.9219304556E+01               0
GRID*                380               01.5158751734E+033.4435520911E+01+
*       3.0093052094E+01               0
GRID*                381               01.5970827692E+03-4.233766136E+01+
*       1.9219433134E+01               0
GRID*                382               01.5970827714E+03-3.443482000E+01+
*       3.0093589823E+01               0
GRID*                383               01.5834464084E+03-3.443473756E+01+
*       3.0093653066E+01               0
GRID*                384               01.6241519685E+03-4.233766377E+01+
*       1.9219426011E+01               0
GRID*                385               01.6241519702E+03-3.443489775E+01+
*       3.0093530174E+01               0
GRID*                386               01.6105156072E+03-3.443482000E+01+
*       3.0093589823E+01               0
GRID*                387               01.7594979650E+034.2332823728E+01+
*       -1.922780042E+01               0
GRID*                388               01.7594979650E+033.4430300183E+01+
*       -3.010173406E+01               0
GRID*                389               01.7458616017E+033.4430275227E+01+
*       -3.010175320E+01               0
GRID*                390               01.5970827714E+03-2.528152279E+01+
*       3.9248447990E+01               0
GRID*                391               01.5970827680E+03-1.249966317E+01+
*       4.3400829231E+01               0
GRID*                392               01.5834464043E+03-1.249966317E+01+
*       4.3400829231E+01               0
GRID*                393               01.5834464057E+03-4.568469779E+01+
*       6.7285110878E+00               0
GRID*                394               01.5834464057E+03-4.233765868E+01+
*       1.9219441032E+01               0
GRID*                395               01.5700135698E+03-4.568469779E+01+
*       6.7285110874E+00               0
GRID*                396               01.7594979649E+03-3.443031341E+01+
*       -3.010172390E+01               0
GRID*                397               01.7458616015E+03-4.233282566E+01+
*       -1.922779475E+01               0
GRID*                398               01.7458616016E+03-3.443032650E+01+
*       -3.010171386E+01               0
GRID*                399               01.6241519674E+03-1.293926269E-15+
*       4.6750000000E+01               0
GRID*                400               01.6105156038E+03-3.822564223E-15+
*       4.6750000000E+01               0
GRID*                401               01.6241519674E+03-1.249966317E+01+
*       4.3400829231E+01               0
GRID*                402               01.6105156038E+03-1.249966317E+01+
*       4.3400829231E+01               0
GRID*                403               01.7594979650E+034.5684710667E+01+
*       6.7284731329E+00               0
GRID*                404               01.7594979650E+034.5684710002E+01+
*       -6.718392894E+00               0
GRID*                405               01.7458616016E+034.5684709340E+01+
*       -6.718394847E+00               0
GRID*                406               01.6375848043E+03-4.568472320E+01+
*       -6.718353961E+00               0
GRID*                407               01.6241519685E+03-4.568472320E+01+
*       -6.718353961E+00               0
GRID*                408               01.6241519685E+03-4.233283695E+01+
*       -1.922776149E+01               0
GRID*                409               01.6646540036E+03-4.568471963E+01+
*       -6.718364488E+00               0
GRID*                410               01.6512211678E+03-4.568471963E+01+
*       -6.718364488E+00               0
GRID*                411               01.6512211679E+03-4.568470502E+01+
*       6.7284898073E+00               0
GRID*                412               01.7187924023E+03-4.568471389E+01+
*       -6.718381400E+00               0
GRID*                413               01.7053595664E+03-4.233282764E+01+
*       -1.922778893E+01               0
GRID*                414               01.6375848052E+03-3.443045388E+01+
*       -3.010161613E+01               0
GRID*                415               01.6375848043E+03-4.233283695E+01+
*       -1.922776149E+01               0
GRID*                416               01.6241519694E+03-3.443045388E+01+
*       -3.010161613E+01               0
GRID*                417               01.7594979649E+033.4435160554E+01+
*       3.0093328550E+01               0
GRID*                418               01.7594979650E+034.2337671554E+01+
*       1.9219403088E+01               0
GRID*                419               01.7458616015E+034.2337672807E+01+
*       1.9219399395E+01               0
GRID*                420               06.7774761910E+014.2332827637E+01+
*       -1.922778893E+01               0
GRID*                421               05.4138398432E+013.4430326499E+01+
*       -3.010171386E+01               0
GRID*                422               05.4138398455E+014.2332825662E+01+
*       -1.922779475E+01               0
GRID*                423               01.6375848033E+03-1.250134251E+01+
*       -4.339985961E+01               0
GRID*                424               01.6375848052E+03-2.528368316E+01+
*       -3.924710934E+01               0
GRID*                425               01.6241519674E+03-1.250134251E+01+
*       -4.339985961E+01               0
GRID*                426               01.6241519694E+03-2.528368316E+01+
*       -3.924710934E+01               0
GRID*                427               01.6375848033E+031.2501342511E+01+
*       -4.339985961E+01               0
GRID*                428               01.6375848060E+032.5283279887E+01+
*       -3.924741872E+01               0
GRID*                429               01.6512211690E+032.5283350953E+01+
*       -3.924736420E+01               0
GRID*                430               01.6105156062E+03-2.528373093E+01+
*       -3.924707269E+01               0
GRID*                431               01.6646540027E+03-1.250134251E+01+
*       -4.339985961E+01               0
GRID*                432               01.6646540042E+03-2.528364119E+01+
*       -3.924714154E+01               0
GRID*                433               01.6512211669E+03-1.250134251E+01+
*       -4.339985961E+01               0
GRID*                434               01.6512211684E+03-2.528364119E+01+
*       -3.924714154E+01               0
GRID*                435               01.6105156049E+03-4.233284086E+01+
*       -1.922774996E+01               0
GRID*                436               01.6105156062E+03-3.443050165E+01+
*       -3.010157949E+01               0
GRID*                437               01.6512211684E+03-3.443041191E+01+
*       -3.010164834E+01               0
GRID*                438               01.7324287657E+03-3.443032650E+01+
*       -3.010171386E+01               0
GRID*                439               01.7187924024E+03-3.443034765E+01+
*       -3.010169763E+01               0
GRID*                440               01.7324287657E+03-2.528355578E+01+
*       -3.924720706E+01               0
GRID*                441               01.7187924024E+03-2.528357693E+01+
*       -3.924719084E+01               0
GRID*                442               01.7324287657E+03-4.233282566E+01+
*       -1.922779475E+01               0
GRID*                443               01.7187924023E+03-4.233282764E+01+
*       -1.922778893E+01               0
GRID*                444               01.6512211669E+031.2501342511E+01+
*       -4.339985961E+01               0
GRID*                445               01.6375848044E+03-4.568470289E+01+
*       6.7284960673E+00               0
GRID*                446               01.7053595666E+03-2.528357693E+01+
*       -3.924719084E+01               0
GRID*                447               01.7865671642E+031.2499663170E+01+
*       4.3400829231E+01               0
GRID*                448               01.7865671642E+03-3.720838418E-15+
*       4.6750000000E+01               0
GRID*                449               01.7865671642E+034.2337671119E+01+
*       1.9219404587E+01               0
GRID*                450               01.7324287657E+033.4435173644E+01+
*       3.0093318508E+01               0
GRID*                451               01.7324287657E+034.2337672807E+01+
*       1.9219399395E+01               0
GRID*                452               01.7187924023E+034.2337674782E+01+
*       1.9219393575E+01               0
GRID*                453               01.7458616015E+034.5684711920E+01+
*       6.7284694408E+00               0
GRID*                454               01.7346716221E+034.7965535914E+01+
*       2.2556644846E+00               0
GRID*                455               01.7342645669E+034.3650248851E+01+
*       8.9740517265E+00               0
GRID*                456               01.7338724032E+034.3048391120E+01+
*       1.3613236213E+01               0
GRID*                457               01.7342794584E+034.7363678182E+01+
*       6.8948489712E+00               0
GRID*                458               01.7226824237E+034.5329215114E+01+
*       9.1404312569E+00               0
GRID*                459               01.7865671642E+03-3.443516396E+01+
*       3.0093331492E+01               0
GRID*                460               01.7729308008E+03-3.443514734E+01+
*       3.0093338695E+01               0
GRID*                461               01.7865671642E+03-4.233767111E+01+
*       1.9219404596E+01               0
GRID*                462               01.5970827703E+033.4435348795E+01+
*       3.0093184137E+01               0
GRID*                463               01.5834464055E+034.2337692150E+01+
*       1.9219342391E+01               0
GRID*                464               01.5834464072E+033.4435401768E+01+
*       3.0093143497E+01               0
GRID*                465               01.7865671642E+03-1.249966317E+01+
*       4.3400829231E+01               0
GRID*                466               01.7865671642E+03-2.528186675E+01+
*       3.9248189659E+01               0
GRID*                467               03.3826322439E+023.4430806350E+01+
*       -3.010134573E+01               0
GRID*                468               03.2483038857E+022.5284035630E+01+
*       -3.924683893E+01               0
GRID*                469               03.2483038857E+023.4430806350E+01+
*       -3.010134573E+01               0
GRID*                470               08.1207597338E+01-3.443023590E+01+
*       -3.010178338E+01               0
GRID*                471               06.7571234265E+01-4.233282307E+01+
*       -1.922780237E+01               0
GRID*                472               06.7774761517E+01-3.443023590E+01+
*       -3.010178338E+01               0
GRID*                473               05.4138398444E+01-4.233282307E+01+
*       -1.922780237E+01               0
GRID*                474               01.3432835821E+01-2.528354609E+01+
*       -3.924722004E+01               0
GRID*                475               01.6375848044E+03-4.233766377E+01+
*       1.9219426011E+01               0
GRID*                476               08.1207598372E+01-1.250134251E+01+
*       -4.339985961E+01               0
GRID*                477               09.4843962008E+01-1.250134251E+01+
*       -4.339985961E+01               0
GRID*                478               08.1207597338E+01-2.528346519E+01+
*       -3.924727656E+01               0
GRID*                479               05.4138398444E+01-4.568470934E+01+
*       -6.718394847E+00               0
GRID*                480               01.2170963365E+022.9945687296E-15+
*       -4.675000000E+01               0
GRID*                481               01.3534599729E+023.0349264069E-15+
*       -4.675000000E+01               0
GRID*                482               01.0827679783E+02-1.250134251E+01+
*       -4.339985961E+01               0
GRID*                483               01.2191316147E+02-1.250134251E+01+
*       -4.339985961E+01               0
GRID*                484               01.5700135714E+033.4435401768E+01+
*       3.0093143497E+01               0
GRID*                485               01.5700135697E+034.2337692149E+01+
*       1.9219342391E+01               0
GRID*                486               01.5563772061E+034.2337696432E+01+
*       1.9219329768E+01               0
GRID*                487               08.1207598372E+011.2501342512E+01+
*       -4.339985961E+01               0
GRID*                488               08.1207597586E+012.5283576928E+01+
*       -3.924719084E+01               0
GRID*                489               09.4843960880E+012.5283605585E+01+
*       -3.924716885E+01               0
GRID*                490               09.4640433552E+014.5684713894E+01+
*       -6.718381401E+00               0
GRID*                491               09.4843961174E+014.5684706817E+01+
*       6.7284844977E+00               0
GRID*                492               08.1207597731E+014.5684713894E+01+
*       -6.718381400E+00               0
GRID*                493               01.2170963286E+024.5684716497E+01+
*       -6.718373729E+00               0
GRID*                494               01.7584803145E+024.2337663774E+01+
*       1.9219426011E+01               0
GRID*                495               01.6241519563E+024.5684702892E+01+
*       6.7284960673E+00               0
GRID*                496               02.4362279392E+02-4.233769643E+01+
*       1.9219329768E+01               0
GRID*                497               02.2998642865E+02-3.443540177E+01+
*       3.0093143497E+01               0
GRID*                498               02.3018995810E+02-4.233769643E+01+
*       1.9219329768E+01               0
GRID*                499               02.1655359283E+02-3.443540177E+01+
*       3.0093143497E+01               0
GRID*                500               01.4877883212E+024.2337665898E+01+
*       1.9219419751E+01               0
GRID*                501               01.3534599630E+024.5684705016E+01+
*       6.7284898076E+00               0
GRID*                502               01.6375848060E+03-2.528160055E+01+
*       3.9248388341E+01               0
GRID*                503               02.5705563094E+025.4672742005E-15+
*       4.6750000000E+01               0
GRID*                504               02.4362279512E+021.2499663169E+01+
*       4.3400829231E+01               0
GRID*                505               02.4362279512E+029.6453400897E-15+
*       4.6750000000E+01               0
GRID*                506               01.7584803256E+022.7363061621E-14+
*       4.6750000000E+01               0
GRID*                507               01.6241519674E+021.2499663169E+01+
*       4.3400829231E+01               0
GRID*                508               01.6241519674E+024.6527668200E-14+
*       4.6750000000E+01               0
GRID*                509               03.5189958748E+022.5284105352E+01+
*       -3.924678545E+01               0
GRID*                510               03.3826322440E+022.5284035630E+01+
*       -3.924683893E+01               0
GRID*                511               03.5189958748E+023.4430876072E+01+
*       -3.010129224E+01               0
GRID*                512               02.9776118966E+02-2.528228863E+01+
*       3.9247860457E+01               0
GRID*                513               02.8412482655E+02-2.528222370E+01+
*       3.9247910271E+01               0
GRID*                514               02.9776118966E+02-3.443558584E+01+
*       3.0093002281E+01               0
GRID*                515               02.8412482655E+02-3.443552091E+01+
*       3.0093052094E+01               0
GRID*                516               02.7069199336E+02-4.233770075E+01+
*       1.9219317052E+01               0
GRID*                517               02.7069199073E+02-3.443552091E+01+
*       3.0093052094E+01               0
GRID*                518               02.5705562761E+02-3.443545934E+01+
*       3.0093099327E+01               0
GRID*                519               02.2998643148E+02-1.249966317E+01+
*       4.3400829231E+01               0
GRID*                520               02.2998643148E+027.3537619446E-15+
*       4.6750000000E+01               0
GRID*                521               02.1655359566E+02-3.015800354E-14+
*       4.6750000000E+01               0
GRID*                522               01.6646540048E+03-2.528167161E+01+
*       3.9248333821E+01               0
GRID*                523               01.6512211690E+03-2.528167161E+01+
*       3.9248333821E+01               0
GRID*                524               03.5189959137E+02-4.233279527E+01+
*       -1.922788429E+01               0
GRID*                525               03.5189959137E+02-4.568468154E+01+
*       -6.718476763E+00               0
GRID*                526               03.3846675555E+02-4.568468154E+01+
*       -6.718476763E+00               0
GRID*                527               03.3826322809E+02-4.568474816E+01+
*       6.7283626445E+00               0
GRID*                528               03.2483039227E+02-4.233770904E+01+
*       1.9219292599E+01               0
GRID*                529               03.2483039227E+02-4.568474816E+01+
*       6.7283626443E+00               0
GRID*                530               01.6646540037E+03-4.233766590E+01+
*       1.9219419751E+01               0
GRID*                531               01.6646540048E+03-3.443496881E+01+
*       3.0093475654E+01               0
GRID*                532               03.9240162663E+02-4.233279168E+01+
*       -1.922789487E+01               0
GRID*                533               03.7896879081E+02-4.568467795E+01+
*       -6.718487350E+00               0
GRID*                534               03.7896879081E+02-4.233279168E+01+
*       -1.922789488E+01               0
GRID*                535               01.4617367756E+03-3.443080635E+01+
*       -3.010134573E+01               0
GRID*                536               01.4481004083E+03-4.233286566E+01+
*       -1.922767686E+01               0
GRID*                537               01.4481004125E+03-3.443087607E+01+
*       -3.010129224E+01               0
GRID*                538               01.4617367719E+03-4.233286190E+01+
*       -1.922768795E+01               0
GRID*                539               01.4346675767E+03-3.443087607E+01+
*       -3.010129224E+01               0
GRID*                540               01.4346675724E+03-4.233286566E+01+
*       -1.922767686E+01               0
GRID*                541               04.4654002607E+024.5684760284E+01+
*       -6.718244690E+00               0
GRID*                542               04.3310719025E+024.2332874024E+01+
*       -1.922765221E+01               0
GRID*                543               04.3310719025E+024.5684760284E+01+
*       -6.718244690E+00               0
GRID*                544               04.0603799025E+024.5684674324E+01+
*       6.7285802568E+00               0
GRID*                545               04.0603799074E+024.5684758102E+01+
*       -6.718251117E+00               0
GRID*                546               03.9240162706E+024.5684755274E+01+
*       -6.718259452E+00               0
GRID*                547               04.8724558865E+024.5684663607E+01+
*       6.7286118405E+00               0
GRID*                548               04.7360922500E+024.5684667114E+01+
*       6.7286015043E+00               0
GRID*                549               04.8724558865E+024.2337624490E+01+
*       1.9219541788E+01               0
GRID*                550               04.7360922500E+024.2337627997E+01+
*       1.9219531452E+01               0
GRID*                551               05.1431478969E+022.4842599260E-14+
*       4.6750000000E+01               0
GRID*                552               05.0067841754E+021.2781167376E+01+
*       4.2598149834E+01               0
GRID*                553               05.0067842605E+029.0386120525E-15+
*       4.6750000000E+01               0
GRID*                554               03.7896879124E+024.2332869015E+01+
*       -1.922766698E+01               0
GRID*                555               03.7896878638E+023.4430947188E+01+
*       -3.010123768E+01               0
GRID*                556               03.6533242330E+023.4430876072E+01+
*       -3.010129224E+01               0
GRID*                557               03.7896878638E+022.5284176468E+01+
*       -3.924673089E+01               0
GRID*                558               03.6533242330E+022.5284105352E+01+
*       -3.924678545E+01               0
GRID*                559               05.4138398915E+02-6.423865116E-15+
*       4.6750000000E+01               0
GRID*                560               05.2774761715E+021.2781179193E+01+
*       4.2598140768E+01               0
GRID*                561               05.2774762551E+025.5871651620E-15+
*       4.6750000000E+01               0
GRID*                562               03.6533242757E+024.2332865661E+01+
*       -1.922767686E+01               0
GRID*                563               01.6917232033E+03-2.528360558E+01+
*       -3.924716885E+01               0
GRID*                564               01.6917232022E+03-1.250134251E+01+
*       -4.339985961E+01               0
GRID*                565               01.6993613277E+03-8.336500928E+00+
*       -4.260528129E+01               0
GRID*                566               01.6993613288E+03-2.111876400E+01+
*       -3.845259053E+01               0
GRID*                567               01.7001754390E+03-2.083784344E+01+
*       -4.250514090E+01               0
GRID*                568               05.6845318113E+022.5280939545E+01+
*       3.9248895443E+01               0
GRID*                569               05.6845318113E+023.4434236750E+01+
*       3.0094037274E+01               0
GRID*                570               05.5502034530E+023.4434236749E+01+
*       3.0094037275E+01               0
GRID*                571               05.8188602442E+02-1.293801390E-14+
*       4.6750000000E+01               0
GRID*                572               05.9552238806E+02-1.249966317E+01+
*       4.3400829231E+01               0
GRID*                573               05.6845318860E+02-8.941603050E-15+
*       4.6750000000E+01               0
GRID*                574               04.0603799074E+024.2332871843E+01+
*       -1.922765864E+01               0
GRID*                575               03.9240162221E+023.4430947188E+01+
*       -3.010123768E+01               0
GRID*                576               03.9240162706E+024.2332869015E+01+
*       -1.922766698E+01               0
GRID*                577               06.4966078665E+02-4.233769932E+01+
*       1.9219321266E+01               0
GRID*                578               06.4966077638E+02-3.443641768E+01+
*       3.0092364119E+01               0
GRID*                579               06.3602441303E+02-3.443637495E+01+
*       3.0092396896E+01               0
GRID*                580               06.6309362247E+02-4.233769932E+01+
*       1.9219321266E+01               0
GRID*                581               01.7865671642E+033.4435163960E+01+
*       3.0093331483E+01               0
GRID*                582               01.7729308008E+034.2337671554E+01+
*       1.9219403089E+01               0
GRID*                583               01.7729308008E+033.4435160554E+01+
*       3.0093328551E+01               0
GRID*                584               07.0379918463E+02-4.568464355E+01+
*       -6.718588722E+00               0
GRID*                585               06.9016282206E+02-4.568472854E+01+
*       6.7284204519E+00               0
GRID*                586               06.9016282093E+02-4.568464483E+01+
*       -6.718584946E+00               0
GRID*                587               07.7137040958E+023.4431651897E+01+
*       -3.010069705E+01               0
GRID*                588               07.7137040958E+022.5284881180E+01+
*       -3.924619025E+01               0
GRID*                589               07.5793757376E+023.4431651897E+01+
*       -3.010069705E+01               0
GRID*                590               07.7137042083E+024.2332804276E+01+
*       -1.922785776E+01               0
GRID*                591               07.5793758501E+024.2332804276E+01+
*       -1.922785776E+01               0
GRID*                592               07.5793758501E+024.5684690539E+01+
*       -6.718450242E+00               0
GRID*                593               07.9843962041E+024.5684680088E+01+
*       -6.718481042E+00               0
GRID*                594               07.8500678459E+024.5684680088E+01+
*       -6.718481042E+00               0
GRID*                595               04.3310718420E+023.4431090815E+01+
*       -3.010112750E+01               0
GRID*                596               04.1947082111E+023.4431019007E+01+
*       -3.010118259E+01               0
GRID*                597               08.5257802649E+023.4436087552E+01+
*       3.0092617385E+01               0
GRID*                598               08.5257801809E+024.2337607073E+01+
*       1.9219593118E+01               0
GRID*                599               08.3914519067E+023.4436087552E+01+
*       3.0092617385E+01               0
GRID*                600               08.3914518227E+024.2337607073E+01+
*       1.9219593118E+01               0
GRID*                601               08.5257801809E+024.5684646189E+01+
*       6.7286631664E+00               0
GRID*                602               04.1947082656E+024.2332871843E+01+
*       -1.922765864E+01               0
GRID*                603               08.2550882585E+023.4435943066E+01+
*       3.0092728231E+01               0
GRID*                604               08.3914519067E+022.5282790347E+01+
*       3.9247475556E+01               0
GRID*                605               08.2550882585E+022.5282645861E+01+
*       3.9247586401E+01               0
GRID*                606               08.7964721845E+021.2499663170E+01+
*       4.3400829231E+01               0
GRID*                607               08.6621438263E+021.2499663170E+01+
*       4.3400829231E+01               0
GRID*                608               08.6621438263E+02-1.070729053E-14+
*       4.6750000000E+01               0
GRID*                609               08.7964722692E+022.5282909058E+01+
*       3.9247384483E+01               0
GRID*                610               08.7964722692E+023.4436206264E+01+
*       3.0092526312E+01               0
GRID*                611               08.6621439110E+022.5282909058E+01+
*       3.9247384483E+01               0
GRID*                612               04.3310718420E+022.5284320095E+01+
*       -3.924662070E+01               0
GRID*                613               04.1947082111E+022.5284248287E+01+
*       -3.924667579E+01               0
GRID*                614               09.0671642717E+023.4436301640E+01+
*       3.0092453142E+01               0
GRID*                615               08.9328359135E+023.4436301639E+01+
*       3.0092453142E+01               0
GRID*                616               08.9328359135E+022.5283004434E+01+
*       3.9247311314E+01               0
GRID*                617               09.3378561819E+02-4.568464904E+01+
*       6.7286547705E+00               0
GRID*                618               09.3378561819E+02-4.233760992E+01+
*       1.9219584722E+01               0
GRID*                619               09.2035278237E+02-4.568464904E+01+
*       6.7286547701E+00               0
GRID*                620               04.6017638978E+024.2332875433E+01+
*       -1.922764806E+01               0
GRID*                621               04.4654002002E+023.4431090814E+01+
*       -3.010112750E+01               0
GRID*                622               04.4654002607E+024.2332874024E+01+
*       -1.922765221E+01               0
GRID*                623               09.3378560890E+02-2.528290906E+01+
*       3.9247384483E+01               0
GRID*                624               09.3378561737E+02-1.249966317E+01+
*       4.3400829231E+01               0
GRID*                625               09.2035277308E+02-2.528290906E+01+
*       3.9247384483E+01               0
GRID*                626               09.2035278155E+02-1.249966317E+01+
*       4.3400829231E+01               0
GRID*                627               08.9328357283E+02-2.528300443E+01+
*       3.9247311314E+01               0
GRID*                628               08.7964720857E+02-2.528307868E+01+
*       3.9247254357E+01               0
GRID*                629               08.9328357283E+02-3.443630164E+01+
*       3.0092453142E+01               0
GRID*                630               08.7964720857E+02-3.443637588E+01+
*       3.0092396185E+01               0
GRID*                631               09.0671640865E+02-2.528300443E+01+
*       3.9247311314E+01               0
GRID*                632               09.2035277308E+02-3.443620626E+01+
*       3.0092526312E+01               0
GRID*                633               09.0671640865E+02-3.443630164E+01+
*       3.0092453142E+01               0
GRID*                634               01.0149932108E+03-2.528247289E+01+
*       3.9247719103E+01               0
GRID*                635               01.0015603750E+03-3.443577009E+01+
*       3.0092860932E+01               0
GRID*                636               01.5700135714E+032.5282104560E+01+
*       3.9248001674E+01               0
GRID*                637               01.0149932157E+03-1.250134251E+01+
*       -4.339985961E+01               0
GRID*                638               01.0286295794E+03-1.250134251E+01+
*       -4.339985961E+01               0
GRID*                639               01.0149932267E+03-2.528487310E+01+
*       -3.924619645E+01               0
GRID*                640               01.7001754390E+03-8.336500928E+00+
*       -4.585528129E+01               0
GRID*                641               01.7136082748E+03-2.083784344E+01+
*       -4.250514090E+01               0
GRID*                642               01.0286295904E+03-3.443165190E+01+
*       -3.010069705E+01               0
GRID*                643               01.0286295792E+03-4.233280428E+01+
*       -1.922785776E+01               0
GRID*                644               01.0149932154E+03-4.233279383E+01+
*       -1.922788856E+01               0
GRID*                645               01.0149932154E+03-4.568468009E+01+
*       -6.718481042E+00               0
GRID*                646               01.0015603796E+03-4.233279383E+01+
*       -1.922788856E+01               0
GRID*                647               01.0420624150E+03-4.568469054E+01+
*       -6.718450242E+00               0
GRID*                648               01.0286295792E+03-4.568469054E+01+
*       -6.718450243E+00               0
GRID*                649               04.0705562623E+01-4.568470934E+01+
*       -6.718394847E+00               0
GRID*                650               01.0691316147E+03-1.250134251E+01+
*       -4.339985961E+01               0
GRID*                651               01.0827679783E+03-1.250134251E+01+
*       -4.339985961E+01               0
GRID*                652               01.0691316257E+03-2.528487660E+01+
*       -3.924619376E+01               0
GRID*                653               05.1431478884E+02-4.233772256E+01+
*       1.9219252763E+01               0
GRID*                654               05.0067841788E+02-3.443607858E+01+
*       3.0092624269E+01               0
GRID*                655               05.0067842513E+02-4.233772309E+01+
*       1.9219251211E+01               0
GRID*                656               05.4138398432E+01-2.528187644E+01+
*       3.9248176685E+01               0
GRID*                657               05.4138398915E+01-1.249966317E+01+
*       4.3400829231E+01               0
GRID*                658               04.0502035278E+01-1.249966317E+01+
*       4.3400829231E+01               0
GRID*                659               01.1232700136E+031.2501342511E+01+
*       -4.339985961E+01               0
GRID*                660               01.1232700136E+032.7970591309E-15+
*       -4.675000000E+01               0
GRID*                661               01.1098371777E+031.2501342511E+01+
*       -4.339985961E+01               0
GRID*                662               01.1232700163E+032.5283193513E+01+
*       -3.924748498E+01               0
GRID*                663               01.1098371805E+032.5283193513E+01+
*       -3.924748498E+01               0
GRID*                664               01.0962008251E+03-2.528486070E+01+
*       -3.924620596E+01               0
GRID*                665               01.0962008251E+03-3.443163142E+01+
*       -3.010071276E+01               0
GRID*                666               01.0827679893E+03-2.528486070E+01+
*       -3.924620596E+01               0
GRID*                667               01.1232700244E+03-3.443160543E+01+
*       -3.010073269E+01               0
GRID*                668               01.1098371886E+03-3.443160543E+01+
*       -3.010073269E+01               0
GRID*                669               01.1098371886E+03-2.528483472E+01+
*       -3.924622589E+01               0
GRID*                670               01.3127544098E+03-1.250134251E+01+
*       -4.339985961E+01               0
GRID*                671               01.3263907734E+03-1.250134251E+01+
*       -4.339985961E+01               0
GRID*                672               01.3127544179E+03-2.528446071E+01+
*       -3.924651282E+01               0
GRID*                673               01.1503392236E+033.4436417678E+01+
*       3.0092364119E+01               0
GRID*                674               01.1503392133E+034.2337699317E+01+
*       1.9219321266E+01               0
GRID*                675               01.1369063878E+033.4436417678E+01+
*       3.0092364119E+01               0
GRID*                676               01.1369063775E+034.2337699317E+01+
*       1.9219321266E+01               0
GRID*                677               01.5563772049E+031.2499663170E+01+
*       4.3400829231E+01               0
GRID*                678               01.5563772082E+032.5282162136E+01+
*       3.9247957503E+01               0
GRID*                679               01.5429443691E+031.2499663170E+01+
*       4.3400829231E+01               0
GRID*                680               01.5429443724E+032.5282162136E+01+
*       3.9247957503E+01               0
GRID*                681               01.2044776125E+034.5684752466E+01+
*       6.7283499520E+00               0
GRID*                682               01.1910447767E+034.5684752466E+01+
*       6.7283499524E+00               0
GRID*                683               01.1910447767E+034.2337713351E+01+
*       1.9219279906E+01               0
GRID*                684               01.1774084125E+031.2499663170E+01+
*       4.3400829231E+01               0
GRID*                685               01.1639755767E+031.2499663170E+01+
*       4.3400829231E+01               0
GRID*                686               01.1639755767E+031.6488846636E-15+
*       4.6750000000E+01               0
GRID*                687               01.4751696077E+034.2337709044E+01+
*       1.9219292599E+01               0
GRID*                688               01.4751696077E+034.5684748158E+01+
*       6.7283626443E+00               0
GRID*                689               01.4617367719E+034.2337709044E+01+
*       1.9219292599E+01               0
GRID*                690               01.3127544098E+032.7596924500E-15+
*       -4.675000000E+01               0
GRID*                691               01.3263907734E+032.8000501273E-15+
*       -4.675000000E+01               0
GRID*                692               01.2315468114E+033.5240533072E-14+
*       4.6750000000E+01               0
GRID*                693               01.2315468114E+031.2499663170E+01+
*       4.3400829231E+01               0
GRID*                694               01.2181139756E+03-3.270335124E-15+
*       4.6750000000E+01               0
GRID*                695               01.2856852103E+03-1.249966317E+01+
*       4.3400829231E+01               0
GRID*                696               01.2856852103E+03-1.401704643E-14+
*       4.6750000000E+01               0
GRID*                697               01.2722523745E+03-1.249966317E+01+
*       4.3400829231E+01               0
GRID*                698               01.3127544114E+03-4.233762449E+01+
*       1.9219541788E+01               0
GRID*                699               01.3127544183E+03-3.443412775E+01+
*       3.0094120897E+01               0
GRID*                700               01.2993215755E+03-4.233762449E+01+
*       1.9219541788E+01               0
GRID*                701               01.2993215825E+03-3.443412775E+01+
*       3.0094120897E+01               0
GRID*                702               01.2856852187E+03-3.443413957E+01+
*       3.0094111831E+01               0
GRID*                703               01.2722523761E+03-4.233762110E+01+
*       1.9219551776E+01               0
GRID*                704               01.2722523828E+03-3.443413957E+01+
*       3.0094111831E+01               0
GRID*                705               01.4346675712E+031.2499663170E+01+
*       4.3400829231E+01               0
GRID*                706               01.4346675767E+032.5282426010E+01+
*       3.9247755066E+01               0
GRID*                707               01.4210312136E+032.5282497126E+01+
*       3.9247700507E+01               0
GRID*                708               01.2993215825E+03-2.528083055E+01+
*       3.9248979065E+01               0
GRID*                709               01.2856852187E+03-2.528084236E+01+
*       3.9248969999E+01               0
GRID*                710               01.3263907811E+03-3.443116188E+01+
*       -3.010107298E+01               0
GRID*                711               01.3127544179E+03-3.443123143E+01+
*       -3.010101962E+01               0
GRID*                712               01.3263907811E+03-2.528439116E+01+
*       -3.924656618E+01               0
GRID*                713               01.3398236108E+03-4.568466711E+01+
*       6.7286015048E+00               0
GRID*                714               01.3398236108E+03-4.233762800E+01+
*       1.9219531452E+01               0
GRID*                715               01.3263907750E+03-4.568466711E+01+
*       6.7286015043E+00               0
GRID*                716               01.4481004083E+034.2337712807E+01+
*       1.9219281509E+01               0
GRID*                717               01.4481004083E+034.5684751921E+01+
*       6.7283515550E+00               0
GRID*                718               01.4346675724E+034.2337712807E+01+
*       1.9219281510E+01               0
GRID*                719               01.4075983778E+03-3.443094719E+01+
*       -3.010123768E+01               0
GRID*                720               01.3939620147E+03-3.443101901E+01+
*       -3.010118258E+01               0
GRID*                721               01.4075983778E+03-2.528417647E+01+
*       -3.924673089E+01               0
GRID*                722               01.3939620147E+03-2.528424829E+01+
*       -3.924667579E+01               0
GRID*                723               01.4210312136E+03-3.443094719E+01+
*       -3.010123768E+01               0
GRID*                724               01.4210312088E+03-4.233286902E+01+
*       -1.922766698E+01               0
GRID*                725               01.4075983729E+03-4.233286902E+01+
*       -1.922766698E+01               0
GRID*                726               02.8412483039E+021.2501342512E+01+
*       -4.339985961E+01               0
GRID*                727               02.8412482655E+022.5283903045E+01+
*       -3.924694065E+01               0
GRID*                728               01.4210312088E+03-4.568475527E+01+
*       -6.718259452E+00               0
GRID*                729               01.4075983729E+03-4.568475527E+01+
*       -6.718259452E+00               0
GRID*                730               01.4075983794E+032.5282643986E+01+
*       -3.924790657E+01               0
GRID*                731               01.3939620162E+032.5282588426E+01+
*       -3.924794919E+01               0
GRID*                732               01.4075983794E+033.4429414695E+01+
*       -3.010241338E+01               0
GRID*                733               01.3939620162E+033.4429359135E+01+
*       -3.010245600E+01               0
GRID*                734               01.3668928103E+034.2332784429E+01+
*       -1.922791625E+01               0
GRID*                735               01.3534599745E+034.2332784430E+01+
*       -1.922791625E+01               0
GRID*                736               01.4210312153E+032.5282643986E+01+
*       -3.924790657E+01               0
GRID*                737               01.4888059714E+034.5684744101E+01+
*       6.7283746014E+00               0
GRID*                738               01.4888059714E+034.2337704987E+01+
*       1.9219304556E+01               0
GRID*                739               01.4888059717E+034.5684688487E+01+
*       -6.718456301E+00               0
GRID*                740               01.4751696081E+034.5684685067E+01+
*       -6.718466379E+00               0
GRID*                741               01.7053595658E+032.7253167656E-15+
*       -4.675000000E+01               0
GRID*                742               01.7187924016E+03-1.250134251E+01+
*       -4.339985961E+01               0
GRID*                743               01.7129976913E+03-8.336500928E+00+
*       -4.260528129E+01               0
GRID*                744               01.4751696081E+034.2332798795E+01+
*       -1.922787390E+01               0
GRID*                745               01.4210312153E+033.4429414695E+01+
*       -3.010241338E+01               0
GRID*                746               01.5293080093E+032.5282223703E+01+
*       3.9247910271E+01               0
GRID*                747               01.5158751734E+032.5282223703E+01+
*       3.9247910271E+01               0
GRID*                748               01.4888059701E+031.2499663170E+01+
*       4.3400829231E+01               0
GRID*                749               01.4888059745E+032.5282288633E+01+
*       3.9247860457E+01               0
GRID*                750               01.4751696114E+032.5282356288E+01+
*       3.9247808555E+01               0
GRID*                751               01.5022388103E+032.5282288633E+01+
*       3.9247860457E+01               0
GRID*                752               01.5022388103E+033.4435585841E+01+
*       3.0093002281E+01               0
GRID*                753               01.4481004142E+033.4429480846E+01+
*       -3.010236263E+01               0
GRID*                754               01.4481004142E+032.5282710137E+01+
*       -3.924785582E+01               0
GRID*                755               01.4346675784E+033.4429480846E+01+
*       -3.010236263E+01               0
GRID*                756               01.3534599729E+02-1.250134251E+01+
*       -4.339985961E+01               0
GRID*                757               01.3534599518E+02-2.528335095E+01+
*       -3.924736420E+01               0
GRID*                758               01.2170963211E+02-2.528341337E+01+
*       -3.924731632E+01               0
GRID*                759               01.4346675728E+034.2332795273E+01+
*       -1.922788429E+01               0
GRID*                760               01.4210312092E+034.2332791680E+01+
*       -1.922789488E+01               0
GRID*                761               01.4346675728E+034.5684681544E+01+
*       -6.718476762E+00               0
GRID*                762               01.4210312092E+034.5684677951E+01+
*       -6.718487350E+00               0
GRID*                763               01.6105156038E+031.2499663170E+01+
*       4.3400829231E+01               0
GRID*                764               01.5970827680E+031.2499663170E+01+
*       4.3400829231E+01               0
GRID*                765               01.5970827680E+030.0000000000E+00+
*       4.6750000000E+01               0
GRID*                766               06.6309362142E+024.2337607453E+01+
*       1.9219591997E+01               0
GRID*                767               06.6309362142E+024.5684646570E+01+
*       6.7286620473E+00               0
GRID*                768               06.4966078560E+024.5684646570E+01+
*       6.7286620477E+00               0
GRID*                769               01.5834464043E+032.7720014703E-14+
*       4.6750000000E+01               0
GRID*                770               01.5834464043E+031.2499663170E+01+
*       4.3400829231E+01               0
GRID*                771               01.5700135685E+033.7415495993E-15+
*       4.6750000000E+01               0
GRID*                772               01.5700135685E+03-1.249966317E+01+
*       4.3400829231E+01               0
GRID*                773               01.6105156050E+03-4.233766136E+01+
*       1.9219433135E+01               0
GRID*                774               01.5970827692E+03-4.568470047E+01+
*       6.7285031898E+00               0
GRID*                775               02.1655359566E+021.2499663169E+01+
*       4.3400829231E+01               0
GRID*                776               02.1655359161E+022.5281440357E+01+
*       3.9248511233E+01               0
GRID*                777               02.0291722864E+022.5281522793E+01+
*       3.9248447990E+01               0
GRID*                778               01.5970827691E+03-4.568472711E+01+
*       -6.718342440E+00               0
GRID*                779               01.5834464055E+03-4.568473126E+01+
*       -6.718330217E+00               0
GRID*                780               01.6241519702E+03-2.528160055E+01+
*       3.9248388341E+01               0
GRID*                781               01.3432835821E+01-4.233282396E+01+
*       -1.922779996E+01               0
GRID*                782               02.7069199207E+01-3.443030018E+01+
*       -3.010173406E+01               0
GRID*                783               01.7129976921E+03-2.111873534E+01+
*       -3.845261252E+01               0
GRID*                784               01.7187924023E+03-4.568470827E+01+
*       6.7284802228E+00               0
GRID*                785               01.7187924023E+03-4.233766915E+01+
*       1.9219410166E+01               0
GRID*                786               01.7051560388E+03-4.233766770E+01+
*       1.9219414441E+01               0
GRID*                787               01.7865671642E+031.2501342511E+01+
*       -4.339985961E+01               0
GRID*                788               01.7865671642E+032.5283546094E+01+
*       -3.924722004E+01               0
GRID*                789               03.2483039349E+02-1.250134251E+01+
*       -4.339985961E+01               0
GRID*                790               03.2483038684E+02-2.528278453E+01+
*       -3.924779874E+01               0
GRID*                791               03.1119402381E+02-2.528286489E+01+
*       -3.924773710E+01               0
GRID*                792               01.7729308008E+033.4430300183E+01+
*       -3.010173406E+01               0
GRID*                793               01.7729308008E+032.5283529477E+01+
*       -3.924722724E+01               0
GRID*                794               02.8432835217E+02-3.442963559E+01+
*       -3.010224391E+01               0
GRID*                795               02.7069199312E+02-4.233280550E+01+
*       -1.922785415E+01               0
GRID*                796               02.7069198918E+02-3.442971968E+01+
*       -3.010217940E+01               0
GRID*                797               01.3939620081E+03-1.249966317E+01+
*       4.3400829231E+01               0
GRID*                798               02.5705562621E+02-2.528303462E+01+
*       -3.924760688E+01               0
GRID*                799               02.7069198918E+02-2.528294897E+01+
*       -3.924767259E+01               0
GRID*                800               02.5725915336E+02-3.442971968E+01+
*       -3.010217941E+01               0
GRID*                801               02.4362279039E+02-3.442980533E+01+
*       -3.010211370E+01               0
GRID*                802               02.4362279372E+02-4.233280861E+01+
*       -1.922784498E+01               0
GRID*                803               02.2998643017E+02-4.233281152E+01+
*       -1.922783639E+01               0
GRID*                804               02.4362279512E+02-1.250134251E+01+
*       -4.339985961E+01               0
GRID*                805               02.4362279039E+02-2.528303462E+01+
*       -3.924760688E+01               0
GRID*                806               02.2998642743E+02-2.528311970E+01+
*       -3.924754161E+01               0
GRID*                807               02.7069199073E+022.5283903045E+01+
*       -3.924694065E+01               0
GRID*                808               02.0291723202E+022.9785544379E-15+
*       -4.675000000E+01               0
GRID*                809               02.1655359566E+023.0189121151E-15+
*       -4.675000000E+01               0
GRID*                810               02.0291722864E+02-1.278185962E+01+
*       -4.259761876E+01               0
GRID*                811               02.2998643148E+021.2501342512E+01+
*       -4.339985961E+01               0
GRID*                812               01.2382253847E+03-6.931635261E+00+
*       -4.623694056E+01               0
GRID*                813               01.2382253847E+03-1.943297777E+01+
*       -4.288680017E+01               0
GRID*                814               01.2516582205E+03-1.943297777E+01+
*       -4.288680017E+01               0
GRID*                815               02.7069199457E+021.2501342512E+01+
*       -4.339985961E+01               0
GRID*                816               02.5705562621E+02-1.278169211E+01+
*       -4.259774727E+01               0
GRID*                817               01.2856852103E+031.2501342511E+01+
*       -4.339985961E+01               0
GRID*                818               01.2993215739E+031.2501342511E+01+
*       -4.339985961E+01               0
GRID*                819               01.2722523745E+03-1.250134251E+01+
*       -4.339985961E+01               0
GRID*                820               01.2722523832E+03-2.528452797E+01+
*       -3.924646123E+01               0
GRID*                821               01.2586160200E+03-2.528459211E+01+
*       -3.924641202E+01               0
GRID*                822               04.7360921810E+02-2.528251884E+01+
*       -3.924800258E+01               0
GRID*                823               04.6017638228E+02-3.442928955E+01+
*       -3.010250939E+01               0
GRID*                824               01.4888059701E+032.7680215437E-15+
*       -4.675000000E+01               0
GRID*                825               01.5022388060E+03-1.250134251E+01+
*       -4.339985961E+01               0
GRID*                826               01.4927113514E+03-7.072249992E+00+
*       -4.327037372E+01               0
GRID*                827               01.4815173215E+03-7.072249992E+00+
*       -4.652037372E+01               0
GRID*                828               01.4949501573E+03-1.957359250E+01+
*       -4.317023333E+01               0
GRID*                829               01.6105156072E+03-2.528152279E+01+
*       3.9248447990E+01               0
GRID*                830               01.6512211669E+032.7359929601E-15+
*       -4.675000000E+01               0
GRID*                831               02.5705563094E+022.9678782433E-15+
*       -4.675000000E+01               0
GRID*                832               02.7069199457E+023.0082359206E-15+
*       -4.675000000E+01               0
GRID*                833               01.2451831842E+03-2.528459211E+01+
*       -3.924641202E+01               0
GRID*                834               01.2475876734E+03-1.971488486E+01+
*       -3.883349297E+01               0
GRID*                835               01.5970827703E+032.5282051587E+01+
*       3.9248042313E+01               0
GRID*                836               01.5834464072E+032.5282104560E+01+
*       3.9248001674E+01               0
GRID*                837               01.5022388103E+03-3.443073870E+01+
*       -3.010139763E+01               0
GRID*                838               01.5022388072E+03-4.233285784E+01+
*       -1.922769991E+01               0
GRID*                839               01.4888059745E+03-3.443073870E+01+
*       -3.010139763E+01               0
GRID*                840               01.4888059714E+03-4.233285784E+01+
*       -1.922769991E+01               0
GRID*                841               04.0603798529E+022.5284248287E+01+
*       -3.924667579E+01               0
GRID*                842               04.0603798529E+023.4431019007E+01+
*       -3.010118258E+01               0
GRID*                843               01.3398236177E+033.4429289547E+01+
*       -3.010250939E+01               0
GRID*                844               01.3398236108E+034.2332780844E+01+
*       -1.922792681E+01               0
GRID*                845               01.2586160200E+03-3.443136283E+01+
*       -3.010091882E+01               0
GRID*                846               01.2586160116E+03-4.233287371E+01+
*       -1.922765313E+01               0
GRID*                847               01.2451831842E+03-3.443136283E+01+
*       -3.010091882E+01               0
GRID*                848               01.2451831758E+03-4.233287371E+01+
*       -1.922765313E+01               0
GRID*                849               01.4346675784E+03-2.528103080E+01+
*       3.9248825438E+01               0
GRID*                850               01.4210312153E+03-2.528096464E+01+
*       3.9248876188E+01               0
GRID*                851               01.4210312153E+03-3.443426185E+01+
*       3.0094018020E+01               0
GRID*                852               01.4210312136E+033.4435794334E+01+
*       3.0092842331E+01               0
GRID*                853               01.4210312088E+034.2337716161E+01+
*       1.9219271624E+01               0
GRID*                854               01.4075983778E+033.4435794334E+01+
*       3.0092842332E+01               0
GRID*                855               01.4075983729E+034.2337716161E+01+
*       1.9219271625E+01               0
GRID*                856               01.2993215739E+032.8053882245E-15+
*       -4.675000000E+01               0
GRID*                857               01.2993215739E+03-1.250134251E+01+
*       -4.339985961E+01               0
GRID*                858               01.2315468210E+03-3.443142300E+01+
*       -3.010087266E+01               0
GRID*                859               01.2315468210E+03-2.528465228E+01+
*       -3.924636586E+01               0
GRID*                860               01.2451831750E+032.8160644191E-15+
*       -4.675000000E+01               0
GRID*                861               01.2586160109E+03-1.250134251E+01+
*       -4.339985961E+01               0
GRID*                862               01.2475876642E+03-6.931635261E+00+
*       -4.298694056E+01               0
GRID*                863               01.2339513102E+03-1.971494503E+01+
*       -3.883344681E+01               0
GRID*                864               01.2586160189E+032.5282557071E+01+
*       -3.924797325E+01               0
GRID*                865               01.2451831750E+031.2501342511E+01+
*       -4.339985961E+01               0
GRID*                866               01.2451831831E+032.5282557071E+01+
*       -3.924797325E+01               0
GRID*                867               01.2315468114E+032.7757067418E-15+
*       -4.675000000E+01               0
GRID*                868               01.2339513006E+03-6.931635261E+00+
*       -4.298694056E+01               0
GRID*                869               01.2315468114E+03-1.250134251E+01+
*       -4.339985961E+01               0
GRID*                870               03.9240162221E+022.5284176468E+01+
*       -3.924673089E+01               0
GRID*                871               01.5740514385E+037.2994736841E+00+
*       4.2880469320E+01               0
GRID*                872               01.5740514413E+032.0081915074E+01+
*       3.8727641763E+01               0
GRID*                873               01.5604150781E+032.0081972650E+01+
*       3.8727597592E+01               0
GRID*                874               01.7729308008E+03-2.528185013E+01+
*       3.9248196862E+01               0
GRID*                875               01.7594979650E+03-2.528185013E+01+
*       3.9248196862E+01               0
GRID*                876               01.7594979650E+03-3.443514734E+01+
*       3.0093338695E+01               0
GRID*                877               01.7594979649E+032.5281863345E+01+
*       3.9248186727E+01               0
GRID*                878               01.2856852190E+03-2.528452797E+01+
*       -3.924646123E+01               0
GRID*                879               01.2856852190E+03-3.443129869E+01+
*       -3.010096802E+01               0
GRID*                880               01.6241519482E+02-2.528200382E+01+
*       3.9248078960E+01               0
GRID*                881               01.6241519674E+02-1.249966317E+01+
*       4.3400829231E+01               0
GRID*                882               01.4877883311E+02-1.249966317E+01+
*       4.3400829231E+01               0
GRID*                883               01.3668928158E+033.4435937961E+01+
*       3.0092732145E+01               0
GRID*                884               01.4406116790E+03-6.584519665E+00+
*       -4.340195530E+01               0
GRID*                885               01.4406116845E+03-1.936728251E+01+
*       -3.924888113E+01               0
GRID*                886               01.4269753214E+03-1.936735362E+01+
*       -3.924882657E+01               0
GRID*                887               01.8948439620E+021.5589091152E-14+
*       4.6750000000E+01               0
GRID*                888               01.7584802984E+021.2781937376E+01+
*       4.2597559110E+01               0
GRID*                889               01.7769562952E+03-6.773250448E+00+
*       -4.628281884E+01               0
GRID*                890               01.7769562952E+03-1.927459296E+01+
*       -4.293267845E+01               0
GRID*                891               01.7903891310E+03-1.927459296E+01+
*       -4.293267845E+01               0
GRID*                892               01.8948439498E+02-4.568470048E+01+
*       -6.718420970E+00               0
GRID*                893               01.8948439510E+02-4.568472712E+01+
*       6.7284246589E+00               0
GRID*                894               01.7584803155E+02-4.568472321E+01+
*       6.7284361811E+00               0
GRID*                895               01.3636363389E+014.2332824406E+01+
*       -1.922779844E+01               0
GRID*                896               01.3432835821E+013.4430316815E+01+
*       -3.010172683E+01               0
GRID*                897               02.7069199210E+014.2332824409E+01+
*       -1.922779844E+01               0
GRID*                898               01.3636363389E+01-4.233767155E+01+
*       1.9219403098E+01               0
GRID*                899               01.3432835821E+01-3.443516396E+01+
*       3.0093331483E+01               0
GRID*                900               02.0312075852E+02-4.568469780E+01+
*       -6.718428868E+00               0
GRID*                901               09.4640433407E+013.4430347649E+01+
*       -3.010169763E+01               0
GRID*                902               08.1207597586E+013.4430347649E+01+
*       -3.010169763E+01               0
GRID*                903               01.6241519572E+024.2332836947E+01+
*       -1.922776149E+01               0
GRID*                904               01.6241519482E+023.4430453881E+01+
*       -3.010161613E+01               0
GRID*                905               01.4877883160E+023.4430411906E+01+
*       -3.010164834E+01               0
GRID*                906               01.7767527674E+03-6.773250448E+00+
*       -4.303281884E+01               0
GRID*                907               01.7903891310E+03-6.773250448E+00+
*       -4.303281884E+01               0
GRID*                908               01.7767527676E+03-1.955545062E+01+
*       -3.888017634E+01               0
GRID*                909               01.5834464057E+034.5684697796E+01+
*       -6.718428868E+00               0
GRID*                910               01.5834464057E+034.2332811522E+01+
*       -1.922783639E+01               0
GRID*                911               01.5780643841E+034.3145423036E+01+
*       -8.706698192E+00               0
GRID*                912               01.5796926053E+034.7460724223E+01+
*       -1.978187124E+00               0
GRID*                913               01.5796926053E+034.4108837950E+01+
*       -1.448759465E+01               0
GRID*                914               02.1655359450E+02-4.233769215E+01+
*       1.9219342391E+01               0
GRID*                915               02.0312075868E+02-4.233769215E+01+
*       1.9219342391E+01               0
GRID*                916               02.9776119252E+024.5684688486E+01+
*       6.7285385201E+00               0
GRID*                917               02.9776119281E+024.5684744100E+01+
*       -6.718292382E+00               0
GRID*                918               02.8412482918E+024.5684739860E+01+
*       -6.718304879E+00               0
GRID*                919               03.1119402863E+024.5684744100E+01+
*       -6.718292383E+00               0
GRID*                920               03.1119402863E+024.2332857842E+01+
*       -1.922769991E+01               0
GRID*                921               02.9776119281E+024.2332857842E+01+
*       -1.922769991E+01               0
GRID*                922               03.2483039194E+024.5684685067E+01+
*       6.7285485981E+00               0
GRID*                923               03.1139755612E+024.5684685066E+01+
*       6.7285485985E+00               0
GRID*                924               02.9776119403E+021.2501342512E+01+
*       -4.339985961E+01               0
GRID*                925               03.5189959137E+024.5684681543E+01+
*       6.7285589812E+00               0
GRID*                926               03.3846675555E+024.5684681543E+01+
*       6.7285589816E+00               0
GRID*                927               03.2483039349E+021.2499663169E+01+
*       4.3400829231E+01               0
GRID*                928               03.2483038684E+022.5281105190E+01+
*       3.9248768364E+01               0
GRID*                929               03.1119402381E+022.5281185544E+01+
*       3.9248706719E+01               0
GRID*                930               03.2483039349E+02-2.715615353E-14+
*       4.6750000000E+01               0
GRID*                931               03.1119402381E+021.2781522375E+01+
*       4.2597877488E+01               0
GRID*                932               07.3086838542E+024.2332816506E+01+
*       -1.922782172E+01               0
GRID*                933               07.3086837429E+023.4431647322E+01+
*       -3.010070056E+01               0
GRID*                934               07.1723201073E+023.4431631420E+01+
*       -3.010071276E+01               0
GRID*                935               01.3534599578E+022.5283641185E+01+
*       -3.924714154E+01               0
GRID*                936               01.3534599578E+023.4430411906E+01+
*       -3.010164834E+01               0
GRID*                937               03.3846674993E+023.4434327999E+01+
*       3.0093967271E+01               0
GRID*                938               03.2483038684E+023.4434402394E+01+
*       3.0093910197E+01               0
GRID*                939               01.2722523832E+03-3.443129869E+01+
*       -3.010096802E+01               0
GRID*                940               03.3826322931E+02-1.752843649E-14+
*       4.6750000000E+01               0
GRID*                941               03.3826322266E+021.2781442021E+01+
*       4.2597939133E+01               0
GRID*                942               01.5604150748E+037.2994736841E+00+
*       4.2880469320E+01               0
GRID*                943               01.5622468252E+031.9799136854E+01+
*       4.2781298552E+01               0
GRID*                944               04.1967435389E+02-4.568467070E+01+
*       -6.718508721E+00               0
GRID*                945               04.0603799074E+02-4.568475810E+01+
*       6.7283333355E+00               0
GRID*                946               04.0603799025E+02-4.568467432E+01+
*       -6.718498039E+00               0
GRID*                947               03.9240162706E+02-4.568475528E+01+
*       6.7283416703E+00               0
GRID*                948               01.5293080093E+03-3.443067377E+01+
*       -3.010144744E+01               0
GRID*                949               01.5158751734E+03-3.443067377E+01+
*       -3.010144744E+01               0
GRID*                950               01.5158751734E+03-2.528390304E+01+
*       -3.924694065E+01               0
GRID*                951               04.3310718420E+02-1.278297758E+01+
*       4.2596761089E+01               0
GRID*                952               04.1947082768E+023.0831764371E-14+
*       4.6750000000E+01               0
GRID*                953               04.3310718420E+02-2.528264075E+01+
*       3.9247590320E+01               0
GRID*                954               04.1947082768E+02-1.249966317E+01+
*       4.3400829231E+01               0
GRID*                955               04.0603799074E+02-4.233771899E+01+
*       1.9219263290E+01               0
GRID*                956               04.1947082111E+02-3.443586615E+01+
*       3.0092787234E+01               0
GRID*                957               04.1947082111E+02-2.528256894E+01+
*       3.9247645409E+01               0
GRID*                958               01.7903891310E+03-1.955545403E+01+
*       -3.888017927E+01               0
GRID*                959               01.7729308008E+034.2332823729E+01+
*       -1.922780042E+01               0
GRID*                960               01.7458616016E+034.2332823065E+01+
*       -1.922780237E+01               0
GRID*                961               03.5189959175E+024.2332865661E+01+
*       -1.922767686E+01               0
GRID*                962               01.4888059745E+03-2.528396798E+01+
*       -3.924689084E+01               0
GRID*                963               05.9552238806E+021.2499663170E+01+
*       4.3400829231E+01               0
GRID*                964               05.9552238136E+022.5281030840E+01+
*       3.9248825404E+01               0
GRID*                965               05.8188601695E+022.5280939545E+01+
*       3.9248895443E+01               0
GRID*                966               05.4138398915E+021.2499663170E+01+
*       4.3400829231E+01               0
GRID*                967               05.4138398112E+022.5280877729E+01+
*       3.9248942867E+01               0
GRID*                968               05.2774761715E+022.5280842362E+01+
*       3.9248969999E+01               0
GRID*                969               06.0895522333E+02-4.233771335E+01+
*       1.9219279906E+01               0
GRID*                970               06.0895521392E+02-3.443632545E+01+
*       3.0092434875E+01               0
GRID*                971               05.6845318795E+02-4.233771784E+01+
*       1.9219266674E+01               0
GRID*                972               05.6845317903E+02-3.443627014E+01+
*       3.0092477304E+01               0
GRID*                973               05.5481681583E+02-3.443620997E+01+
*       3.0092523465E+01               0
GRID*                974               05.4138398839E+02-4.233772086E+01+
*       1.9219257775E+01               0
GRID*                975               05.4138398001E+02-3.443620997E+01+
*       3.0092523464E+01               0
GRID*                976               05.2774761684E+02-3.443614583E+01+
*       3.0092572672E+01               0
GRID*                977               05.5481681583E+02-2.528291277E+01+
*       3.9247381639E+01               0
GRID*                978               05.4138398001E+02-2.528291277E+01+
*       3.9247381639E+01               0
GRID*                979               01.2993215821E+03-2.528446071E+01+
*       -3.924651282E+01               0
GRID*                980               08.1207597731E+014.2332827637E+01+
*       -1.922778893E+01               0
GRID*                981               07.1723202171E+021.2501342512E+01+
*       -4.339985961E+01               0
GRID*                982               07.3086837429E+022.5284876605E+01+
*       -3.924619376E+01               0
GRID*                983               01.2993215755E+034.2332777338E+01+
*       -1.922793715E+01               0
GRID*                984               07.4430122124E+024.2332816505E+01+
*       -1.922782172E+01               0
GRID*                985               07.4430121011E+023.4431647322E+01+
*       -3.010070056E+01               0
GRID*                986               07.0379918507E+023.4435054056E+01+
*       3.0093410257E+01               0
GRID*                987               07.0379918463E+024.2337604436E+01+
*       1.9219600889E+01               0
GRID*                988               06.9016282093E+024.2337605718E+01+
*       1.9219597113E+01               0
GRID*                989               04.8724558931E+02-4.233772309E+01+
*       1.9219251211E+01               0
GRID*                990               04.7360921894E+02-3.443600902E+01+
*       3.0092677629E+01               0
GRID*                991               04.7360922560E+02-4.233772258E+01+
*       1.9219252709E+01               0
GRID*                992               07.1723202090E+023.4435054056E+01+
*       3.0093410257E+01               0
GRID*                993               07.1723202045E+024.2337604436E+01+
*       1.9219600889E+01               0
GRID*                994               01.7865671642E+03-2.528354609E+01+
*       -3.924722004E+01               0
GRID*                995               01.7729308008E+03-2.528354269E+01+
*       -3.924721711E+01               0
GRID*                996               07.3086838670E+023.4435326127E+01+
*       3.0093201531E+01               0
GRID*                997               07.3086838415E+024.2337603669E+01+
*       1.9219603150E+01               0
GRID*                998               04.7360922500E+02-4.233278084E+01+
*       -1.922792681E+01               0
GRID*                999               04.6017638917E+02-4.233278084E+01+
*       -1.922792681E+01               0
GRID*               1000               05.5481682421E+024.5684759974E+01+
*       -6.718245604E+00               0
GRID*               1001               05.4138398839E+024.2332873714E+01+
*       -1.922765313E+01               0
GRID*               1002               05.4138398839E+024.5684759974E+01+
*       -6.718245603E+00               0
GRID*               1003               01.6105156049E+03-4.568472711E+01+
*       -6.718342439E+00               0
GRID*               1004               01.5970827691E+03-4.233284086E+01+
*       -1.922774996E+01               0
GRID*               1005               01.5563772082E+033.4435459344E+01+
*       3.0093099326E+01               0
GRID*               1006               07.1723202045E+024.5684643553E+01+
*       6.7286709385E+00               0
GRID*               1007               07.0379918463E+024.5684643553E+01+
*       6.7286709389E+00               0
GRID*               1008               01.4617367722E+03-4.233764595E+01+
*       1.9219478544E+01               0
GRID*               1009               01.4617367773E+03-3.443440239E+01+
*       3.0093910197E+01               0
GRID*               1010               01.4751696114E+03-3.443080635E+01+
*       -3.010134573E+01               0
GRID*               1011               01.4617367756E+03-2.528403563E+01+
*       -3.924683893E+01               0
GRID*               1012               07.4430122124E+024.5684702768E+01+
*       -6.718414203E+00               0
GRID*               1013               08.1207598416E+02-4.233763213E+01+
*       1.9219519283E+01               0
GRID*               1014               07.9843960915E+02-3.443649096E+01+
*       3.0092307898E+01               0
GRID*               1015               07.9843962041E+02-4.233764097E+01+
*       1.9219493211E+01               0
GRID*               1016               01.5293080066E+034.5684739861E+01+
*       6.7283870978E+00               0
GRID*               1017               07.8500678459E+02-4.233764097E+01+
*       1.9219493211E+01               0
GRID*               1018               07.8500677333E+02-3.443649096E+01+
*       3.0092307898E+01               0
GRID*               1019               07.7137040958E+02-3.443649904E+01+
*       3.0092301698E+01               0
GRID*               1020               01.6917232030E+03-4.568471650E+01+
*       -6.718373729E+00               0
GRID*               1021               01.6917232030E+03-4.233283024E+01+
*       -1.922778125E+01               0
GRID*               1022               01.3939620093E+034.2337718989E+01+
*       1.9219263290E+01               0
GRID*               1023               01.3939620093E+034.5684758103E+01+
*       6.7283333355E+00               0
GRID*               1024               01.3805291734E+034.2337718989E+01+
*       1.9219263290E+01               0
GRID*               1025               01.7729308005E+03-1.250134251E+01+
*       -4.339985961E+01               0
GRID*               1026               07.8500677333E+02-2.528319376E+01+
*       3.9247166070E+01               0
GRID*               1027               04.8724558931E+024.2332875942E+01+
*       -1.922764656E+01               0
GRID*               1028               04.8724558206E+023.4431231430E+01+
*       -3.010101962E+01               0
GRID*               1029               04.7360921894E+023.4431161876E+01+
*       -3.010107298E+01               0
GRID*               1030               07.9843962008E+027.2656594300E-15+
*       4.6750000000E+01               0
GRID*               1031               08.2550882585E+02-3.443109592E+01+
*       -3.010112359E+01               0
GRID*               1032               08.1207599003E+02-3.443109592E+01+
*       -3.010112359E+01               0
GRID*               1033               08.1207598273E+02-4.233275796E+01+
*       -1.922799427E+01               0
GRID*               1034               01.2586160116E+03-4.568475997E+01+
*       -6.718245603E+00               0
GRID*               1035               01.2722523753E+03-4.233287541E+01+
*       -1.922764811E+01               0
GRID*               1036               07.9843961902E+02-4.233275678E+01+
*       -1.922799773E+01               0
GRID*               1037               01.0015603796E+03-4.568468009E+01+
*       -6.718481042E+00               0
GRID*               1038               01.6105156038E+03-1.250134251E+01+
*       -4.339985961E+01               0
GRID*               1039               01.6018583598E+03-6.815926223E+00+
*       -4.337872566E+01               0
GRID*               1040               01.6032830545E+03-1.931726873E+01+
*       -4.327858527E+01               0
GRID*               1041               01.6018583622E+03-1.959831464E+01+
*       -3.922593874E+01               0
GRID*               1042               01.1639755781E+034.2332762437E+01+
*       -1.922798106E+01               0
GRID*               1043               01.1639755823E+033.4429604841E+01+
*       -3.010226750E+01               0
GRID*               1044               09.3378561819E+024.2332762773E+01+
*       -1.922798008E+01               0
GRID*               1045               09.2035278237E+024.2332762774E+01+
*       -1.922798008E+01               0
GRID*               1046               09.2035278237E+024.5684649038E+01+
*       -6.718572554E+00               0
GRID*               1047               09.4742199137E+023.4436430991E+01+
*       3.0092353907E+01               0
GRID*               1048               09.3378561672E+024.2337618643E+01+
*       1.9219559020E+01               0
GRID*               1049               09.3378562725E+023.4436375882E+01+
*       3.0092396185E+01               0
GRID*               1050               09.2035279143E+023.4436375882E+01+
*       3.0092396185E+01               0
GRID*               1051               09.2035278090E+024.2337618643E+01+
*       1.9219559020E+01               0
GRID*               1052               09.0671641717E+024.2337613745E+01+
*       1.9219573456E+01               0
GRID*               1053               01.3127544114E+034.2332777337E+01+
*       -1.922793715E+01               0
GRID*               1054               01.3127544183E+033.4429280597E+01+
*       -3.010251626E+01               0
GRID*               1055               06.0895522388E+022.8984829789E-15+
*       -4.675000000E+01               0
GRID*               1056               05.9552238806E+022.9441787534E-15+
*       -4.675000000E+01               0
GRID*               1057               06.0895522388E+021.2501342512E+01+
*       -4.339985961E+01               0
GRID*               1058               06.2259158752E+022.9388406561E-15+
*       -4.675000000E+01               0
GRID*               1059               01.6241519674E+032.7413310573E-15+
*       -4.675000000E+01               0
GRID*               1060               01.6375848033E+032.6956352828E-15+
*       -4.675000000E+01               0
GRID*               1061               01.5834464043E+032.7063114774E-15+
*       -4.675000000E+01               0
GRID*               1062               01.5700135685E+031.2501342511E+01+
*       -4.339985961E+01               0
GRID*               1063               01.6241519674E+031.2501342511E+01+
*       -4.339985961E+01               0
GRID*               1064               01.3636363387E+01-4.568471000E+01+
*       -6.718392892E+00               0
GRID*               1065               05.4138398315E+01-2.528350452E+01+
*       -3.924724639E+01               0
GRID*               1066               09.4742198100E+021.2499663170E+01+
*       4.3400829231E+01               0
GRID*               1067               09.3378562725E+022.5283078676E+01+
*       3.9247254357E+01               0
GRID*               1068               09.3378561737E+021.2499663170E+01+
*       4.3400829231E+01               0
GRID*               1069               02.7069199457E+01-1.250134251E+01+
*       -4.339985961E+01               0
GRID*               1070               04.0705563094E+01-1.250134251E+01+
*       -4.339985961E+01               0
GRID*               1071               02.7069199207E+01-2.528352948E+01+
*       -3.924722724E+01               0
GRID*               1072               01.3636363386E+01-3.443030020E+01+
*       -3.010173404E+01               0
GRID*               1073               01.0827679783E+032.8480930026E-15+
*       -4.675000000E+01               0
GRID*               1074               01.0962008141E+032.8023972281E-15+
*       -4.675000000E+01               0
GRID*               1075               01.0962008141E+03-1.250134251E+01+
*       -4.339985961E+01               0
GRID*               1076               09.4742198100E+02-4.709040534E-15+
*       4.6750000000E+01               0
GRID*               1077               09.3378561737E+022.1841657975E-14+
*       4.6750000000E+01               0
GRID*               1078               09.6085480933E+02-2.528279035E+01+
*       3.9247475556E+01               0
GRID*               1079               09.4742197351E+02-2.528279035E+01+
*       3.9247475556E+01               0
GRID*               1080               09.4742198100E+02-1.249966317E+01+
*       4.3400829231E+01               0
GRID*               1081               01.0691316146E+03-4.233281651E+01+
*       -1.922782172E+01               0
GRID*               1082               01.0691316146E+03-4.568470277E+01+
*       -6.718414202E+00               0
GRID*               1083               01.0556987788E+03-4.233281651E+01+
*       -1.922782172E+01               0
GRID*               1084               01.0691316159E+03-4.233760367E+01+
*       1.9219603150E+01               0
GRID*               1085               01.0556987800E+03-4.233760367E+01+
*       1.9219603150E+01               0
GRID*               1086               01.0556987800E+03-4.568464279E+01+
*       6.7286731996E+00               0
GRID*               1087               01.0556987899E+03-3.443164732E+01+
*       -3.010070056E+01               0
GRID*               1088               01.0420624150E+03-4.233280428E+01+
*       -1.922785776E+01               0
GRID*               1089               01.0420624262E+03-3.443165190E+01+
*       -3.010069705E+01               0
GRID*               1090               01.4877883311E+022.9892306324E-15+
*       -4.675000000E+01               0
GRID*               1091               01.4877883311E+021.2501342512E+01+
*       -4.339985961E+01               0
GRID*               1092               01.1774084182E+03-2.528115479E+01+
*       3.9248730315E+01               0
GRID*               1093               01.1774084125E+03-1.249966317E+01+
*       4.3400829231E+01               0
GRID*               1094               01.1639755823E+03-2.528115479E+01+
*       3.9248730315E+01               0
GRID*               1095               01.1639755767E+03-1.249966317E+01+
*       4.3400829231E+01               0
GRID*               1096               01.1503392130E+03-1.249966317E+01+
*       4.3400829231E+01               0
GRID*               1097               01.1232700163E+033.4429964225E+01+
*       -3.010199179E+01               0
GRID*               1098               01.1910447861E+033.4436325448E+01+
*       3.0092434875E+01               0
GRID*               1099               01.1774084129E+034.2337707232E+01+
*       1.9219297939E+01               0
GRID*               1100               01.1098371777E+032.1209498487E-14+
*       4.6750000000E+01               0
GRID*               1101               01.0691316147E+032.8077353254E-15+
*       -4.675000000E+01               0
GRID*               1102               01.0556987788E+032.8534310999E-15+
*       -4.675000000E+01               0
GRID*               1103               01.0556987788E+031.2501342511E+01+
*       -4.339985961E+01               0
GRID*               1104               01.1098371777E+032.8427549054E-15+
*       -4.675000000E+01               0
GRID*               1105               01.1232700136E+03-1.250134251E+01+
*       -4.339985961E+01               0
GRID*               1106               01.2044776125E+03-4.568475247E+01+
*       -6.718267735E+00               0
GRID*               1107               01.1910447767E+03-4.568475247E+01+
*       -6.718267735E+00               0
GRID*               1108               01.1910447776E+03-4.568465119E+01+
*       6.7286484448E+00               0
GRID*               1109               01.1774084139E+03-4.568464870E+01+
*       6.7286557566E+00               0
GRID*               1110               01.1910447776E+03-4.233761207E+01+
*       1.9219578394E+01               0
GRID*               1111               01.1774084182E+03-3.443445199E+01+
*       3.0093872146E+01               0
GRID*               1112               01.1774084139E+03-4.233760959E+01+
*       1.9219585706E+01               0
GRID*               1113               01.2993215755E+034.5684663607E+01+
*       -6.718529623E+00               0
GRID*               1114               01.2856852119E+034.5684660218E+01+
*       -6.718539610E+00               0
GRID*               1115               01.3127544183E+032.5282509887E+01+
*       -3.924800944E+01               0
GRID*               1116               01.2722523745E+032.8107263218E-15+
*       -4.675000000E+01               0
GRID*               1117               01.2856852103E+032.7650305473E-15+
*       -4.675000000E+01               0
GRID*               1118               01.2856852103E+03-1.250134251E+01+
*       -4.339985961E+01               0
GRID*               1119               01.3263907734E+031.2499663170E+01+
*       4.3400829231E+01               0
GRID*               1120               01.3263907811E+032.5282711814E+01+
*       3.9247535804E+01               0
GRID*               1121               01.3127544179E+032.5282781368E+01+
*       3.9247482444E+01               0
GRID*               1122               01.0827679783E+023.0402645042E-15+
*       -4.675000000E+01               0
GRID*               1123               01.3127544098E+031.2499663170E+01+
*       4.3400829231E+01               0
GRID*               1124               06.4966078697E+022.9335025589E-15+
*       -4.675000000E+01               0
GRID*               1125               06.6309362280E+022.8878067844E-15+
*       -4.675000000E+01               0
GRID*               1126               06.4966078697E+02-1.250134251E+01+
*       -4.339985961E+01               0
GRID*               1127               06.2259158752E+02-1.250134251E+01+
*       -4.339985961E+01               0
GRID*               1128               05.6845318860E+022.9495168507E-15+
*       -4.675000000E+01               0
GRID*               1129               05.8188602442E+022.9038210761E-15+
*       -4.675000000E+01               0
GRID*               1130               01.6646540027E+032.6902971856E-15+
*       -4.675000000E+01               0
GRID*               1131               01.3668928103E+03-4.233763158E+01+
*       1.9219520886E+01               0
GRID*               1132               01.3534599745E+03-4.233763158E+01+
*       1.9219520886E+01               0
GRID*               1133               01.3534599745E+03-4.568467070E+01+
*       6.7285909385E+00               0
GRID*               1134               01.3127544179E+033.4436078576E+01+
*       3.0092624269E+01               0
GRID*               1135               01.5563772049E+032.7116495746E-15+
*       -4.675000000E+01               0
GRID*               1136               01.5563772049E+03-1.250134251E+01+
*       -4.339985961E+01               0
GRID*               1137               01.4481004142E+03-2.528103080E+01+
*       3.9248825438E+01               0
GRID*               1138               01.4075983734E+03-4.568467795E+01+
*       6.7285695682E+00               0
GRID*               1139               01.3939620097E+03-4.568467432E+01+
*       6.7285802568E+00               0
GRID*               1140               01.1369063772E+032.8374168081E-15+
*       -4.675000000E+01               0
GRID*               1141               01.1503392130E+032.7917210336E-15+
*       -4.675000000E+01               0
GRID*               1142               01.1503392130E+03-1.250134251E+01+
*       -4.339985961E+01               0
GRID*               1143               01.5293080054E+031.2499663170E+01+
*       4.3400829231E+01               0
GRID*               1144               05.8188602442E+021.2501342512E+01+
*       -4.339985961E+01               0
GRID*               1145               01.5700135698E+03-4.233765868E+01+
*       1.9219441032E+01               0
GRID*               1146               01.5563772096E+03-3.443465248E+01+
*       3.0093718338E+01               0
GRID*               1147               01.5563772063E+03-4.233765577E+01+
*       1.9219449615E+01               0
GRID*               1148               05.4138398915E+013.0509406987E-15+
*       -4.675000000E+01               0
GRID*               1149               06.7571234735E+013.0052449242E-15+
*       -4.675000000E+01               0
GRID*               1150               05.4138398914E+01-1.250134251E+01+
*       -4.339985961E+01               0
GRID*               1151               01.3668928097E+03-4.568476028E+01+
*       -6.718244690E+00               0
GRID*               1152               01.3668928103E+03-4.568467070E+01+
*       6.7285909389E+00               0
GRID*               1153               01.3534599739E+03-4.568476028E+01+
*       -6.718244690E+00               0
GRID*               1154               01.5293080069E+03-4.568469177E+01+
*       6.7285288454E+00               0
GRID*               1155               01.5293080069E+03-4.233765265E+01+
*       1.9219458791E+01               0
GRID*               1156               01.5158751711E+03-4.568469177E+01+
*       6.7285288450E+00               0
GRID*               1157               01.5700135726E+03-3.443473756E+01+
*       3.0093653066E+01               0
GRID*               1158               01.7324287657E+034.2332823065E+01+
*       -1.922780237E+01               0
GRID*               1159               01.7187924023E+034.2332821995E+01+
*       -1.922780553E+01               0
GRID*               1160               01.7324287657E+034.5684709340E+01+
*       -6.718394847E+00               0
GRID*               1161               01.7187924023E+034.5684708269E+01+
*       -6.718398003E+00               0
GRID*               1162               06.7571234735E+011.2501342512E+01+
*       -4.339985961E+01               0
GRID*               1163               01.7053595665E+034.2332821995E+01+
*       -1.922780553E+01               0
GRID*               1164               01.6917232037E+033.4430184073E+01+
*       -3.010182314E+01               0
GRID*               1165               01.6917232030E+034.2332820544E+01+
*       -1.922780981E+01               0
GRID*               1166               01.7324287659E+033.4430275227E+01+
*       -3.010175320E+01               0
GRID*               1167               01.0962008141E+031.2501342511E+01+
*       -4.339985961E+01               0
GRID*               1168               01.0827679783E+031.2501342511E+01+
*       -4.339985961E+01               0
GRID*               1169               01.6782903664E+032.7306548628E-15+
*       -4.675000000E+01               0
GRID*               1170               01.6782903664E+03-1.250134251E+01+
*       -4.339985961E+01               0
GRID*               1171               01.7865671642E+034.5684710233E+01+
*       -6.718392432E+00               0
GRID*               1172               01.7865671642E+033.4430316800E+01+
*       -3.010172685E+01               0
GRID*               1173               01.7187924024E+033.4435194795E+01+
*       3.0093302282E+01               0
GRID*               1174               01.7053595666E+033.4435194795E+01+
*       3.0093302282E+01               0
GRID*               1175               01.7053595666E+032.5281897586E+01+
*       3.9248160459E+01               0
GRID*               1176               01.7053595664E+034.2337674782E+01+
*       1.9219393575E+01               0
GRID*               1177               01.7187924016E+032.6796209910E-15+
*       -4.675000000E+01               0
GRID*               1178               01.7251018384E+03-7.508405930E+00+
*       -4.328423815E+01               0
GRID*               1179               01.6782903672E+034.2332820545E+01+
*       -1.922780980E+01               0
GRID*               1180               01.6782903679E+033.4430184073E+01+
*       -3.010182314E+01               0
GRID*               1181               01.6646540048E+033.4430121660E+01+
*       -3.010187102E+01               0
GRID*               1182               01.7584803256E+022.9838925351E-15+
*       -4.675000000E+01               0
GRID*               1183               01.6241519674E+023.0295883096E-15+
*       -4.675000000E+01               0
GRID*               1184               01.7584803256E+021.2501342512E+01+
*       -4.339985961E+01               0
GRID*               1185               01.6917232030E+034.5684706818E+01+
*       -6.718402277E+00               0
GRID*               1186               01.7069918400E+034.3650243750E+01+
*       -4.472819992E+00               0
GRID*               1187               01.3805291723E+032.7893739327E-15+
*       -4.675000000E+01               0
GRID*               1188               01.3939620081E+032.7436781582E-15+
*       -4.675000000E+01               0
GRID*               1189               01.3939620081E+03-1.250134251E+01+
*       -4.339985961E+01               0
GRID*               1190               01.3398236102E+03-4.568476169E+01+
*       -6.718240537E+00               0
GRID*               1191               01.3534599739E+03-4.233287402E+01+
*       -1.922765221E+01               0
GRID*               1192               01.3398236102E+03-4.233287543E+01+
*       -1.922764806E+01               0
GRID*               1193               01.3805291789E+03-3.443101901E+01+
*       -3.010118259E+01               0
GRID*               1194               01.3805291789E+03-2.528424829E+01+
*       -3.924667579E+01               0
GRID*               1195               01.3668928158E+03-2.528432010E+01+
*       -3.924662070E+01               0
GRID*               1196               01.3668928158E+03-3.443109081E+01+
*       -3.010112750E+01               0
GRID*               1197               01.3534599800E+03-2.528432010E+01+
*       -3.924662070E+01               0
GRID*               1198               04.1947081962E+02-2.528258843E+01+
*       -3.924794919E+01               0
GRID*               1199               04.0603798380E+02-3.442935914E+01+
*       -3.010245600E+01               0
GRID*               1200               04.0603798380E+02-2.528258843E+01+
*       -3.924794919E+01               0
GRID*               1201               05.5481682497E+022.9091591734E-15+
*       -4.675000000E+01               0
GRID*               1202               03.6533242157E+02-2.528271014E+01+
*       -3.924785582E+01               0
GRID*               1203               03.7896878473E+02-2.528264399E+01+
*       -3.924790657E+01               0
GRID*               1204               03.6553594891E+02-3.442941469E+01+
*       -3.010241338E+01               0
GRID*               1205               03.5189958575E+02-3.442948085E+01+
*       -3.010236263E+01               0
GRID*               1206               01.5970827680E+032.7466691546E-15+
*       -4.675000000E+01               0
GRID*               1207               01.5834464043E+031.2501342511E+01+
*       -4.339985961E+01               0
GRID*               1208               01.5970827680E+031.2501342511E+01+
*       -4.339985961E+01               0
GRID*               1209               03.9260514798E+02-3.442935914E+01+
*       -3.010245600E+01               0
GRID*               1210               03.7896879240E+022.9868835315E-15+
*       -4.675000000E+01               0
GRID*               1211               03.9240162822E+022.9411877570E-15+
*       -4.675000000E+01               0
GRID*               1212               03.7896879240E+02-1.250134251E+01+
*       -4.339985961E+01               0
GRID*               1213               01.3668928087E+032.7490162555E-15+
*       -4.675000000E+01               0
GRID*               1214               01.3534599729E+032.7947120300E-15+
*       -4.675000000E+01               0
GRID*               1215               01.3534599729E+031.2501342511E+01+
*       -4.339985961E+01               0
GRID*               1216               01.3636363417E+01-2.528186334E+01+
*       3.9248186728E+01               0
GRID*               1217               09.4843960466E+01-3.443018407E+01+
*       -3.010182314E+01               0
GRID*               1218               08.1207597708E+01-4.233282199E+01+
*       -1.922780553E+01               0
GRID*               1219               06.2259157721E+021.2783414578E+01+
*       -4.259642584E+01               0
GRID*               1220               06.2259157721E+022.5284757090E+01+
*       -3.924628545E+01               0
GRID*               1221               06.0895521718E+02-1.278136767E+01+
*       -4.259799617E+01               0
GRID*               1222               06.0895521718E+02-2.528271018E+01+
*       -3.924785578E+01               0
GRID*               1223               02.0291723080E+024.2337661357E+01+
*       1.9219433134E+01               0
GRID*               1224               01.8948439498E+024.5684700475E+01+
*       6.7285031902E+00               0
GRID*               1225               01.8948439498E+024.2337661357E+01+
*       1.9219433135E+01               0
GRID*               1226               04.0502035278E+013.0105830214E-15+
*       -4.675000000E+01               0
GRID*               1227               02.7069199457E+013.0562787960E-15+
*       -4.675000000E+01               0
GRID*               1228               04.0502035278E+011.2501342512E+01+
*       -4.339985961E+01               0
GRID*               1229               01.6241519674E+02-1.250134251E+01+
*       -4.339985961E+01               0
GRID*               1230               01.6241519402E+022.5281600545E+01+
*       3.9248388341E+01               0
GRID*               1231               01.4877883100E+022.5281671612E+01+
*       3.9248333821E+01               0
GRID*               1232               01.3534599729E+026.2284083848E-15+
*       4.6750000000E+01               0
GRID*               1233               01.2191316147E+021.2499663169E+01+
*       4.3400829231E+01               0
GRID*               1234               01.1774084125E+032.7863829363E-15+
*       -4.675000000E+01               0
GRID*               1235               01.1639755767E+032.8320787108E-15+
*       -4.675000000E+01               0
GRID*               1236               01.1639755767E+031.2501342511E+01+
*       -4.339985961E+01               0
GRID*               1237               01.1098371777E+03-1.250134251E+01+
*       -4.339985961E+01               0
GRID*               1238               01.4898235981E+024.5684702892E+01+
*       6.7284960676E+00               0
GRID*               1239               02.2998642743E+021.2781777188E+01+
*       4.2597682002E+01               0
GRID*               1240               01.6105156072E+032.5283202135E+01+
*       -3.924747837E+01               0
GRID*               1241               01.5970827714E+032.5283202135E+01+
*       -3.924747837E+01               0
GRID*               1242               01.6027680172E+033.0214420439E+01+
*       -3.164918446E+01               0
GRID*               1243               01.6041927085E+032.9933903326E+01+
*       -3.570142531E+01               0
GRID*               1244               01.5907598727E+032.9933903326E+01+
*       -3.570142531E+01               0
GRID*               1245               02.8412483039E+02-1.249966317E+01+
*       4.3400829231E+01               0
GRID*               1246               02.8412483039E+022.8459918654E-15+
*       4.6750000000E+01               0
GRID*               1247               02.7069199457E+027.2057127933E-15+
*       4.6750000000E+01               0
GRID*               1248               02.5705562761E+02-2.528216214E+01+
*       3.9247957503E+01               0
GRID*               1249               02.5705563094E+02-1.249966317E+01+
*       4.3400829231E+01               0
GRID*               1250               02.4362279179E+02-2.528216214E+01+
*       3.9247957503E+01               0
GRID*               1251               02.4362279512E+02-1.249966317E+01+
*       4.3400829231E+01               0
GRID*               1252               01.6241519702E+032.5283279887E+01+
*       -3.924741872E+01               0
GRID*               1253               01.6105156038E+031.2501342511E+01+
*       -4.339985961E+01               0
GRID*               1254               01.6105156038E+032.7009733801E-15+
*       -4.675000000E+01               0
GRID*               1255               03.1119402548E+02-3.443558584E+01+
*       3.0093002281E+01               0
GRID*               1256               03.1119402548E+02-2.528228863E+01+
*       3.9247860457E+01               0
GRID*               1257               03.6553595499E+02-4.568467795E+01+
*       -6.718487351E+00               0
GRID*               1258               03.5189959175E+02-4.568475192E+01+
*       6.7283515550E+00               0
GRID*               1259               03.1119402985E+02-1.249966317E+01+
*       4.3400829231E+01               0
GRID*               1260               02.9776119403E+021.8808018945E-14+
*       4.6750000000E+01               0
GRID*               1261               02.9776119403E+02-1.249966317E+01+
*       4.3400829231E+01               0
GRID*               1262               01.4877883100E+02-1.278200844E+01+
*       -4.259750459E+01               0
GRID*               1263               01.5970827703E+03-2.528373093E+01+
*       -3.924707269E+01               0
GRID*               1264               01.5898502187E+03-1.931726873E+01+
*       -4.327858527E+01               0
GRID*               1265               01.4877883100E+02-2.528335095E+01+
*       -3.924736420E+01               0
GRID*               1266               01.6241519674E+021.2501342512E+01+
*       -4.339985961E+01               0
GRID*               1267               01.1639755767E+03-1.250134251E+01+
*       -4.339985961E+01               0
GRID*               1268               01.1503392236E+03-2.528479981E+01+
*       -3.924625267E+01               0
GRID*               1269               01.5834464072E+03-2.528378390E+01+
*       -3.924703205E+01               0
GRID*               1270               01.5882219990E+03-1.959836761E+01+
*       -3.922589810E+01               0
GRID*               1271               01.2586160189E+03-3.443417493E+01+
*       3.0094084698E+01               0
GRID*               1272               01.2586160124E+03-4.233761787E+01+
*       1.9219561292E+01               0
GRID*               1273               01.1369063772E+031.2501342511E+01+
*       -4.339985961E+01               0
GRID*               1274               01.1369063772E+03-1.250134251E+01+
*       -4.339985961E+01               0
GRID*               1275               01.1503392130E+031.2501342511E+01+
*       -4.339985961E+01               0
GRID*               1276               01.1639755823E+032.5282834129E+01+
*       -3.924776069E+01               0
GRID*               1277               03.6533242719E+02-4.233279527E+01+
*       -1.922788429E+01               0
GRID*               1278               06.3602441766E+02-1.278149162E+01+
*       -4.259790108E+01               0
GRID*               1279               06.6309361842E+02-3.442976478E+01+
*       -3.010214480E+01               0
GRID*               1280               06.4966078260E+02-3.442976478E+01+
*       -3.010214480E+01               0
GRID*               1281               06.4966078260E+02-2.528299407E+01+
*       -3.924763800E+01               0
GRID*               1282               06.3602441766E+02-2.528283413E+01+
*       -3.924776069E+01               0
GRID*               1283               03.3826322266E+02-2.528278453E+01+
*       -3.924779874E+01               0
GRID*               1284               03.2483038684E+02-3.442955524E+01+
*       -3.010230556E+01               0
GRID*               1285               03.7896878473E+02-3.442941469E+01+
*       -3.010241338E+01               0
GRID*               1286               08.2550880883E+02-3.443646879E+01+
*       3.0092324906E+01               0
GRID*               1287               08.2550880883E+02-2.528317159E+01+
*       3.9247183078E+01               0
GRID*               1288               08.1207597301E+02-3.443646879E+01+
*       3.0092324906E+01               0
GRID*               1289               08.5257801900E+023.0066996462E-14+
*       4.6750000000E+01               0
GRID*               1290               08.3914518318E+026.3491523576E-14+
*       4.6750000000E+01               0
GRID*               1291               08.3914518318E+02-1.249966317E+01+
*       4.3400829231E+01               0
GRID*               1292               04.7360922560E+024.5684761693E+01+
*       -6.718240537E+00               0
GRID*               1293               04.6017638978E+024.5684761693E+01+
*       -6.718240537E+00               0
GRID*               1294               05.2795114530E+023.4434174933E+01+
*       3.0094084698E+01               0
GRID*               1295               05.0067842447E+024.5684663607E+01+
*       6.7286118400E+00               0
GRID*               1296               01.2586160109E+031.2499663170E+01+
*       4.3400829231E+01               0
GRID*               1297               01.2451831750E+031.2499663170E+01+
*       4.3400829231E+01               0
GRID*               1298               01.2451831750E+033.7137011537E-14+
*       4.6750000000E+01               0
GRID*               1299               01.0286295792E+034.5684690539E+01+
*       6.7285324593E+00               0
GRID*               1300               01.0149932154E+034.5684680089E+01+
*       6.7285632585E+00               0
GRID*               1301               01.0286295792E+034.2337651424E+01+
*       1.9219462412E+01               0
GRID*               1302               01.0149932154E+034.2337640973E+01+
*       1.9219493211E+01               0
GRID*               1303               05.4138398112E+023.4434174933E+01+
*       3.0094084698E+01               0
GRID*               1304               01.0286295805E+034.5684642595E+01+
*       -6.718591543E+00               0
GRID*               1305               01.0149932168E+034.5684643050E+01+
*       -6.718590204E+00               0
GRID*               1306               01.0420624163E+034.2332756329E+01+
*       -1.922799907E+01               0
GRID*               1307               01.0286295805E+034.2332756329E+01+
*       -1.922799907E+01               0
GRID*               1308               06.0895522333E+02-4.568475247E+01+
*       6.7283499524E+00               0
GRID*               1309               05.9552238660E+02-4.568465119E+01+
*       -6.718566228E+00               0
GRID*               1310               05.9552238751E+02-4.568475247E+01+
*       6.7283499520E+00               0
GRID*               1311               01.1503392130E+030.0000000000E+00+
*       4.6750000000E+01               0
GRID*               1312               01.1369063772E+03-1.249966317E+01+
*       4.3400829231E+01               0
GRID*               1313               01.1232700136E+03-1.249966317E+01+
*       4.3400829231E+01               0
GRID*               1314               01.1098371777E+03-1.249966317E+01+
*       4.3400829231E+01               0
GRID*               1315               01.1503392130E+031.2499663170E+01+
*       4.3400829231E+01               0
GRID*               1316               01.2586160189E+03-2.528087773E+01+
*       3.9248942867E+01               0
GRID*               1317               01.2586160109E+03-1.249966317E+01+
*       4.3400829231E+01               0
GRID*               1318               01.2451831831E+03-2.528087773E+01+
*       3.9248942867E+01               0
GRID*               1319               01.2451831750E+03-1.249966317E+01+
*       4.3400829231E+01               0
GRID*               1320               01.2315468121E+03-4.233287069E+01+
*       -1.922766202E+01               0
GRID*               1321               01.2181139762E+03-4.233287069E+01+
*       -1.922766203E+01               0
GRID*               1322               01.2451831758E+03-4.568475997E+01+
*       -6.718245604E+00               0
GRID*               1323               01.2451831766E+03-4.568465699E+01+
*       6.7286313435E+00               0
GRID*               1324               06.3602442290E+02-4.233770723E+01+
*       1.9219297940E+01               0
GRID*               1325               06.2259158708E+02-4.233770723E+01+
*       1.9219297939E+01               0
GRID*               1326               07.4430121997E+02-4.233275652E+01+
*       -1.922799851E+01               0
GRID*               1327               07.4430121997E+02-4.568464279E+01+
*       -6.718590983E+00               0
GRID*               1328               07.3086838415E+02-4.233275652E+01+
*       -1.922799851E+01               0
GRID*               1329               07.7137041949E+02-4.568464260E+01+
*       -6.718591543E+00               0
GRID*               1330               07.5793758367E+02-4.568464260E+01+
*       -6.718591544E+00               0
GRID*               1331               07.5793758367E+02-4.233275633E+01+
*       -1.922799907E+01               0
GRID*               1332               01.3263907750E+034.2332780845E+01+
*       -1.922792681E+01               0
GRID*               1333               07.8500678459E+024.2332793826E+01+
*       -1.922788856E+01               0
GRID*               1334               07.7137042083E+024.5684690539E+01+
*       -6.718450243E+00               0
GRID*               1335               01.4210312076E+031.2499663170E+01+
*       4.3400829231E+01               0
GRID*               1336               01.4075983718E+031.2499663170E+01+
*       4.3400829231E+01               0
GRID*               1337               01.4075983778E+032.5282497126E+01+
*       3.9247700507E+01               0
GRID*               1338               04.4654002714E+020.0000000000E+00+
*       4.6750000000E+01               0
GRID*               1339               04.4654001880E+021.2781203367E+01+
*       4.2598122223E+01               0
GRID*               1340               04.3310719132E+021.2499663170E+01+
*       4.3400829231E+01               0
GRID*               1341               04.3310718298E+022.5280866536E+01+
*       3.9248951454E+01               0
GRID*               1342               07.8500678918E+023.4435770092E+01+
*       3.0092860933E+01               0
GRID*               1343               01.4481004071E+031.2499663170E+01+
*       4.3400829231E+01               0
GRID*               1344               01.4481004125E+032.5282426010E+01+
*       3.9247755066E+01               0
GRID*               1345               07.9843960915E+022.5284873099E+01+
*       -3.924619645E+01               0
GRID*               1346               07.8500677333E+022.5284873099E+01+
*       -3.924619645E+01               0
GRID*               1347               07.8500677333E+023.4431643815E+01+
*       -3.010070325E+01               0
GRID*               1348               01.5500872119E+03-2.991722145E+01+
*       3.5641754213E+01               0
GRID*               1349               01.5366543761E+03-3.907051866E+01+
*       2.6486896046E+01               0
GRID*               1350               01.5366543761E+03-2.991722145E+01+
*       3.5641754213E+01               0
GRID*               1351               01.5293080108E+03-3.443456683E+01+
*       3.0093784043E+01               0
GRID*               1352               01.5293080108E+03-2.528126963E+01+
*       3.9248642210E+01               0
GRID*               1353               06.7672997561E+023.4431605435E+01+
*       -3.010073269E+01               0
GRID*               1354               06.6309361220E+023.4431570531E+01+
*       -3.010075947E+01               0
GRID*               1355               01.1503392236E+032.5283120472E+01+
*       3.9247222292E+01               0
GRID*               1356               07.9843962008E+022.8611162980E-15+
*       -4.675000000E+01               0
GRID*               1357               07.8500678426E+022.9068120726E-15+
*       -4.675000000E+01               0
GRID*               1358               07.8500678426E+021.2501342512E+01+
*       -4.339985961E+01               0
GRID*               1359               07.7137042062E+021.2501342512E+01+
*       -4.339985961E+01               0
GRID*               1360               07.5793758480E+021.2501342512E+01+
*       -4.339985961E+01               0
GRID*               1361               08.3914518318E+021.2499663170E+01+
*       4.3400829231E+01               0
GRID*               1362               01.6646540042E+03-3.443041191E+01+
*       -3.010164834E+01               0
GRID*               1363               08.5257802649E+022.5282790347E+01+
*       3.9247475556E+01               0
GRID*               1364               01.7458616016E+033.4435173644E+01+
*       3.0093318508E+01               0
GRID*               1365               09.2035278155E+02-2.136807128E-15+
*       4.6750000000E+01               0
GRID*               1366               01.7206282034E+034.3650250826E+01+
*       8.9740459063E+00               0
GRID*               1367               01.7202360398E+034.3048393095E+01+
*       1.3613230393E+01               0
GRID*               1368               09.6085481682E+02-9.795381616E-15+
*       4.6750000000E+01               0
GRID*               1369               09.6085481682E+021.2499663170E+01+
*       4.3400829231E+01               0
GRID*               1370               01.1503392144E+034.5684646570E+01+
*       -6.718579831E+00               0
GRID*               1371               01.1369063786E+034.5684646570E+01+
*       -6.718579830E+00               0
GRID*               1372               09.2035278237E+02-4.233760992E+01+
*       1.9219584722E+01               0
GRID*               1373               09.0671641865E+02-4.233761374E+01+
*       1.9219573456E+01               0
GRID*               1374               09.0671641865E+02-4.568465286E+01+
*       6.7286435041E+00               0
GRID*               1375               01.0827679784E+03-4.568471650E+01+
*       -6.718373735E+00               0
GRID*               1376               01.0691316159E+03-4.568464279E+01+
*       6.7286732000E+00               0
GRID*               1377               01.0420624163E+03-4.233760348E+01+
*       1.9219603711E+01               0
GRID*               1378               01.7187924016E+031.2501342511E+01+
*       -4.339985961E+01               0
GRID*               1379               01.7249918771E+036.5275732749E+00+
*       -4.356610674E+01               0
GRID*               1380               01.7256024606E+031.9028915786E+01+
*       -4.346596635E+01               0
GRID*               1381               01.0420624262E+03-2.528488118E+01+
*       -3.924619025E+01               0
GRID*               1382               01.0286295904E+03-2.528488118E+01+
*       -3.924619025E+01               0
GRID*               1383               01.7458616017E+032.5283504521E+01+
*       -3.924724639E+01               0
GRID*               1384               01.7458616011E+031.2501342511E+01+
*       -4.339985961E+01               0
GRID*               1385               01.7386282414E+031.9309735285E+01+
*       -3.941349352E+01               0
GRID*               1386               01.7390352964E+031.9028915786E+01+
*       -4.346596635E+01               0
GRID*               1387               01.0420624152E+031.2501342511E+01+
*       -4.339985961E+01               0
GRID*               1388               01.0420624152E+032.8130734226E-15+
*       -4.675000000E+01               0
GRID*               1389               01.0286295794E+031.2501342511E+01+
*       -4.339985961E+01               0
GRID*               1390               01.7865671642E+034.2332823959E+01+
*       -1.922779996E+01               0
GRID*               1391               01.0691316159E+034.5684642786E+01+
*       -6.718590983E+00               0
GRID*               1392               01.0691316159E+034.2332756519E+01+
*       -1.922799851E+01               0
GRID*               1393               01.0556987800E+034.5684642786E+01+
*       -6.718590983E+00               0
GRID*               1394               06.3602441303E+022.5284757090E+01+
*       -3.924628545E+01               0
GRID*               1395               01.1503392133E+034.5684738432E+01+
*       6.7283913127E+00               0
GRID*               1396               01.2586160200E+032.5282912766E+01+
*       3.9247381639E+01               0
GRID*               1397               01.2451831842E+032.5282912766E+01+
*       3.9247381639E+01               0
GRID*               1398               01.6782903675E+03-2.528360558E+01+
*       -3.924716885E+01               0
GRID*               1399               01.6917232022E+032.6849590883E-15+
*       -4.675000000E+01               0
GRID*               1400               01.6782903664E+031.2501342511E+01+
*       -4.339985961E+01               0
GRID*               1401               04.0603798380E+022.5280909085E+01+
*       3.9248918812E+01               0
GRID*               1402               04.0603798380E+023.4434206288E+01+
*       3.0094060644E+01               0
GRID*               1403               03.9260514798E+023.4434206288E+01+
*       3.0094060644E+01               0
GRID*               1404               01.0420624152E+03-1.250134251E+01+
*       -4.339985961E+01               0
GRID*               1405               01.0556987788E+03-1.250134251E+01+
*       -4.339985961E+01               0
GRID*               1406               01.2586160200E+033.4436209973E+01+
*       3.0092523464E+01               0
GRID*               1407               01.2451831842E+033.4436209973E+01+
*       3.0092523465E+01               0
GRID*               1408               01.1639755823E+03-3.443445199E+01+
*       3.0093872146E+01               0
GRID*               1409               01.2181139756E+03-1.249966317E+01+
*       4.3400829231E+01               0
GRID*               1410               01.3534599729E+021.2501342512E+01+
*       -4.339985961E+01               0
GRID*               1411               01.4898235900E+022.5283683160E+01+
*       -3.924710934E+01               0
GRID*               1412               01.2044776119E+03-3.361399056E-14+
*       4.6750000000E+01               0
GRID*               1413               01.2044776119E+03-1.249966317E+01+
*       4.3400829231E+01               0
GRID*               1414               01.3398236177E+03-3.443413670E+01+
*       3.0094114030E+01               0
GRID*               1415               01.3398236177E+03-2.528083950E+01+
*       3.9248972199E+01               0
GRID*               1416               01.3263907819E+03-3.443413670E+01+
*       3.0094114030E+01               0
GRID*               1417               01.7729308005E+031.2501342511E+01+
*       -4.339985961E+01               0
GRID*               1418               05.2774761715E+02-3.442929241E+01+
*       -3.010250719E+01               0
GRID*               1419               05.2774762395E+02-4.233277395E+01+
*       -1.922794713E+01               0
GRID*               1420               05.1431478133E+02-3.442929241E+01+
*       -3.010250719E+01               0
GRID*               1421               05.1431478812E+02-4.233277395E+01+
*       -1.922794713E+01               0
GRID*               1422               05.0067842605E+022.9198353679E-15+
*       -4.675000000E+01               0
GRID*               1423               05.1431478969E+022.9601930452E-15+
*       -4.675000000E+01               0
GRID*               1424               05.0067841754E+02-1.278116738E+01+
*       -4.259814983E+01               0
GRID*               1425               01.0420624119E+032.5283947725E+01+
*       -3.924690637E+01               0
GRID*               1426               01.0556987775E+032.5283708264E+01+
*       -3.924709008E+01               0
GRID*               1427               01.3534599812E+03-2.528086654E+01+
*       3.9248951454E+01               0
GRID*               1428               01.3534599812E+03-3.443416374E+01+
*       3.0094093286E+01               0
GRID*               1429               01.1369063878E+03-2.528479981E+01+
*       -3.924625267E+01               0
GRID*               1430               01.1232700244E+03-2.528483472E+01+
*       -3.924622589E+01               0
GRID*               1431               01.3939620093E+03-4.233287184E+01+
*       -1.922765864E+01               0
GRID*               1432               01.3939620093E+03-4.568475810E+01+
*       -6.718251117E+00               0
GRID*               1433               01.3805291734E+03-4.233287184E+01+
*       -1.922765864E+01               0
GRID*               1434               01.4298247048E+03-6.584519665E+00+
*       -4.665195530E+01               0
GRID*               1435               01.4298247048E+03-1.908586218E+01+
*       -4.330181491E+01               0
GRID*               1436               01.4432575406E+03-1.908586218E+01+
*       -4.330181491E+01               0
GRID*               1437               01.5022388103E+03-2.528396798E+01+
*       -3.924689084E+01               0
GRID*               1438               01.4790749877E+03-7.072249992E+00+
*       -4.327037372E+01               0
GRID*               1439               01.4790749926E+03-1.985494311E+01+
*       -3.911735304E+01               0
GRID*               1440               01.4751696114E+03-2.528403563E+01+
*       -3.924683893E+01               0
GRID*               1441               08.6621437275E+02-3.443637588E+01+
*       3.0092396185E+01               0
GRID*               1442               01.4617367707E+032.7733596409E-15+
*       -4.675000000E+01               0
GRID*               1443               01.4751696065E+03-1.250134251E+01+
*       -4.339985961E+01               0
GRID*               1444               01.4617367707E+03-1.250134251E+01+
*       -4.339985961E+01               0
GRID*               1445               01.4481004125E+03-2.528410535E+01+
*       -3.924678545E+01               0
GRID*               1446               01.0015603799E+03-1.250134251E+01+
*       -4.339985961E+01               0
GRID*               1447               01.0015603909E+03-2.528487310E+01+
*       -3.924619645E+01               0
GRID*               1448               01.0827679796E+034.2332757286E+01+
*       -1.922799624E+01               0
GRID*               1449               01.0691316133E+033.4430478977E+01+
*       -3.010159689E+01               0
GRID*               1450               09.8792401628E+02-1.250134251E+01+
*       -4.339985961E+01               0
GRID*               1451               09.8792402699E+02-2.528485093E+01+
*       -3.924621346E+01               0
GRID*               1452               09.7449118046E+022.8694453917E-15+
*       -4.675000000E+01               0
GRID*               1453               09.7449118046E+02-1.250134251E+01+
*       -4.339985961E+01               0
GRID*               1454               01.0827679893E+033.4436478567E+01+
*       3.0092317407E+01               0
GRID*               1455               01.0691316146E+034.2337663653E+01+
*       1.9219426372E+01               0
GRID*               1456               01.0691316257E+033.4436494469E+01+
*       3.0092305207E+01               0
GRID*               1457               01.0556987899E+033.4436494469E+01+
*       3.0092305208E+01               0
GRID*               1458               01.0556987899E+032.5283197263E+01+
*       3.9247163380E+01               0
GRID*               1459               01.1910447761E+03-1.472186654E-14+
*       4.6750000000E+01               0
GRID*               1460               01.1910447761E+03-1.249966317E+01+
*       4.3400829231E+01               0
GRID*               1461               01.1774084125E+03-2.710836264E-15+
*       4.6750000000E+01               0
GRID*               1462               01.5780643839E+034.3145456503E+01+
*       4.7401431121E+00               0
GRID*               1463               01.5644280205E+034.3145420124E+01+
*       -8.706706775E+00               0
GRID*               1464               01.2856852112E+03-4.233287541E+01+
*       -1.922764811E+01               0
GRID*               1465               01.5158751696E+03-4.418393397E-15+
*       4.6750000000E+01               0
GRID*               1466               01.5022388060E+03-6.314871862E-15+
*       4.6750000000E+01               0
GRID*               1467               01.5158751696E+03-1.249966317E+01+
*       4.3400829231E+01               0
GRID*               1468               01.5022388060E+03-1.249966317E+01+
*       4.3400829231E+01               0
GRID*               1469               01.3127544107E+03-4.568476220E+01+
*       -6.718239039E+00               0
GRID*               1470               01.2993215749E+03-4.568476220E+01+
*       -6.718239040E+00               0
GRID*               1471               01.2993215749E+03-4.233287594E+01+
*       -1.922764656E+01               0
GRID*               1472               01.6375848033E+03-1.249966317E+01+
*       4.3400829231E+01               0
GRID*               1473               01.6512211669E+03-1.891446618E-14+
*       4.6750000000E+01               0
GRID*               1474               01.6375848033E+03-3.471845338E-14+
*       4.6750000000E+01               0
GRID*               1475               01.6512211669E+03-1.249966317E+01+
*       4.3400829231E+01               0
GRID*               1476               01.3939620097E+034.5684674325E+01+
*       -6.718498039E+00               0
GRID*               1477               01.6646540027E+03-2.327418710E-14+
*       4.6750000000E+01               0
GRID*               1478               01.4888059701E+031.2577252159E-14+
*       4.6750000000E+01               0
GRID*               1479               01.4888059701E+03-1.249966317E+01+
*       4.3400829231E+01               0
GRID*               1480               01.4751696065E+03-1.249966317E+01+
*       4.3400829231E+01               0
GRID*               1481               01.4751696065E+032.4588282437E-14+
*       4.6750000000E+01               0
GRID*               1482               01.4617367707E+03-1.249966317E+01+
*       4.3400829231E+01               0
GRID*               1483               01.6917232030E+03-4.233766770E+01+
*       1.9219414441E+01               0
GRID*               1484               01.5022388060E+031.2499663170E+01+
*       4.3400829231E+01               0
GRID*               1485               01.7670388298E+03-4.618887663E+01+
*       -8.385562843E+00               0
GRID*               1486               01.7670388298E+03-4.283699037E+01+
*       -2.089497037E+01               0
GRID*               1487               01.7536059940E+03-4.283699037E+01+
*       -2.089497037E+01               0
GRID*               1488               01.5700135697E+03-4.568473126E+01+
*       -6.718330217E+00               0
GRID*               1489               01.5700135697E+03-4.233284500E+01+
*       -1.922773774E+01               0
GRID*               1490               01.7594979650E+032.5283529477E+01+
*       -3.924722724E+01               0
GRID*               1491               01.7865671642E+032.7093024738E-15+
*       -4.675000000E+01               0
GRID*               1492               01.7729308005E+032.6689447965E-15+
*       -4.675000000E+01               0
GRID*               1493               01.6646540037E+034.5684705017E+01+
*       -6.718407587E+00               0
GRID*               1494               01.6646540037E+034.2332818743E+01+
*       -1.922781511E+01               0
GRID*               1495               01.6512211679E+034.5684705017E+01+
*       -6.718407587E+00               0
GRID*               1496               01.6917232037E+032.5283413367E+01+
*       -3.924731632E+01               0
GRID*               1497               01.6782903679E+032.5283413367E+01+
*       -3.924731632E+01               0
GRID*               1498               01.6646540048E+032.5283350953E+01+
*       -3.924736420E+01               0
GRID*               1499               01.6512211690E+033.4430121660E+01+
*       -3.010187102E+01               0
GRID*               1500               01.7594979647E+031.2501342511E+01+
*       -4.339985961E+01               0
GRID*               1501               01.7729308005E+032.2829860091E-14+
*       4.6750000000E+01               0
GRID*               1502               01.7729308005E+031.2499663170E+01+
*       4.3400829231E+01               0
GRID*               1503               01.7594979647E+032.7189581019E-14+
*       4.6750000000E+01               0
GRID*               1504               01.5022388060E+031.2501342511E+01+
*       -4.339985961E+01               0
GRID*               1505               01.5158751750E+032.5282948972E+01+
*       -3.924767259E+01               0
GRID*               1506               01.5158751696E+031.2501342511E+01+
*       -4.339985961E+01               0
GRID*               1507               01.5158751696E+03-1.250134251E+01+
*       -4.339985961E+01               0
GRID*               1508               01.5563772049E+031.2501342511E+01+
*       -4.339985961E+01               0
GRID*               1509               01.1774084125E+03-1.250134251E+01+
*       -4.339985961E+01               0
GRID*               1510               01.5293080108E+032.5282948972E+01+
*       -3.924767259E+01               0
GRID*               1511               05.1431478969E+02-1.250134251E+01+
*       -4.339985961E+01               0
GRID*               1512               05.0067841754E+02-2.528250989E+01+
*       -3.924800944E+01               0
GRID*               1513               05.2774762551E+021.2501342512E+01+
*       -4.339985961E+01               0
GRID*               1514               05.2774761684E+022.5284527968E+01+
*       -3.924646123E+01               0
GRID*               1515               01.3636363636E+013.1019745705E-15+
*       -4.675000000E+01               0
GRID*               1516               01.3636363636E+01-1.250134251E+01+
*       -4.339985961E+01               0
GRID*               1517               01.2170963365E+021.2501342512E+01+
*       -4.339985961E+01               0
GRID*               1518               01.0827679783E+021.2501342512E+01+
*       -4.339985961E+01               0
GRID*               1519               01.2191315996E+022.5283641185E+01+
*       -3.924714154E+01               0
GRID*               1520               01.6241519482E+022.5283683160E+01+
*       -3.924710934E+01               0
GRID*               1521               01.7584803065E+022.5283683160E+01+
*       -3.924710934E+01               0
GRID*               1522               01.8948439384E+022.5283730929E+01+
*       -3.924707269E+01               0
GRID*               1523               01.8948439620E+023.0242502124E-15+
*       -4.675000000E+01               0
GRID*               1524               01.8948439620E+02-1.250134251E+01+
*       -4.339985961E+01               0
GRID*               1525               01.8948439620E+021.2501342512E+01+
*       -4.339985961E+01               0
GRID*               1526               01.1639755870E+03-2.528475709E+01+
*       -3.924628545E+01               0
GRID*               1527               01.1774084125E+031.2501342511E+01+
*       -4.339985961E+01               0
GRID*               1528               01.1910447828E+032.5282710181E+01+
*       -3.924785578E+01               0
GRID*               1529               01.1910447761E+031.2501342511E+01+
*       -4.339985961E+01               0
GRID*               1530               05.1431478133E+02-2.528252170E+01+
*       -3.924800038E+01               0
GRID*               1531               01.1910447761E+032.8267406136E-15+
*       -4.675000000E+01               0
GRID*               1532               01.1910447761E+03-1.250134251E+01+
*       -4.339985961E+01               0
GRID*               1533               08.1207597708E+01-4.568470827E+01+
*       -6.718398003E+00               0
GRID*               1534               06.7571234276E+01-4.568471192E+01+
*       6.7284694409E+00               0
GRID*               1535               06.7774761887E+01-4.568470827E+01+
*       -6.718398003E+00               0
GRID*               1536               08.1207597731E+01-4.568471390E+01+
*       6.7284636207E+00               0
GRID*               1537               06.7774761910E+01-4.233767478E+01+
*       1.9219393575E+01               0
GRID*               1538               05.4138398455E+01-4.233767281E+01+
*       1.9219399395E+01               0
GRID*               1539               05.1431478102E+021.2783185456E+01+
*       -4.259660161E+01               0
GRID*               1540               06.7571234253E+01-3.443517364E+01+
*       3.0093318508E+01               0
GRID*               1541               05.4138398432E+01-3.443517364E+01+
*       3.0093318508E+01               0
GRID*               1542               07.5793758808E+02-2.528394772E+01+
*       -3.924690637E+01               0
GRID*               1543               07.5793758480E+022.9121501698E-15+
*       -4.675000000E+01               0
GRID*               1544               01.8948439620E+021.2499663169E+01+
*       4.3400829231E+01               0
GRID*               1545               01.7584802984E+022.5281600545E+01+
*       3.9248388341E+01               0
GRID*               1546               01.8948439282E+023.4434819997E+01+
*       3.0093589823E+01               0
GRID*               1547               07.7137042062E+02-1.250134251E+01+
*       -4.339985961E+01               0
GRID*               1548               07.7137042390E+02-2.528394772E+01+
*       -3.924690637E+01               0
GRID*               1549               01.8948439282E+022.5281522793E+01+
*       3.9248447990E+01               0
GRID*               1550               07.8500678426E+02-1.250134251E+01+
*       -4.339985961E+01               0
GRID*               1551               07.7137042062E+022.8664543953E-15+
*       -4.675000000E+01               0
GRID*               1552               01.7594979649E+03-2.528354269E+01+
*       -3.924721711E+01               0
GRID*               1553               01.7458616016E+03-2.528355578E+01+
*       -3.924720706E+01               0
GRID*               1554               02.0291723202E+02-3.212205350E-15+
*       4.6750000000E+01               0
GRID*               1555               02.0291722864E+021.2781859624E+01+
*       4.2597618759E+01               0
GRID*               1556               03.3826322809E+024.2332861899E+01+
*       -1.922768795E+01               0
GRID*               1557               03.2483039227E+024.2332861899E+01+
*       -1.922768795E+01               0
GRID*               1558               03.3826322931E+021.2501342512E+01+
*       -4.339985961E+01               0
GRID*               1559               03.5189959294E+022.9922216288E-15+
*       -4.675000000E+01               0
GRID*               1560               03.3826322931E+022.9518639515E-15+
*       -4.675000000E+01               0
GRID*               1561               03.5189959294E+021.2501342512E+01+
*       -4.339985961E+01               0
GRID*               1562               04.3310719025E+02-4.233772117E+01+
*       1.9219256862E+01               0
GRID*               1563               04.3310718420E+02-3.443593796E+01+
*       3.0092732145E+01               0
GRID*               1564               04.4654002607E+02-4.233772117E+01+
*       1.9219256862E+01               0
GRID*               1565               04.4654002002E+02-3.443593796E+01+
*       3.0092732145E+01               0
GRID*               1566               04.6017638978E+02-4.233772258E+01+
*       1.9219252709E+01               0
GRID*               1567               04.6017638312E+02-2.528271181E+01+
*       3.9247535804E+01               0
GRID*               1568               04.6017639077E+02-1.249966317E+01+
*       4.3400829231E+01               0
GRID*               1569               04.4654002714E+02-1.249966317E+01+
*       4.3400829231E+01               0
GRID*               1570               05.9552238136E+023.4434328044E+01+
*       3.0093967236E+01               0
GRID*               1571               05.8188602292E+024.2337614846E+01+
*       1.9219570209E+01               0
GRID*               1572               05.8188601695E+023.4434236750E+01+
*       3.0094037274E+01               0
GRID*               1573               09.4640434193E+011.2501342512E+01+
*       -4.339985961E+01               0
GRID*               1574               01.0827679670E+022.5283605585E+01+
*       -3.924716885E+01               0
GRID*               1575               05.9552238660E+024.5684651186E+01+
*       6.7286484452E+00               0
GRID*               1576               05.8188602292E+024.5684653963E+01+
*       6.7286402605E+00               0
GRID*               1577               05.9552238659E+024.2337612069E+01+
*       1.9219578394E+01               0
GRID*               1578               05.6845318710E+024.5684653963E+01+
*       6.7286402610E+00               0
GRID*               1579               05.6845318795E+024.5684756955E+01+
*       -6.718254502E+00               0
GRID*               1580               01.3534599637E+024.5684719633E+01+
*       -6.718364488E+00               0
GRID*               1581               01.2191316055E+024.2332833375E+01+
*       -1.922777201E+01               0
GRID*               1582               07.0379918507E+02-3.443020691E+01+
*       -3.010180561E+01               0
GRID*               1583               06.9016282093E+02-4.233275857E+01+
*       -1.922799247E+01               0
GRID*               1584               06.9016281949E+02-3.442996423E+01+
*       -3.010199179E+01               0
GRID*               1585               01.2170963282E+024.2337667700E+01+
*       1.9219414441E+01               0
GRID*               1586               07.0379918463E+02-4.233275729E+01+
*       -1.922799625E+01               0
GRID*               1587               06.7672998511E+02-4.568464483E+01+
*       -6.718584947E+00               0
GRID*               1588               06.7672998511E+02-4.233275857E+01+
*       -1.922799247E+01               0
GRID*               1589               08.1207598372E+022.3385726382E-14+
*       4.6750000000E+01               0
GRID*               1590               07.9843962500E+021.2782809717E+01+
*       4.2596889872E+01               0
GRID*               1591               08.1207598372E+021.2499663170E+01+
*       4.3400829231E+01               0
GRID*               1592               08.1207599003E+022.5282645861E+01+
*       3.9247586401E+01               0
GRID*               1593               07.9843962500E+022.5282472887E+01+
*       3.9247719103E+01               0
GRID*               1594               08.3914517281E+02-2.528313379E+01+
*       3.9247212078E+01               0
GRID*               1595               08.2550881954E+02-1.249966317E+01+
*       4.3400829231E+01               0
GRID*               1596               08.2550881954E+021.2499663170E+01+
*       4.3400829231E+01               0
GRID*               1597               08.2550881954E+023.2831788393E-14+
*       4.6750000000E+01               0
GRID*               1598               08.1207597301E+02-2.528317159E+01+
*       3.9247183078E+01               0
GRID*               1599               08.1207598372E+02-1.249966317E+01+
*       4.3400829231E+01               0
GRID*               1600               07.9843962008E+02-1.249966317E+01+
*       4.3400829231E+01               0
GRID*               1601               09.4640433528E+014.2337669150E+01+
*       1.9219410166E+01               0
GRID*               1602               01.0827679699E+024.2337667700E+01+
*       1.9219414441E+01               0
GRID*               1603               08.1207597708E+014.5684708268E+01+
*       6.7284802228E+00               0
GRID*               1604               09.7449118002E+024.5684671242E+01+
*       6.7285893313E+00               0
GRID*               1605               09.6085481773E+024.5684646189E+01+
*       -6.718580950E+00               0
GRID*               1606               09.6085481628E+024.5684663845E+01+
*       6.7286111316E+00               0
GRID*               1607               09.4742198046E+024.5684663845E+01+
*       6.7286111320E+00               0
GRID*               1608               09.4742198191E+024.5684646189E+01+
*       -6.718580950E+00               0
GRID*               1609               09.3378561819E+024.5684649038E+01+
*       -6.718572554E+00               0
GRID*               1610               01.0827679629E+023.4435031228E+01+
*       3.0093427772E+01               0
GRID*               1611               01.7387382025E+03-2.029061920E+01+
*       -3.913158561E+01               0
GRID*               1612               09.4742198191E+024.2332759924E+01+
*       -1.922798847E+01               0
GRID*               1613               09.3378560890E+023.4431359115E+01+
*       -3.010092167E+01               0
GRID*               1614               02.1655359161E+023.4434737561E+01+
*       3.0093653066E+01               0
GRID*               1615               02.0312075579E+023.4434737561E+01+
*       3.0093653066E+01               0
GRID*               1616               01.3534599578E+02-2.528196184E+01+
*       3.9248111162E+01               0
GRID*               1617               01.3534599729E+02-1.249966317E+01+
*       4.3400829231E+01               0
GRID*               1618               01.2170963365E+02-1.249966317E+01+
*       4.3400829231E+01               0
GRID*               1619               01.0420624119E+03-3.443556559E+01+
*       3.0093017823E+01               0
GRID*               1620               01.7257124218E+03-2.000974844E+01+
*       -4.318409776E+01               0
GRID*               1621               01.0556987788E+03-4.568470277E+01+
*       -6.718414203E+00               0
GRID*               1622               01.0420624163E+03-4.568464260E+01+
*       6.7286737604E+00               0
GRID*               1623               01.4877883100E+021.2782008442E+01+
*       4.2597504589E+01               0
GRID*               1624               01.4877883160E+02-2.528196184E+01+
*       3.9248111162E+01               0
GRID*               1625               01.0827679629E+022.5281734025E+01+
*       3.9248285939E+01               0
GRID*               1626               01.0827679783E+021.2499663169E+01+
*       4.3400829231E+01               0
GRID*               1627               01.2181139851E+033.4436270143E+01+
*       3.0092477304E+01               0
GRID*               1628               01.2044776125E+034.2337713351E+01+
*       1.9219279906E+01               0
GRID*               1629               01.2044776219E+033.4436325448E+01+
*       3.0092434875E+01               0
GRID*               1630               01.2181139762E+034.2337717841E+01+
*       1.9219266674E+01               0
GRID*               1631               01.1910447761E+031.2499663170E+01+
*       4.3400829231E+01               0
GRID*               1632               01.1910447861E+032.5283028242E+01+
*       3.9247293049E+01               0
GRID*               1633               01.1774084228E+032.5283077748E+01+
*       3.9247255069E+01               0
GRID*               1634               01.7251018392E+03-2.029064035E+01+
*       -3.913156938E+01               0
GRID*               1635               01.1774084228E+033.4436374955E+01+
*       3.0092396895E+01               0
GRID*               1636               02.1655359161E+02-3.442989041E+01+
*       -3.010204843E+01               0
GRID*               1637               02.1655359434E+02-4.233281152E+01+
*       -1.922783639E+01               0
GRID*               1638               02.0291723080E+02-4.233281420E+01+
*       -1.922782850E+01               0
GRID*               1639               01.3263907819E+033.4429289548E+01+
*       -3.010250939E+01               0
GRID*               1640               01.3398236092E+032.7543543527E-15+
*       -4.675000000E+01               0
GRID*               1641               01.3398236092E+031.2501342511E+01+
*       -4.339985961E+01               0
GRID*               1642               01.3534599812E+032.5282545878E+01+
*       -3.924798183E+01               0
GRID*               1643               01.3127544098E+031.2501342511E+01+
*       -4.339985961E+01               0
GRID*               1644               01.3263907819E+032.5282518837E+01+
*       -3.924800258E+01               0
GRID*               1645               01.3263907734E+031.2501342511E+01+
*       -4.339985961E+01               0
GRID*               1646               01.4617367773E+03-2.528110519E+01+
*       3.9248768364E+01               0
GRID*               1647               01.4481004071E+03-1.249966317E+01+
*       4.3400829231E+01               0
GRID*               1648               02.0312075579E+02-3.442989041E+01+
*       -3.010204843E+01               0
GRID*               1649               01.8948439498E+02-4.233281420E+01+
*       -1.922782850E+01               0
GRID*               1650               02.3018995457E+02-3.442980533E+01+
*       -3.010211370E+01               0
GRID*               1651               01.4346675712E+03-1.249966317E+01+
*       4.3400829231E+01               0
GRID*               1652               01.4210312076E+03-1.249966317E+01+
*       4.3400829231E+01               0
GRID*               1653               01.6105156049E+034.5684727115E+01+
*       6.7284246589E+00               0
GRID*               1654               01.5968792413E+034.5684731263E+01+
*       6.7284124362E+00               0
GRID*               1655               01.5970827691E+034.2337688002E+01+
*       1.9219354613E+01               0
GRID*               1656               02.7069199312E+024.5684691769E+01+
*       6.7285288454E+00               0
GRID*               1657               02.7069199336E+024.5684739860E+01+
*       -6.718304879E+00               0
GRID*               1658               02.5705562974E+024.5684735545E+01+
*       -6.718317595E+00               0
GRID*               1659               02.8432835670E+024.5684688486E+01+
*       6.7285385205E+00               0
GRID*               1660               01.5698100419E+034.5684735546E+01+
*       6.7283998137E+00               0
GRID*               1661               03.5189959294E+02-1.092289789E-15+
*       4.6750000000E+01               0
GRID*               1662               01.6917232033E+03-3.443037631E+01+
*       -3.010167565E+01               0
GRID*               1663               01.6782903675E+03-3.443037631E+01+
*       -3.010167565E+01               0
GRID*               1664               01.6782903671E+03-4.233283024E+01+
*       -1.922778125E+01               0
GRID*               1665               03.5189958748E+02-2.528242601E+01+
*       3.9247755066E+01               0
GRID*               1666               03.5189959294E+02-1.249966317E+01+
*       4.3400829231E+01               0
GRID*               1667               03.3826322931E+02-1.249966317E+01+
*       4.3400829231E+01               0
GRID*               1668               03.3826322439E+02-2.528235629E+01+
*       3.9247808555E+01               0
GRID*               1669               03.7896878638E+02-2.528249713E+01+
*       3.9247700507E+01               0
GRID*               1670               03.7896879240E+02-1.249966317E+01+
*       4.3400829231E+01               0
GRID*               1671               03.6533242877E+02-1.249966317E+01+
*       4.3400829231E+01               0
GRID*               1672               03.6533242330E+02-2.528242601E+01+
*       3.9247755066E+01               0
GRID*               1673               03.6533242757E+02-4.233771281E+01+
*       1.9219281510E+01               0
GRID*               1674               03.7896879124E+02-4.568475528E+01+
*       6.7283416701E+00               0
GRID*               1675               03.6533242757E+02-4.568475192E+01+
*       6.7283515553E+00               0
GRID*               1676               03.6533242877E+022.3067830353E-14+
*       4.6750000000E+01               0
GRID*               1677               06.7571234136E+012.5281825179E+01+
*       3.9248216007E+01               0
GRID*               1678               08.1207597338E+012.5281785850E+01+
*       3.9248246180E+01               0
GRID*               1679               06.7774761517E+013.4435083053E+01+
*       3.0093388013E+01               0
GRID*               1680               05.4138398315E+013.4435122383E+01+
*       3.0093357840E+01               0
GRID*               1681               09.4640433159E+012.5281785850E+01+
*       3.9248246180E+01               0
GRID*               1682               09.4843960466E+013.4435031228E+01+
*       3.0093427772E+01               0
GRID*               1683               08.1207597338E+013.4435083053E+01+
*       3.0093388013E+01               0
GRID*               1684               03.9260515443E+02-4.568467432E+01+
*       -6.718498039E+00               0
GRID*               1685               01.8948439384E+02-2.528205159E+01+
*       3.9248042313E+01               0
GRID*               1686               01.7584803065E+02-2.528200382E+01+
*       3.9248078960E+01               0
GRID*               1687               01.8948439384E+02-3.443534880E+01+
*       3.0093184137E+01               0
GRID*               1688               01.7584803065E+02-3.443530103E+01+
*       3.0093220784E+01               0
GRID*               1689               02.0291723202E+02-1.249966317E+01+
*       4.3400829231E+01               0
GRID*               1690               01.8948439620E+02-1.249966317E+01+
*       4.3400829231E+01               0
GRID*               1691               05.0067842513E+024.5684762201E+01+
*       -6.718239040E+00               0
GRID*               1692               04.8724558931E+024.5684762201E+01+
*       -6.718239039E+00               0
GRID*               1693               01.7584803256E+02-1.249966317E+01+
*       4.3400829231E+01               0
GRID*               1694               05.1431478884E+024.2332875415E+01+
*       -1.922764811E+01               0
GRID*               1695               05.0067842513E+024.2332875941E+01+
*       -1.922764656E+01               0
GRID*               1696               05.1431478884E+024.5684761675E+01+
*       -6.718240591E+00               0
GRID*               1697               04.7360922560E+024.2332875433E+01+
*       -1.922764806E+01               0
GRID*               1698               05.4138398761E+024.5684656989E+01+
*       6.7286313439E+00               0
GRID*               1699               05.2774762467E+024.5684761675E+01+
*       -6.718240592E+00               0
GRID*               1700               05.2774762395E+024.5684660218E+01+
*       6.7286218273E+00               0
GRID*               1701               02.9776118799E+02-2.528286489E+01+
*       -3.924773710E+01               0
GRID*               1702               02.9776118799E+02-3.442963559E+01+
*       -3.010224391E+01               0
GRID*               1703               03.1139755102E+02-3.442955524E+01+
*       -3.010230556E+01               0
GRID*               1704               01.0691316133E+032.5283708264E+01+
*       -3.924709008E+01               0
GRID*               1705               01.0691316147E+031.2501342511E+01+
*       -4.339985961E+01               0
GRID*               1706               05.5481681695E+022.5280877729E+01+
*       3.9248942867E+01               0
GRID*               1707               03.6553595499E+024.5684677951E+01+
*       6.7285695691E+00               0
GRID*               1708               03.5189959175E+024.5684751920E+01+
*       -6.718269337E+00               0
GRID*               1709               05.5481681695E+021.2781214560E+01+
*       4.2598113636E+01               0
GRID*               1710               03.7896879081E+024.2337638833E+01+
*       1.9219499515E+01               0
GRID*               1711               03.7896879081E+024.5684677951E+01+
*       6.7285695687E+00               0
GRID*               1712               03.9240162663E+024.2337638833E+01+
*       1.9219499515E+01               0
GRID*               1713               04.0603799025E+024.2337635207E+01+
*       1.9219510204E+01               0
GRID*               1714               03.9260515443E+024.5684674324E+01+
*       6.7285802573E+00               0
GRID*               1715               05.0067841754E+022.5280830545E+01+
*       3.9248979065E+01               0
GRID*               1716               04.8724558172E+022.5280830545E+01+
*       3.9248979065E+01               0
GRID*               1717               05.0067842605E+02-1.249966317E+01+
*       4.3400829231E+01               0
GRID*               1718               04.8724559023E+02-1.457654297E-14+
*       4.6750000000E+01               0
GRID*               1719               04.8724558206E+02-1.278311820E+01+
*       4.2596653213E+01               0
GRID*               1720               04.7360922659E+02-2.249432952E-15+
*       4.6750000000E+01               0
GRID*               1721               04.8724558206E+02-2.528278137E+01+
*       3.9247482444E+01               0
GRID*               1722               04.7360922659E+02-1.249966317E+01+
*       4.3400829231E+01               0
GRID*               1723               04.7360921810E+021.2781176326E+01+
*       4.2598142967E+01               0
GRID*               1724               04.6017639077E+021.2499663170E+01+
*       4.3400829231E+01               0
GRID*               1725               04.6017638228E+022.5280839496E+01+
*       3.9248972199E+01               0
GRID*               1726               06.2259157721E+02-2.528307775E+01+
*       3.9247255069E+01               0
GRID*               1727               06.0895521392E+02-2.528302824E+01+
*       3.9247293049E+01               0
GRID*               1728               06.2259157721E+02-3.443637495E+01+
*       3.0092396895E+01               0
GRID*               1729               05.8188602292E+02-4.568465396E+01+
*       -6.718558043E+00               0
GRID*               1730               05.8188602377E+02-4.568475696E+01+
*       6.7283367200E+00               0
GRID*               1731               05.6845318710E+02-4.568465396E+01+
*       -6.718558044E+00               0
GRID*               1732               05.6845318795E+02-4.568475696E+01+
*       6.7283367196E+00               0
GRID*               1733               05.9552238660E+02-4.233276492E+01+
*       -1.922797375E+01               0
GRID*               1734               05.8188602292E+02-4.233276769E+01+
*       -1.922796557E+01               0
GRID*               1735               06.2259158708E+02-4.568474635E+01+
*       6.7283679858E+00               0
GRID*               1736               06.4966078560E+02-4.233276030E+01+
*       -1.922798735E+01               0
GRID*               1737               07.0379918589E+022.9228263643E-15+
*       -4.675000000E+01               0
GRID*               1738               07.0379917491E+021.2783518191E+01+
*       -4.259634635E+01               0
GRID*               1739               07.1723201073E+022.5284860703E+01+
*       -3.924620596E+01               0
GRID*               1740               06.4966078665E+024.2332852170E+01+
*       -1.922771662E+01               0
GRID*               1741               06.4966077638E+023.4431570531E+01+
*       -3.010075947E+01               0
GRID*               1742               06.3602441303E+023.4431527808E+01+
*       -3.010079225E+01               0
GRID*               1743               01.5293080108E+033.4429719680E+01+
*       -3.010217940E+01               0
GRID*               1744               01.5346861292E+033.0192209026E+01+
*       -3.154135806E+01               0
GRID*               1745               01.5367214020E+032.9911945076E+01+
*       -3.559340469E+01               0
GRID*               1746               01.5367214020E+033.9058715783E+01+
*       -2.644791151E+01               0
GRID*               1747               06.9016281143E+023.4431605434E+01+
*       -3.010073269E+01               0
GRID*               1748               07.3086838535E+021.2499663170E+01+
*       4.3400829231E+01               0
GRID*               1749               07.3086838670E+022.5282028922E+01+
*       3.9248059701E+01               0
GRID*               1750               07.1723202090E+022.5281756852E+01+
*       3.9248268427E+01               0
GRID*               1751               06.9016282206E+024.5684728544E+01+
*       -6.718338235E+00               0
GRID*               1752               06.9016282206E+024.2332842282E+01+
*       -1.922774576E+01               0
GRID*               1753               06.7672998623E+024.2332842283E+01+
*       -1.922774576E+01               0
GRID*               1754               06.6309362247E+024.2332852170E+01+
*       -1.922771662E+01               0
GRID*               1755               06.7672998623E+024.5684728544E+01+
*       -6.718338235E+00               0
GRID*               1756               06.6309362247E+024.5684738431E+01+
*       -6.718309096E+00               0
GRID*               1757               07.3086838415E+024.5684642785E+01+
*       6.7286732000E+00               0
GRID*               1758               07.4430122252E+021.2782365753E+01+
*       4.2597230470E+01               0
GRID*               1759               07.5793758480E+02-1.351567792E-14+
*       4.6750000000E+01               0
GRID*               1760               06.7672998643E+022.9281644616E-15+
*       -4.675000000E+01               0
GRID*               1761               06.6309361842E+02-1.278165155E+01+
*       -4.259777838E+01               0
GRID*               1762               06.6309361842E+02-2.528299407E+01+
*       -3.924763800E+01               0
GRID*               1763               07.7137042083E+02-4.233765142E+01+
*       1.9219462412E+01               0
GRID*               1764               01.5563772063E+034.2332808611E+01+
*       -1.922784498E+01               0
GRID*               1765               01.5563772096E+033.4429805325E+01+
*       -3.010211370E+01               0
GRID*               1766               01.5483224889E+033.8095297956E+01+
*       -2.066702363E+01               0
GRID*               1767               01.5501542378E+033.9058715783E+01+
*       -2.644791151E+01               0
GRID*               1768               01.5483224922E+033.0192294671E+01+
*       -3.154129235E+01               0
GRID*               1769               06.7672998643E+02-1.250134251E+01+
*       -4.339985961E+01               0
GRID*               1770               06.7672997561E+021.2783492205E+01+
*       -4.259636628E+01               0
GRID*               1771               06.9016281143E+022.5284834717E+01+
*       -3.924622589E+01               0
GRID*               1772               07.5793758501E+02-4.233765142E+01+
*       1.9219462412E+01               0
GRID*               1773               07.5793757376E+02-3.443649904E+01+
*       3.0092301697E+01               0
GRID*               1774               07.4430121011E+02-3.443649447E+01+
*       3.0092305208E+01               0
GRID*               1775               07.8500678918E+022.5282472887E+01+
*       3.9247719103E+01               0
GRID*               1776               07.7137042390E+022.5282268383E+01+
*       3.9247875993E+01               0
GRID*               1777               09.0671641865E+024.2332766596E+01+
*       -1.922796881E+01               0
GRID*               1778               08.5257801900E+021.2499663170E+01+
*       4.3400829231E+01               0
GRID*               1779               08.9328358135E+024.2337613745E+01+
*       1.9219573456E+01               0
GRID*               1780               09.6085481773E+02-4.233760707E+01+
*       1.9219593118E+01               0
GRID*               1781               09.4742198191E+02-4.233760707E+01+
*       1.9219593118E+01               0
GRID*               1782               09.4742198191E+02-4.568464619E+01+
*       6.7286631664E+00               0
GRID*               1783               08.7964721763E+024.5684649038E+01+
*       6.7286547701E+00               0
GRID*               1784               08.7964721763E+024.2337609922E+01+
*       1.9219584722E+01               0
GRID*               1785               09.6085481628E+02-4.568466384E+01+
*       -6.718528915E+00               0
GRID*               1786               09.4742198046E+02-4.568466384E+01+
*       -6.718528916E+00               0
GRID*               1787               09.4742198046E+02-4.233277758E+01+
*       -1.922793644E+01               0
GRID*               1788               09.3378561672E+02-4.568465776E+01+
*       -6.718546851E+00               0
GRID*               1789               09.2035278090E+02-4.568465776E+01+
*       -6.718546851E+00               0
GRID*               1790               09.2035278090E+02-4.233277149E+01+
*       -1.922795437E+01               0
GRID*               1791               09.7449118046E+021.2499663170E+01+
*       4.3400829231E+01               0
GRID*               1792               09.6085482719E+022.5283133786E+01+
*       3.9247212078E+01               0
GRID*               1793               01.0420624163E+034.5684642595E+01+
*       -6.718591544E+00               0
GRID*               1794               01.0149932168E+034.2332756784E+01+
*       -1.922799773E+01               0
GRID*               1795               01.0149932108E+033.4430922942E+01+
*       -3.010125629E+01               0
GRID*               1796               01.0015603810E+034.2332756784E+01+
*       -1.922799773E+01               0
GRID*               1797               01.0015603750E+033.4430922943E+01+
*       -3.010125629E+01               0
GRID*               1798               09.8792401628E+021.2499663170E+01+
*       4.3400829231E+01               0
GRID*               1799               09.7449118046E+026.6407650798E-15+
*       4.6750000000E+01               0
GRID*               1800               09.8792400997E+02-3.443594307E+01+
*       3.0092728231E+01               0
GRID*               1801               01.0015603799E+031.2499663170E+01+
*       4.3400829231E+01               0
GRID*               1802               01.0015603799E+03-1.036214561E-14+
*       4.6750000000E+01               0
GRID*               1803               09.8792401628E+022.2810441519E-15+
*       4.6750000000E+01               0
GRID*               1804               09.7449118145E+02-4.233760511E+01+
*       1.9219598917E+01               0
GRID*               1805               09.7449117415E+02-3.443594307E+01+
*       3.0092728231E+01               0
GRID*               1806               01.0286295761E+03-2.528226838E+01+
*       3.9247875993E+01               0
GRID*               1807               01.0286295761E+03-3.443556559E+01+
*       3.0093017823E+01               0
GRID*               1808               01.0149932108E+03-3.443577009E+01+
*       3.0092860933E+01               0
GRID*               1809               01.2451831831E+03-3.443417493E+01+
*       3.0094084698E+01               0
GRID*               1810               01.2315468189E+03-3.443423675E+01+
*       3.0094037274E+01               0
GRID*               1811               01.0149932267E+03-3.443164382E+01+
*       -3.010070325E+01               0
GRID*               1812               01.4481004125E+033.4435723218E+01+
*       3.0092896890E+01               0
GRID*               1813               01.4346675767E+033.4435723218E+01+
*       3.0092896890E+01               0
GRID*               1814               01.0015603909E+03-3.443164381E+01+
*       -3.010070325E+01               0
GRID*               1815               09.8792401584E+02-4.233278498E+01+
*       -1.922791464E+01               0
GRID*               1816               09.8792402699E+02-3.443162165E+01+
*       -3.010072026E+01               0
GRID*               1817               01.4346675724E+034.5684751921E+01+
*       6.7283515553E+00               0
GRID*               1818               01.5563772096E+03-2.528135528E+01+
*       3.9248576505E+01               0
GRID*               1819               01.5429443738E+03-2.528135528E+01+
*       3.9248576505E+01               0
GRID*               1820               01.5482554663E+03-3.019925039E+01+
*       3.1588672256E+01               0
GRID*               1821               01.0015603799E+032.8641072944E-15+
*       -4.675000000E+01               0
GRID*               1822               01.0149932157E+032.8184115199E-15+
*       -4.675000000E+01               0
GRID*               1823               01.5429443691E+036.3065178668E-15+
*       4.6750000000E+01               0
GRID*               1824               01.5293080054E+03-2.403713757E-14+
*       4.6750000000E+01               0
GRID*               1825               01.5429443691E+03-1.249966317E+01+
*       4.3400829231E+01               0
GRID*               1826               01.5293080054E+03-1.249966317E+01+
*       4.3400829231E+01               0
GRID*               1827               01.5563772049E+031.5752579877E-14+
*       4.6750000000E+01               0
GRID*               1828               01.0556987899E+03-2.528487660E+01+
*       -3.924619376E+01               0
GRID*               1829               01.6646540036E+03-4.233283338E+01+
*       -1.922777201E+01               0
GRID*               1830               01.6512211678E+03-4.233283338E+01+
*       -1.922777201E+01               0
GRID*               1831               01.6782903672E+034.5684706818E+01+
*       -6.718402277E+00               0
GRID*               1832               01.6917232022E+031.2501342511E+01+
*       -4.339985961E+01               0
GRID*               1833               01.6646540027E+031.2501342511E+01+
*       -4.339985961E+01               0
GRID*               1834               01.7208466226E+034.4016639070E+01+
*       1.9385778926E+01               0
GRID*               1835               01.7206282034E+034.3650245200E+01+
*       -4.472815717E+00               0
GRID*               1836               01.0962008142E+03-4.233283024E+01+
*       -1.922778126E+01               0
GRID*               1837               01.0827679893E+03-3.443163142E+01+
*       -3.010071276E+01               0
GRID*               1838               01.0827679784E+03-4.233283024E+01+
*       -1.922778126E+01               0
GRID*               1839               01.1098371805E+033.4429964226E+01+
*       -3.010199179E+01               0
GRID*               1840               01.1098371779E+034.5684728544E+01+
*       6.7284204519E+00               0
GRID*               1841               01.5882219962E+03-6.815926223E+00+
*       -4.337872566E+01               0
GRID*               1842               01.1774084129E+034.5684746347E+01+
*       6.7283679858E+00               0
GRID*               1843               01.1639755771E+034.5684746347E+01+
*       6.7283679861E+00               0
GRID*               1844               01.1639755771E+034.2337707232E+01+
*       1.9219297940E+01               0
GRID*               1845               01.5898502187E+03-6.815926223E+00+
*       -4.662872566E+01               0
GRID*               1846               01.1232700138E+034.2337689430E+01+
*       1.9219350405E+01               0
GRID*               1847               01.1232700138E+034.5684728544E+01+
*       6.7284204515E+00               0
GRID*               1848               01.1098371779E+034.2337689429E+01+
*       1.9219350405E+01               0
GRID*               1849               01.1639755781E+034.5684648705E+01+
*       -6.718573539E+00               0
GRID*               1850               05.8188601695E+02-1.278127638E+01+
*       -4.259806621E+01               0
GRID*               1851               05.9552238806E+02-1.250134251E+01+
*       -4.339985961E+01               0
GRID*               1852               05.8188601695E+02-2.528261889E+01+
*       -3.924792582E+01               0
GRID*               1853               05.9552238806E+021.2501342512E+01+
*       -4.339985961E+01               0
GRID*               1854               01.1639755870E+032.5283077748E+01+
*       3.9247255069E+01               0
GRID*               1855               01.1503392174E+03-2.528131472E+01+
*       3.9248607615E+01               0
GRID*               1856               01.1369063816E+03-2.528131472E+01+
*       3.9248607615E+01               0
GRID*               1857               06.9016282225E+02-1.250134251E+01+
*       -4.339985961E+01               0
GRID*               1858               07.0379918589E+02-1.250134251E+01+
*       -4.339985961E+01               0
GRID*               1859               06.9016281949E+02-2.528319351E+01+
*       -3.924748498E+01               0
GRID*               1860               06.7672998367E+02-2.528319351E+01+
*       -3.924748498E+01               0
GRID*               1861               01.2181139851E+03-3.443142300E+01+
*       -3.010087266E+01               0
GRID*               1862               01.2044776125E+03-4.233286620E+01+
*       -1.922767526E+01               0
GRID*               1863               01.2044776219E+03-3.443147830E+01+
*       -3.010083023E+01               0
GRID*               1864               06.9016282225E+022.8824686871E-15+
*       -4.675000000E+01               0
GRID*               1865               01.5563772096E+032.5283034618E+01+
*       -3.924760688E+01               0
GRID*               1866               01.5501542378E+032.9911945076E+01+
*       -3.559340469E+01               0
GRID*               1867               06.9016282225E+021.2501342512E+01+
*       -4.339985961E+01               0
GRID*               1868               01.7053595668E+032.5283465191E+01+
*       -3.924727656E+01               0
GRID*               1869               01.7053595658E+031.2501342511E+01+
*       -4.339985961E+01               0
GRID*               1870               01.2586160124E+034.2332770720E+01+
*       -1.922795665E+01               0
GRID*               1871               01.2722523761E+034.5684660218E+01+
*       -6.718539610E+00               0
GRID*               1872               01.2586160124E+034.5684656989E+01+
*       -6.718549127E+00               0
GRID*               1873               01.6241519573E+024.5684723205E+01+
*       -6.718353961E+00               0
GRID*               1874               01.4898235990E+024.2332836947E+01+
*       -1.922776149E+01               0
GRID*               1875               01.2856852112E+034.5684761675E+01+
*       6.7283228089E+00               0
GRID*               1876               01.2722523753E+034.5684761675E+01+
*       6.7283228092E+00               0
GRID*               1877               01.0827679670E+023.4430376306E+01+
*       -3.010167565E+01               0
GRID*               1878               01.3805291789E+033.4435866153E+01+
*       3.0092787234E+01               0
GRID*               1879               01.3668928097E+034.2337721170E+01+
*       1.9219256862E+01               0
GRID*               1880               01.3534599729E+03-2.616375598E-15+
*       4.6750000000E+01               0
GRID*               1881               01.3398236092E+031.0026814168E-14+
*       4.6750000000E+01               0
GRID*               1882               01.3534599729E+03-1.249966317E+01+
*       4.3400829231E+01               0
GRID*               1883               01.3398236092E+03-1.249966317E+01+
*       4.3400829231E+01               0
GRID*               1884               02.5705562974E+02-4.233769643E+01+
*       1.9219329768E+01               0
GRID*               1885               02.4362279179E+02-3.443545934E+01+
*       3.0093099326E+01               0
GRID*               1886               01.3534599739E+034.2337721170E+01+
*       1.9219256862E+01               0
GRID*               1887               03.9240162055E+021.2781301475E+01+
*       4.2598046957E+01               0
GRID*               1888               01.3939620147E+032.5282568945E+01+
*       3.9247645409E+01               0
GRID*               1889               01.3805291789E+032.5282568945E+01+
*       3.9247645409E+01               0
GRID*               1890               06.2259158752E+02-1.249966317E+01+
*       4.3400829231E+01               0
GRID*               1891               01.3939620097E+03-4.233763521E+01+
*       1.9219510204E+01               0
GRID*               1892               01.3805291739E+03-4.233763521E+01+
*       1.9219510203E+01               0
GRID*               1893               01.3805291739E+03-4.568467432E+01+
*       6.7285802564E+00               0
GRID*               1894               06.4966077638E+02-2.528312047E+01+
*       3.9247222292E+01               0
GRID*               1895               06.3602442334E+02-1.249966317E+01+
*       4.3400829231E+01               0
GRID*               1896               06.3602441303E+02-2.528307775E+01+
*       3.9247255069E+01               0
GRID*               1897               01.7074137867E+034.4016639070E+01+
*       1.9385778926E+01               0
GRID*               1898               01.3805291734E+03-4.568475810E+01+
*       -6.718251118E+00               0
GRID*               1899               01.5022388075E+034.2332802215E+01+
*       -1.922786383E+01               0
GRID*               1900               01.5022388120E+033.4429635594E+01+
*       -3.010224391E+01               0
GRID*               1901               01.5022388120E+032.5282864886E+01+
*       -3.924773710E+01               0
GRID*               1902               07.7137041949E+024.5684642595E+01+
*       6.7286737599E+00               0
GRID*               1903               07.5793758367E+024.5684642595E+01+
*       6.7286737604E+00               0
GRID*               1904               01.5158751696E+031.2499663170E+01+
*       4.3400829231E+01               0
GRID*               1905               01.7208466226E+034.7363678182E+01+
*       6.8948489713E+00               0
GRID*               1906               01.6241519685E+03-4.568470289E+01+
*       6.7284960670E+00               0
GRID*               1907               01.6105156050E+03-4.568470047E+01+
*       6.7285031902E+00               0
GRID*               1908               08.7964721763E+02-4.568464904E+01+
*       -6.718572554E+00               0
GRID*               1909               08.6621438181E+02-4.568464904E+01+
*       -6.718572554E+00               0
GRID*               1910               08.6621438181E+02-4.233276277E+01+
*       -1.922798008E+01               0
GRID*               1911               08.9328359135E+02-3.443145449E+01+
*       -3.010084850E+01               0
GRID*               1912               08.7964721763E+02-4.233276277E+01+
*       -1.922798008E+01               0
GRID*               1913               08.7964722692E+02-3.443135911E+01+
*       -3.010092167E+01               0
GRID*               1914               01.6512211679E+034.2332818743E+01+
*       -1.922781511E+01               0
GRID*               1915               01.6375848060E+033.4430050593E+01+
*       -3.010192554E+01               0
GRID*               1916               08.9328358135E+02-4.568465286E+01+
*       -6.718561288E+00               0
GRID*               1917               08.9328358135E+02-4.233276660E+01+
*       -1.922796881E+01               0
GRID*               1918               09.8792402699E+022.5283171587E+01+
*       3.9247183078E+01               0
GRID*               1919               01.0149932157E+03-1.249966317E+01+
*       4.3400829231E+01               0
GRID*               1920               01.0015603799E+03-1.249966317E+01+
*       4.3400829231E+01               0
GRID*               1921               01.0149932157E+031.2499663170E+01+
*       4.3400829231E+01               0
GRID*               1922               01.0286295794E+031.2499663170E+01+
*       4.3400829231E+01               0
GRID*               1923               01.0286295794E+03-2.745951697E-14+
*       4.6750000000E+01               0
GRID*               1924               01.0149932157E+03-1.544848670E-14+
*       4.6750000000E+01               0
GRID*               1925               01.7053595665E+034.5684708269E+01+
*       -6.718398002E+00               0
GRID*               1926               01.0556987800E+034.2332756519E+01+
*       -1.922799851E+01               0
GRID*               1927               01.0556987775E+033.4430478978E+01+
*       -3.010159689E+01               0
GRID*               1928               01.1369063775E+034.5684738432E+01+
*       6.7283913131E+00               0
GRID*               1929               01.2451831766E+03-4.233761787E+01+
*       1.9219561292E+01               0
GRID*               1930               01.2315468129E+03-4.233761485E+01+
*       1.9219570210E+01               0
GRID*               1931               01.3939620147E+033.4435866153E+01+
*       3.0092787234E+01               0
GRID*               1932               01.3668928087E+031.2499663170E+01+
*       4.3400829231E+01               0
GRID*               1933               01.7212387862E+034.7965535914E+01+
*       2.2556644847E+00               0
GRID*               1934               01.3668928158E+032.5282640753E+01+
*       3.9247590320E+01               0
GRID*               1935               01.7187924024E+032.5281897586E+01+
*       3.9248160459E+01               0
GRID*               1936               01.7214006966E+031.9128709568E+01+
*       3.8731038339E+01               0
GRID*               1937               01.7220112793E+031.8846138321E+01+
*       4.2784536342E+01               0
GRID*               1938               01.7085784435E+031.8846138321E+01+
*       4.2784536342E+01               0
GRID*               1939               01.7324287657E+032.5281876436E+01+
*       3.9248176685E+01               0
GRID*               1940               01.7865671642E+03-4.568471023E+01+
*       6.7284746507E+00               0
GRID*               1941               01.7865671642E+03-4.568471023E+01+
*       -6.718392412E+00               0
GRID*               1942               01.7729308008E+03-4.568471000E+01+
*       6.7284751125E+00               0
GRID*               1943               01.7729308008E+03-4.233767088E+01+
*       1.9219405058E+01               0
GRID*               1944               01.7594979650E+03-4.568471000E+01+
*       6.7284751139E+00               0
GRID*               1945               01.7729308005E+03-1.249966317E+01+
*       4.3400829231E+01               0
GRID*               1946               01.7594979647E+03-1.249966317E+01+
*       4.3400829231E+01               0
GRID*               1947               01.0827679791E+033.4430206907E+01+
*       -3.010180561E+01               0
GRID*               1948               05.4138398444E+014.5684709339E+01+
*       6.7284770671E+00               0
GRID*               1949               04.0502035031E+014.5684710666E+01+
*       -6.718390913E+00               0
GRID*               1950               04.0705562623E+014.5684709339E+01+
*       6.7284770657E+00               0
GRID*               1951               02.7069199210E+014.5684710667E+01+
*       -6.718390914E+00               0
GRID*               1952               05.4138398444E+014.2337670221E+01+
*       1.9219407011E+01               0
GRID*               1953               01.3668928087E+03-1.250134251E+01+
*       -4.339985961E+01               0
GRID*               1954               08.6621438263E+022.8907977808E-15+
*       -4.675000000E+01               0
GRID*               1955               08.7964721845E+022.8451020062E-15+
*       -4.675000000E+01               0
GRID*               1956               08.7964721845E+02-1.250134251E+01+
*       -4.339985961E+01               0
GRID*               1957               08.3914518318E+022.8961358780E-15+
*       -4.675000000E+01               0
GRID*               1958               08.5257801900E+022.8504401035E-15+
*       -4.675000000E+01               0
GRID*               1959               08.5257801900E+02-1.250134251E+01+
*       -4.339985961E+01               0
GRID*               1960               08.3914518318E+021.2501342512E+01+
*       -4.339985961E+01               0
GRID*               1961               01.0827679629E+02-3.443018407E+01+
*       -3.010182314E+01               0
GRID*               1962               09.4640433529E+01-4.233282199E+01+
*       -1.922780553E+01               0
GRID*               1963               01.4877883311E+021.5946952953E-14+
*       4.6750000000E+01               0
GRID*               1964               09.4640433159E+01-2.528346519E+01+
*       -3.924727656E+01               0
GRID*               1965               01.0827679629E+02-2.528341337E+01+
*       -3.924731632E+01               0
GRID*               1966               01.4877883219E+024.5684719633E+01+
*       -6.718364488E+00               0
GRID*               1967               08.1207598372E+013.0456026014E-15+
*       -4.675000000E+01               0
GRID*               1968               06.7774762551E+01-1.250134251E+01+
*       -4.339985961E+01               0
GRID*               1969               02.8412482918E+02-4.568473986E+01+
*       6.7283870980E+00               0
GRID*               1970               02.7069199336E+02-4.568473986E+01+
*       6.7283870978E+00               0
GRID*               1971               02.5705562954E+02-4.233280861E+01+
*       -1.922784498E+01               0
GRID*               1972               09.4640434193E+012.9999068269E-15+
*       -4.675000000E+01               0
GRID*               1973               03.3826322809E+024.5684748157E+01+
*       -6.718280426E+00               0
GRID*               1974               01.3534599637E+024.2332833375E+01+
*       -1.922777201E+01               0
GRID*               1975               02.5705562621E+022.5281355276E+01+
*       3.9248576505E+01               0
GRID*               1976               02.4362279039E+023.4434652480E+01+
*       3.0093718338E+01               0
GRID*               1977               02.4362279039E+022.5281355276E+01+
*       3.9248576505E+01               0
GRID*               1978               04.1947081962E+022.5280909085E+01+
*       3.9248918812E+01               0
GRID*               1979               04.1967434715E+023.4434163740E+01+
*       3.0094093286E+01               0
GRID*               1980               04.4654001880E+022.5280866536E+01+
*       3.9248951454E+01               0
GRID*               1981               04.3310718298E+023.4434163740E+01+
*       3.0094093286E+01               0
GRID*               1982               02.7069199457E+021.2499663169E+01+
*       4.3400829231E+01               0
GRID*               1983               04.6017639077E+021.6642691069E-14+
*       4.6750000000E+01               0
GRID*               1984               03.2483039194E+02-4.568468507E+01+
*       -6.718466379E+00               0
GRID*               1985               03.2483039194E+02-4.233279880E+01+
*       -1.922787390E+01               0
GRID*               1986               03.1139755612E+02-4.568468507E+01+
*       -6.718466380E+00               0
GRID*               1987               04.4654002714E+022.9305115625E-15+
*       -4.675000000E+01               0
GRID*               1988               04.4654001880E+02-1.278120337E+01+
*       -4.259812222E+01               0
GRID*               1989               04.3310719132E+02-1.250134251E+01+
*       -4.339985961E+01               0
GRID*               1990               04.3310718298E+02-2.528254588E+01+
*       -3.924798183E+01               0
GRID*               1991               04.1947082768E+022.9358496597E-15+
*       -4.675000000E+01               0
GRID*               1992               04.3310719132E+022.9762073370E-15+
*       -4.675000000E+01               0
GRID*               1993               04.1947081962E+02-1.278124592E+01+
*       -4.259808958E+01               0
GRID*               1994               05.5481682497E+02-1.249966317E+01+
*       4.3400829231E+01               0
GRID*               1995               05.4138398915E+02-1.249966317E+01+
*       4.3400829231E+01               0
GRID*               1996               04.1947082656E+024.5684758102E+01+
*       -6.718251118E+00               0
GRID*               1997               05.2774762551E+02-1.249966317E+01+
*       4.3400829231E+01               0
GRID*               1998               09.8792401584E+02-4.568467124E+01+
*       -6.718507114E+00               0
GRID*               1999               09.7449118002E+02-4.233278498E+01+
*       -1.922791464E+01               0
GRID*               2000               05.8188602377E+02-4.233771784E+01+
*       1.9219266674E+01               0
GRID*               2001               05.5481682421E+02-4.233772086E+01+
*       1.9219257775E+01               0
GRID*               2002               05.5481682421E+02-4.568475997E+01+
*       6.7283278211E+00               0
GRID*               2003               05.1431478969E+021.2499663170E+01+
*       4.3400829231E+01               0
GRID*               2004               05.1431478133E+022.5280842362E+01+
*       3.9248969999E+01               0
GRID*               2005               05.5481682497E+023.3855069719E-15+
*       4.6750000000E+01               0
GRID*               2006               07.1723202090E+02-2.528343619E+01+
*       -3.924729881E+01               0
GRID*               2007               07.0379918507E+02-2.528343619E+01+
*       -3.924729881E+01               0
GRID*               2008               07.1723202090E+02-3.443020691E+01+
*       -3.010180561E+01               0
GRID*               2009               07.4430121997E+024.5684642785E+01+
*       6.7286731996E+00               0
GRID*               2010               09.3378561672E+02-4.233277150E+01+
*       -1.922795437E+01               0
GRID*               2011               06.6309361220E+02-2.528312047E+01+
*       3.9247222292E+01               0
GRID*               2012               06.6309362280E+02-1.249966317E+01+
*       4.3400829231E+01               0
GRID*               2013               06.4966077638E+02-1.278345730E+01+
*       4.2596393061E+01               0
GRID*               2014               06.4966078697E+02-4.617725225E-14+
*       4.6750000000E+01               0
GRID*               2015               05.6845317903E+02-2.528297294E+01+
*       3.9247335478E+01               0
GRID*               2016               07.1723202165E+024.5684716499E+01+
*       -6.718373735E+00               0
GRID*               2017               07.1723202165E+024.2332830237E+01+
*       -1.922778126E+01               0
GRID*               2018               07.0379918583E+024.2332830237E+01+
*       -1.922778126E+01               0
GRID*               2019               06.9016282206E+02-4.233768943E+01+
*       1.9219350405E+01               0
GRID*               2020               06.9016281143E+02-3.443645258E+01+
*       3.0092337342E+01               0
GRID*               2021               06.7672998623E+02-4.233768943E+01+
*       1.9219350405E+01               0
GRID*               2022               06.7672997561E+02-3.443645258E+01+
*       3.0092337342E+01               0
GRID*               2023               06.6309361220E+02-3.443641768E+01+
*       3.0092364119E+01               0
GRID*               2024               07.4430122252E+023.4435326127E+01+
*       3.0093201531E+01               0
GRID*               2025               06.7672998367E+02-3.442996423E+01+
*       -3.010199179E+01               0
GRID*               2026               08.9328358209E+020.0000000000E+00+
*       4.6750000000E+01               0
GRID*               2027               08.7964721845E+02-1.543032154E-14+
*       4.6750000000E+01               0
GRID*               2028               08.9328358209E+02-1.249966317E+01+
*       4.3400829231E+01               0
GRID*               2029               08.7964721845E+02-1.249966317E+01+
*       4.3400829231E+01               0
GRID*               2030               08.6621438263E+02-1.249966317E+01+
*       4.3400829231E+01               0
GRID*               2031               09.0671641791E+02-4.033285593E-15+
*       4.6750000000E+01               0
GRID*               2032               08.6621439110E+023.4436206263E+01+
*       3.0092526313E+01               0
GRID*               2033               08.6621438181E+024.2337609922E+01+
*       1.9219584722E+01               0
GRID*               2034               09.4742197351E+02-3.443608755E+01+
*       3.0092617385E+01               0
GRID*               2035               09.3378560890E+02-3.443620626E+01+
*       3.0092526313E+01               0
GRID*               2036               01.5563772049E+03-1.249966317E+01+
*       4.3400829231E+01               0
GRID*               2037               09.7449119117E+02-2.528485093E+01+
*       -3.924621346E+01               0
GRID*               2038               09.0671641791E+021.2499663170E+01+
*       4.3400829231E+01               0
GRID*               2039               01.0691316146E+034.5684702768E+01+
*       6.7284964187E+00               0
GRID*               2040               01.0556987788E+034.2337663653E+01+
*       1.9219426372E+01               0
GRID*               2041               01.0962008142E+034.5684716499E+01+
*       6.7284559511E+00               0
GRID*               2042               01.0827679784E+034.5684716499E+01+
*       6.7284559515E+00               0
GRID*               2043               01.0827679796E+034.5684643553E+01+
*       -6.718588722E+00               0
GRID*               2044               01.2044776186E+03-2.528103084E+01+
*       3.9248825404E+01               0
GRID*               2045               01.1910447828E+03-2.528103084E+01+
*       3.9248825404E+01               0
GRID*               2046               01.1232700138E+03-4.233284228E+01+
*       -1.922774576E+01               0
GRID*               2047               01.1098371779E+03-4.233284228E+01+
*       -1.922774576E+01               0
GRID*               2048               01.1232700138E+03-4.568472854E+01+
*       -6.718338235E+00               0
GRID*               2049               01.1098371779E+03-4.568472854E+01+
*       -6.718338235E+00               0
GRID*               2050               01.2044776119E+031.2499663170E+01+
*       4.3400829231E+01               0
GRID*               2051               01.3127544107E+03-4.233287594E+01+
*       -1.922764656E+01               0
GRID*               2052               01.3127544114E+03-4.568466361E+01+
*       6.7286118404E+00               0
GRID*               2053               01.2993215755E+03-4.568466361E+01+
*       6.7286118400E+00               0
GRID*               2054               01.3805291804E+033.4429359136E+01+
*       -3.010245600E+01               0
GRID*               2055               01.0962008149E+032.5283436193E+01+
*       -3.924729881E+01               0
GRID*               2056               01.0827679791E+032.5283436194E+01+
*       -3.924729881E+01               0
GRID*               2057               01.3668928170E+033.4429316587E+01+
*       -3.010248865E+01               0
GRID*               2058               01.3668928170E+032.5282545878E+01+
*       -3.924798183E+01               0
GRID*               2059               01.3534599812E+033.4429316588E+01+
*       -3.010248864E+01               0
GRID*               2060               01.2044776134E+034.5684651186E+01+
*       -6.718566228E+00               0
GRID*               2061               01.1910447776E+034.5684651186E+01+
*       -6.718566228E+00               0
GRID*               2062               01.4751696065E+031.2499663170E+01+
*       4.3400829231E+01               0
GRID*               2063               01.4617367707E+03-4.226077179E-14+
*       4.6750000000E+01               0
GRID*               2064               01.4888059745E+033.4435585841E+01+
*       3.0093002281E+01               0
GRID*               2065               01.4751696114E+033.4435653496E+01+
*       3.0092950379E+01               0
GRID*               2066               01.2044776134E+034.2332764918E+01+
*       -1.922797375E+01               0
GRID*               2067               01.1910447776E+034.2332764918E+01+
*       -1.922797375E+01               0
GRID*               2068               01.5834464084E+03-2.528144036E+01+
*       3.9248511233E+01               0
GRID*               2069               01.1639755870E+033.4436374955E+01+
*       3.0092396896E+01               0
GRID*               2070               01.3127544183E+03-2.528083055E+01+
*       3.9248979065E+01               0
GRID*               2071               01.3127544098E+03-1.249966317E+01+
*       4.3400829231E+01               0
GRID*               2072               01.2993215739E+03-1.249966317E+01+
*       4.3400829231E+01               0
GRID*               2073               01.7053595666E+03-3.443034765E+01+
*       -3.010169763E+01               0
GRID*               2074               01.2993215739E+03-2.602807670E-14+
*       4.6750000000E+01               0
GRID*               2075               08.5257801900E+02-1.249966317E+01+
*       4.3400829231E+01               0
GRID*               2076               01.3127544098E+03-2.049611600E-15+
*       4.6750000000E+01               0
GRID*               2077               01.7865671642E+032.5281866752E+01+
*       3.9248189659E+01               0
GRID*               2078               01.7729308008E+032.5281863345E+01+
*       3.9248186727E+01               0
GRID*               2079               01.3263907750E+03-4.233762800E+01+
*       1.9219531452E+01               0
GRID*               2080               01.3263907819E+03-2.528083950E+01+
*       3.9248972199E+01               0
GRID*               2081               01.4210312092E+03-4.233763883E+01+
*       1.9219499515E+01               0
GRID*               2082               01.4075983734E+03-4.233763883E+01+
*       1.9219499515E+01               0
GRID*               2083               01.5500872119E+03-3.907051866E+01+
*       2.6486896046E+01               0
GRID*               2084               02.1655359566E+02-1.250134251E+01+
*       -4.339985961E+01               0
GRID*               2085               02.1655359161E+02-2.528311970E+01+
*       -3.924754161E+01               0
GRID*               2086               02.0291722864E+02-2.528320214E+01+
*       -3.924747837E+01               0
GRID*               2087               02.1655359283E+022.5283783902E+01+
*       -3.924703205E+01               0
GRID*               2088               02.0291723202E+021.2501342512E+01+
*       -4.339985961E+01               0
GRID*               2089               02.0312075700E+022.5283783902E+01+
*       -3.924703205E+01               0
GRID*               2090               01.7584802984E+02-1.278193738E+01+
*       -4.259755911E+01               0
GRID*               2091               01.7584802984E+02-2.528327989E+01+
*       -3.924741872E+01               0
GRID*               2092               01.8948439282E+02-2.528320214E+01+
*       -3.924747837E+01               0
GRID*               2093               01.2044776119E+03-1.250134251E+01+
*       -4.339985961E+01               0
GRID*               2094               01.2181139756E+03-1.250134251E+01+
*       -4.339985961E+01               0
GRID*               2095               01.2044776219E+03-2.528470758E+01+
*       -3.924632343E+01               0
GRID*               2096               01.2044776119E+031.2501342511E+01+
*       -4.339985961E+01               0
GRID*               2097               01.2181139831E+032.5282618887E+01+
*       -3.924792582E+01               0
GRID*               2098               01.2181139756E+031.2501342511E+01+
*       -4.339985961E+01               0
GRID*               2099               01.1774084228E+03-2.528475709E+01+
*       -3.924628545E+01               0
GRID*               2100               01.2044776119E+032.7810448391E-15+
*       -4.675000000E+01               0
GRID*               2101               01.4346675767E+03-2.528410535E+01+
*       -3.924678545E+01               0
GRID*               2102               01.1910447861E+03-2.528470758E+01+
*       -3.924632343E+01               0
GRID*               2103               08.1207599003E+023.4435943066E+01+
*       3.0092728231E+01               0
GRID*               2104               01.4888059762E+032.5282864886E+01+
*       -3.924773710E+01               0
GRID*               2105               04.0502035027E+01-2.528352948E+01+
*       -3.924722724E+01               0
GRID*               2106               06.7571234136E+01-2.528350452E+01+
*       -3.924724639E+01               0
GRID*               2107               08.2550881855E+024.2337605105E+01+
*       1.9219598917E+01               0
GRID*               2108               08.1207598273E+024.2337605105E+01+
*       1.9219598918E+01               0
GRID*               2109               01.4617367756E+033.4435653496E+01+
*       3.0092950379E+01               0
GRID*               2110               08.2550881855E+024.5684644221E+01+
*       6.7286689661E+00               0
GRID*               2111               02.1655359283E+02-2.528210456E+01+
*       3.9248001674E+01               0
GRID*               2112               02.0291722966E+02-2.528205159E+01+
*       3.9248042313E+01               0
GRID*               2113               01.6105156062E+033.4435348795E+01+
*       3.0093184137E+01               0
GRID*               2114               03.2483039227E+024.5684748157E+01+
*       -6.718280426E+00               0
GRID*               2115               01.5700135726E+03-2.528144036E+01+
*       3.9248511233E+01               0
GRID*               2116               04.6017638978E+02-4.568476169E+01+
*       6.7283227547E+00               0
GRID*               2117               04.4654002607E+02-4.568476028E+01+
*       6.7283269080E+00               0
GRID*               2118               04.4654002553E+02-4.568467070E+01+
*       -6.718508721E+00               0
GRID*               2119               04.3310718971E+02-4.568467070E+01+
*       -6.718508721E+00               0
GRID*               2120               04.3310719025E+02-4.568476028E+01+
*       6.7283269077E+00               0
GRID*               2121               01.6917232037E+03-3.443503123E+01+
*       3.0093427772E+01               0
GRID*               2122               01.6917232037E+03-2.528173402E+01+
*       3.9248285939E+01               0
GRID*               2123               01.6782903679E+03-3.443503123E+01+
*       3.0093427772E+01               0
GRID*               2124               04.1947082656E+02-4.568475810E+01+
*       6.7283333358E+00               0
GRID*               2125               05.8188601695E+021.2781276376E+01+
*       4.2598066212E+01               0
GRID*               2126               05.6845318860E+021.2499663170E+01+
*       4.3400829231E+01               0
GRID*               2127               01.7123685501E+03-3.028790955E+01+
*       3.5286155867E+01               0
GRID*               2128               01.6989357143E+03-3.944120676E+01+
*       2.6131297700E+01               0
GRID*               2129               01.6989357143E+03-3.028790955E+01+
*       3.5286155867E+01               0
GRID*               2130               01.5346190994E+03-3.810225056E+01+
*       2.0714412709E+01               0
GRID*               2131               01.5346191034E+03-3.019916475E+01+
*       3.1588737961E+01               0
GRID*               2132               07.0379917491E+022.5284860703E+01+
*       -3.924620596E+01               0
GRID*               2133               07.0379917491E+023.4431631420E+01+
*       -3.010071276E+01               0
GRID*               2134               01.5022388060E+032.7223257691E-15+
*       -4.675000000E+01               0
GRID*               2135               08.2550881998E+02-4.233763213E+01+
*       1.9219519284E+01               0
GRID*               2136               01.5427408427E+03-4.233765265E+01+
*       1.9219458791E+01               0
GRID*               2137               01.5158751711E+034.2332805498E+01+
*       -1.922785415E+01               0
GRID*               2138               09.6085481773E+024.2332759924E+01+
*       -1.922798847E+01               0
GRID*               2139               09.7449118145E+024.2332757956E+01+
*       -1.922799427E+01               0
GRID*               2140               09.6085480933E+023.4431240403E+01+
*       -3.010101274E+01               0
GRID*               2141               09.6085482719E+023.4436430991E+01+
*       3.0092353906E+01               0
GRID*               2142               09.6085481628E+024.2337624729E+01+
*       1.9219541084E+01               0
GRID*               2143               09.4742198046E+024.2337624729E+01+
*       1.9219541084E+01               0
GRID*               2144               01.0827679796E+03-4.233760444E+01+
*       1.9219600889E+01               0
GRID*               2145               01.0827679796E+03-4.568464355E+01+
*       6.7286709385E+00               0
GRID*               2146               01.0149932157E+031.2501342511E+01+
*       -4.339985961E+01               0
GRID*               2147               01.0286295761E+032.5283947725E+01+
*       -3.924690637E+01               0
GRID*               2148               01.0149932108E+032.5284152229E+01+
*       -3.924674948E+01               0
GRID*               2149               01.0015603799E+031.2501342511E+01+
*       -4.339985961E+01               0
GRID*               2150               01.0015603750E+032.5284152229E+01+
*       -3.924674948E+01               0
GRID*               2151               01.0691316257E+03-3.443164732E+01+
*       -3.010070056E+01               0
GRID*               2152               09.8792401628E+021.2501342511E+01+
*       -4.339985961E+01               0
GRID*               2153               05.2774761684E+023.4431298686E+01+
*       -3.010096802E+01               0
GRID*               2154               05.2774762467E+024.2332875415E+01+
*       -1.922764811E+01               0
GRID*               2155               05.4138398001E+023.4431362827E+01+
*       -3.010091882E+01               0
GRID*               2156               05.0067842605E+021.2501342512E+01+
*       -4.339985961E+01               0
GRID*               2157               01.2044776219E+032.5283028242E+01+
*       3.9247293049E+01               0
GRID*               2158               01.2181139756E+031.2499663170E+01+
*       4.3400829231E+01               0
GRID*               2159               01.2181139851E+032.5282972936E+01+
*       3.9247335478E+01               0
GRID*               2160               02.8412482894E+02-4.233280550E+01+
*       -1.922785415E+01               0
GRID*               2161               02.9776119252E+02-4.233280221E+01+
*       -1.922786383E+01               0
GRID*               2162               01.3398236102E+034.5684761694E+01+
*       6.7283227547E+00               0
GRID*               2163               01.3263907744E+034.5684761694E+01+
*       6.7283227550E+00               0
GRID*               2164               01.3263907750E+034.5684667115E+01+
*       -6.718519287E+00               0
GRID*               2165               01.3127544114E+034.5684663607E+01+
*       -6.718529623E+00               0
GRID*               2166               02.8412482500E+02-2.528294897E+01+
*       -3.924767259E+01               0
GRID*               2167               01.5482554630E+03-3.810225368E+01+
*       2.0714403533E+01               0
GRID*               2168               02.9776119403E+02-1.250134251E+01+
*       -4.339985961E+01               0
GRID*               2169               02.8412483039E+022.9625401461E-15+
*       -4.675000000E+01               0
GRID*               2170               02.9776119403E+023.0028978233E-15+
*       -4.675000000E+01               0
GRID*               2171               02.8412482500E+02-1.278160646E+01+
*       -4.259781298E+01               0
GRID*               2172               01.7053595668E+033.4430235897E+01+
*       -3.010178338E+01               0
GRID*               2173               01.7187924027E+032.5283465191E+01+
*       -3.924727656E+01               0
GRID*               2174               01.7249918782E+031.9309695955E+01+
*       -3.941352369E+01               0
GRID*               2175               01.7322252385E+032.5283465191E+01+
*       -3.924727656E+01               0
GRID*               2176               01.7187924027E+033.4430235897E+01+
*       -3.010178338E+01               0
GRID*               2177               01.2993215821E+03-3.443123143E+01+
*       -3.010101962E+01               0
GRID*               2178               06.7672998623E+02-4.568472854E+01+
*       6.7284204515E+00               0
GRID*               2179               08.1207597707E+014.2337669150E+01+
*       1.9219410166E+01               0
GRID*               2180               01.2586160109E+032.7703686445E-15+
*       -4.675000000E+01               0
GRID*               2181               02.1655359566E+02-1.249966317E+01+
*       4.3400829231E+01               0
GRID*               2182               06.7571234265E+014.2337670221E+01+
*       1.9219407011E+01               0
GRID*               2183               01.6241519573E+02-4.233768409E+01+
*       1.9219366135E+01               0
GRID*               2184               01.6241519482E+02-3.443530103E+01+
*       3.0093220783E+01               0
GRID*               2185               01.4877883160E+02-3.443525905E+01+
*       3.0093252985E+01               0
GRID*               2186               01.7605155928E+02-4.233768800E+01+
*       1.9219354613E+01               0
GRID*               2187               01.8948439510E+02-4.233768800E+01+
*       1.9219354613E+01               0
GRID*               2188               02.0291722966E+02-3.443534880E+01+
*       3.0093184137E+01               0
GRID*               2189               01.8948439282E+02-3.442997284E+01+
*       -3.010198519E+01               0
GRID*               2190               01.7584803145E+02-4.233281662E+01+
*       -1.922782137E+01               0
GRID*               2191               01.7668353022E+03-3.397107731E+01+
*       -2.598796146E+01               0
GRID*               2192               01.7668353022E+03-4.187358831E+01+
*       -1.511403600E+01               0
GRID*               2193               01.7531989388E+03-4.187358956E+01+
*       -1.511403230E+01               0
GRID*               2194               03.7896879124E+024.5684755274E+01+
*       -6.718259452E+00               0
GRID*               2195               04.1947082608E+024.2337635207E+01+
*       1.9219510203E+01               0
GRID*               2196               04.3310718971E+024.2337631582E+01+
*       1.9219520886E+01               0
GRID*               2197               04.1967435389E+024.5684670699E+01+
*       6.7285909394E+00               0
GRID*               2198               02.1655359566E+021.2501342512E+01+
*       -4.339985961E+01               0
GRID*               2199               04.8724558172E+023.4434127749E+01+
*       3.0094120897E+01               0
GRID*               2200               04.8724559023E+021.2499663170E+01+
*       4.3400829231E+01               0
GRID*               2201               02.2998642743E+02-1.278177719E+01+
*       -4.259768200E+01               0
GRID*               2202               02.4362279512E+023.0135740179E-15+
*       -4.675000000E+01               0
GRID*               2203               02.2998643148E+022.9732163406E-15+
*       -4.675000000E+01               0
GRID*               2204               02.8432835217E+023.4434482748E+01+
*       3.0093848552E+01               0
GRID*               2205               02.7069199312E+024.2337652652E+01+
*       1.9219458791E+01               0
GRID*               2206               02.7069198918E+023.4434566834E+01+
*       3.0093784043E+01               0
GRID*               2207               02.9776118799E+023.4434482748E+01+
*       3.0093848552E+01               0
GRID*               2208               02.9776119252E+024.2337649369E+01+
*       1.9219468466E+01               0
GRID*               2209               02.8412482894E+024.2337652652E+01+
*       1.9219458791E+01               0
GRID*               2210               05.2774761684E+02-2.528284863E+01+
*       3.9247430846E+01               0
GRID*               2211               05.1431478102E+02-1.278318546E+01+
*       4.2596601615E+01               0
GRID*               2212               03.1119402834E+024.2337649369E+01+
*       1.9219468466E+01               0
GRID*               2213               03.2483039194E+024.2337645949E+01+
*       1.9219478544E+01               0
GRID*               2214               03.2483038857E+02-2.528235629E+01+
*       3.9247808555E+01               0
GRID*               2215               03.2483039349E+02-1.249966317E+01+
*       4.3400829231E+01               0
GRID*               2216               07.3086838542E+024.5684702768E+01+
*       -6.718414202E+00               0
GRID*               2217               01.7729308008E+03-3.443031341E+01+
*       -3.010172390E+01               0
GRID*               2218               01.7729308008E+03-4.233282441E+01+
*       -1.922779844E+01               0
GRID*               2219               04.3310718298E+02-3.442931659E+01+
*       -3.010248865E+01               0
GRID*               2220               04.3310718971E+02-4.233278443E+01+
*       -1.922791625E+01               0
GRID*               2221               04.1947082608E+02-4.233278805E+01+
*       -1.922790556E+01               0
GRID*               2222               07.9843962500E+023.4435770092E+01+
*       3.0092860932E+01               0
GRID*               2223               04.8724558206E+022.5284460710E+01+
*       -3.924651282E+01               0
GRID*               2224               04.7360921894E+022.5284391156E+01+
*       -3.924656618E+01               0
GRID*               2225               05.1431478102E+02-2.528284863E+01+
*       3.9247430846E+01               0
GRID*               2226               05.6845317903E+02-1.278330977E+01+
*       4.2596506247E+01               0
GRID*               2227               01.1098371886E+033.4436452581E+01+
*       3.0092337342E+01               0
GRID*               2228               01.2315468114E+03-1.249966317E+01+
*       4.3400829231E+01               0
GRID*               2229               06.7672998511E+024.5684644834E+01+
*       6.7286671633E+00               0
GRID*               2230               01.2586160109E+033.7124844232E-15+
*       4.6750000000E+01               0
GRID*               2231               01.3668928097E+03-4.233287402E+01+
*       -1.922765221E+01               0
GRID*               2232               01.3534599800E+03-3.443109081E+01+
*       -3.010112750E+01               0
GRID*               2233               07.0379918589E+021.2499663170E+01+
*       4.3400829231E+01               0
GRID*               2234               07.0379918507E+022.5281756852E+01+
*       3.9248268427E+01               0
GRID*               2235               06.9016281949E+022.5281514171E+01+
*       3.9248454605E+01               0
GRID*               2236               07.3086838535E+02-4.007727645E-14+
*       4.6750000000E+01               0
GRID*               2237               07.1723202090E+021.2782093682E+01+
*       4.2597439195E+01               0
GRID*               2238               07.1723202171E+021.3291700386E-15+
*       4.6750000000E+01               0
GRID*               2239               08.1207598273E+02-4.568464422E+01+
*       -6.718586750E+00               0
GRID*               2240               07.9843962041E+02-4.568468009E+01+
*       6.7285632589E+00               0
GRID*               2241               07.9843961902E+02-4.568464305E+01+
*       -6.718590204E+00               0
GRID*               2242               01.4210312088E+034.5684755275E+01+
*       6.7283416701E+00               0
GRID*               2243               07.8500678320E+02-4.568464305E+01+
*       -6.718590204E+00               0
GRID*               2244               07.8500678459E+02-4.568468009E+01+
*       6.7285632585E+00               0
GRID*               2245               07.7137042083E+02-4.568469054E+01+
*       6.7285324593E+00               0
GRID*               2246               08.6621438328E+024.2332771495E+01+
*       -1.922795437E+01               0
GRID*               2247               08.6621437275E+023.4431528734E+01+
*       -3.010079154E+01               0
GRID*               2248               08.5257800863E+023.4431583843E+01+
*       -3.010074926E+01               0
GRID*               2249               08.2550881954E+021.2501342512E+01+
*       -4.339985961E+01               0
GRID*               2250               08.3914517281E+022.5284813128E+01+
*       -3.924624246E+01               0
GRID*               2251               08.2550880883E+022.5284850929E+01+
*       -3.924621346E+01               0
GRID*               2252               08.3914517281E+023.4431583843E+01+
*       -3.010074926E+01               0
GRID*               2253               08.2550880883E+023.4431621645E+01+
*       -3.010072026E+01               0
GRID*               2254               08.5257800863E+022.5284813128E+01+
*       -3.924624246E+01               0
GRID*               2255               09.3378561672E+024.5684657759E+01+
*       6.7286290675E+00               0
GRID*               2256               09.4742199137E+022.5283133786E+01+
*       3.9247212078E+01               0
GRID*               2257               09.2035279143E+022.5283078676E+01+
*       3.9247254357E+01               0
GRID*               2258               09.0671642717E+022.5283004434E+01+
*       3.9247311314E+01               0
GRID*               2259               01.5563772082E+03-2.528384148E+01+
*       -3.924698788E+01               0
GRID*               2260               09.6085480933E+02-3.443608755E+01+
*       3.0092617385E+01               0
GRID*               2261               05.6845317903E+021.2783309766E+01+
*       -4.259650625E+01               0
GRID*               2262               05.5481682497E+021.2501342512E+01+
*       -4.339985961E+01               0
GRID*               2263               05.6845317903E+022.5284652278E+01+
*       -3.924636586E+01               0
GRID*               2264               05.9552238136E+02-2.528271018E+01+
*       -3.924785578E+01               0
GRID*               2265               01.0420624119E+033.4430718438E+01+
*       -3.010141318E+01               0
GRID*               2266               01.0962008142E+034.2337677384E+01+
*       1.9219385904E+01               0
GRID*               2267               01.0962008251E+033.4436478567E+01+
*       3.0092317407E+01               0
GRID*               2268               05.5481681695E+02-1.278121456E+01+
*       -4.259811364E+01               0
GRID*               2269               01.0827679784E+034.2337677384E+01+
*       1.9219385905E+01               0
GRID*               2270               01.0962008251E+032.5283181361E+01+
*       3.9247175580E+01               0
GRID*               2271               01.0827679893E+032.5283181361E+01+
*       3.9247175580E+01               0
GRID*               2272               01.1639755781E+03-4.233760959E+01+
*       1.9219585706E+01               0
GRID*               2273               01.2044776186E+03-3.443432804E+01+
*       3.0093967236E+01               0
GRID*               2274               01.1910447828E+03-3.443432804E+01+
*       3.0093967235E+01               0
GRID*               2275               01.7729308008E+03-4.568471067E+01+
*       -6.718390914E+00               0
GRID*               2276               01.1910447861E+03-3.443147830E+01+
*       -3.010083023E+01               0
GRID*               2277               01.1910447767E+03-4.233286620E+01+
*       -1.922767526E+01               0
GRID*               2278               01.1774084129E+03-4.233286009E+01+
*       -1.922769329E+01               0
GRID*               2279               01.7632654821E+03-4.850289245E+01+
*       -1.793837536E+00               0
GRID*               2280               01.7630619546E+03-4.418760413E+01+
*       -8.522310689E+00               0
GRID*               2281               01.7571699836E+03-4.469177009E+01+
*       -1.018948262E+01               0
GRID*               2282               01.2170963252E+023.4430376306E+01+
*       -3.010167565E+01               0
GRID*               2283               01.7494255912E+03-4.418760539E+01+
*       -8.522306997E+00               0
GRID*               2284               01.1774084129E+03-4.568474635E+01+
*       -6.718285769E+00               0
GRID*               2285               01.1774084228E+03-3.443152781E+01+
*       -3.010079225E+01               0
GRID*               2286               02.2998642865E+02-2.528210456E+01+
*       3.9248001674E+01               0
GRID*               2287               01.7187924027E+03-2.528178585E+01+
*       3.9248246180E+01               0
GRID*               2288               01.7187924027E+03-3.443508305E+01+
*       3.0093388013E+01               0
GRID*               2289               01.7238755069E+03-3.058414730E+01+
*       3.1736851178E+01               0
GRID*               2290               01.7238755065E+03-3.848673340E+01+
*       2.0862873331E+01               0
GRID*               2291               01.2315468114E+031.2501342511E+01+
*       -4.339985961E+01               0
GRID*               2292               01.2993215749E+034.5684762202E+01+
*       6.7283212572E+00               0
GRID*               2293               03.3826322776E+024.2337645949E+01+
*       1.9219478544E+01               0
GRID*               2294               01.2993215821E+033.4436078576E+01+
*       3.0092624269E+01               0
GRID*               2295               01.2993215749E+034.2337723087E+01+
*       1.9219251211E+01               0
GRID*               2296               01.2856852112E+034.2337722561E+01+
*       1.9219252763E+01               0
GRID*               2297               03.6533242719E+024.2337642426E+01+
*       1.9219488927E+01               0
GRID*               2298               05.2774762467E+02-4.233772256E+01+
*       1.9219252763E+01               0
GRID*               2299               05.1431478102E+02-3.443614583E+01+
*       3.0092572671E+01               0
GRID*               2300               01.0827679670E+02-2.528192624E+01+
*       3.9248138474E+01               0
GRID*               2301               01.0827679783E+02-1.249966317E+01+
*       4.3400829231E+01               0
GRID*               2302               09.4640434193E+01-1.249966317E+01+
*       4.3400829231E+01               0
GRID*               2303               01.7375118700E+03-3.848673447E+01+
*       2.0862870176E+01               0
GRID*               2304               04.6017638228E+023.4434136700E+01+
*       3.0094114030E+01               0
GRID*               2305               04.6017638917E+024.2337627997E+01+
*       1.9219531452E+01               0
GRID*               2306               04.4654002553E+024.2337631582E+01+
*       1.9219520886E+01               0
GRID*               2307               01.3805291804E+03-3.443420629E+01+
*       3.0094060644E+01               0
GRID*               2308               01.3668928170E+03-3.443416374E+01+
*       3.0094093286E+01               0
GRID*               2309               01.3263907734E+03-1.249966317E+01+
*       4.3400829231E+01               0
GRID*               2310               01.3263907734E+031.4386535096E-14+
*       4.6750000000E+01               0
GRID*               2311               01.7375118701E+03-3.058418663E+01+
*       3.1736821005E+01               0
GRID*               2312               01.4481004083E+03-4.568475192E+01+
*       -6.718269337E+00               0
GRID*               2313               01.4481004086E+03-4.568468154E+01+
*       6.7285589812E+00               0
GRID*               2314               01.4346675724E+03-4.568475192E+01+
*       -6.718269337E+00               0
GRID*               2315               01.4346675728E+03-4.568468154E+01+
*       6.7285589808E+00               0
GRID*               2316               09.0671642717E+02-3.443145449E+01+
*       -3.010084850E+01               0
GRID*               2317               09.0671641717E+02-4.233276660E+01+
*       -1.922796881E+01               0
GRID*               2318               01.7324287659E+03-2.528182518E+01+
*       3.9248216007E+01               0
GRID*               2319               01.1369063775E+03-4.568473843E+01+
*       -6.718309096E+00               0
GRID*               2320               01.1369063775E+03-4.233285217E+01+
*       -1.922771662E+01               0
GRID*               2321               01.1774084139E+034.5684648705E+01+
*       -6.718573540E+00               0
GRID*               2322               01.4617367719E+034.5684748158E+01+
*       6.7283626445E+00               0
GRID*               2323               01.2315468121E+034.5684756955E+01+
*       6.7283367196E+00               0
GRID*               2324               01.2315468129E+034.5684653963E+01+
*       -6.718558044E+00               0
GRID*               2325               01.2181139762E+034.5684756955E+01+
*       6.7283367200E+00               0
GRID*               2326               01.2181139771E+034.5684653963E+01+
*       -6.718558043E+00               0
GRID*               2327               01.7053595668E+03-2.528178585E+01+
*       3.9248246180E+01               0
GRID*               2328               01.7117579677E+03-3.057036906E+01+
*       3.1232743584E+01               0
GRID*               2329               01.4751696132E+032.5282784532E+01+
*       -3.924779874E+01               0
GRID*               2330               01.4617367773E+033.4429555241E+01+
*       -3.010230556E+01               0
GRID*               2331               04.0603799186E+021.2499663169E+01+
*       4.3400829231E+01               0
GRID*               2332               03.9240162055E+022.5280964644E+01+
*       3.9248876188E+01               0
GRID*               2333               01.7123685501E+03-3.944120676E+01+
*       2.6131297700E+01               0
GRID*               2334               01.5158751750E+03-2.528126963E+01+
*       3.9248642210E+01               0
GRID*               2335               01.5563772063E+03-4.568469488E+01+
*       6.7285196701E+00               0
GRID*               2336               01.7498326463E+03-4.515100619E+01+
*       -1.430324506E+01               0
GRID*               2337               01.7498326463E+03-4.850289245E+01+
*       -1.793837535E+00               0
GRID*               2338               01.7458616011E+03-3.154074420E-15+
*       4.6750000000E+01               0
GRID*               2339               01.6782903671E+034.5684716498E+01+
*       6.7284559495E+00               0
GRID*               2340               04.6017638917E+02-4.568466711E+01+
*       -6.718519287E+00               0
GRID*               2341               04.4654002553E+02-4.233278443E+01+
*       -1.922791625E+01               0
GRID*               2342               04.7360922500E+02-4.568466711E+01+
*       -6.718519287E+00               0
GRID*               2343               04.7360922560E+02-4.568476169E+01+
*       6.7283227550E+00               0
GRID*               2344               01.7594979647E+031.2499663170E+01+
*       4.3400829231E+01               0
GRID*               2345               01.7458616016E+032.5281876436E+01+
*       3.9248176685E+01               0
GRID*               2346               01.3127544107E+034.5684762202E+01+
*       6.7283212569E+00               0
GRID*               2347               01.7350370599E+031.9128688417E+01+
*       3.8731054565E+01               0
GRID*               2348               01.7865671642E+03-4.233282397E+01+
*       -1.922779994E+01               0
GRID*               2349               01.7458616016E+03-4.233767022E+01+
*       1.9219407011E+01               0
GRID*               2350               01.7322252381E+03-4.233766915E+01+
*       1.9219410166E+01               0
GRID*               2351               01.7324287657E+03-4.568470934E+01+
*       6.7284770673E+00               0
GRID*               2352               01.5700135726E+032.5283119699E+01+
*       -3.924754161E+01               0
GRID*               2353               01.5700135726E+033.4429890406E+01+
*       -3.010204843E+01               0
GRID*               2354               01.6646540027E+031.2499663170E+01+
*       4.3400829231E+01               0
GRID*               2355               01.5834464055E+03-4.233284500E+01+
*       -1.922773774E+01               0
GRID*               2356               01.7594979650E+03-4.233767088E+01+
*       1.9219405058E+01               0
GRID*               2357               01.7458616016E+03-4.568470934E+01+
*       6.7284770671E+00               0
GRID*               2358               01.7458616015E+03-4.568471192E+01+
*       -6.718387221E+00               0
GRID*               2359               01.7494255912E+03-4.418760281E+01+
*       4.9245572910E+00               0
GRID*               2360               01.3398236169E+03-3.443116188E+01+
*       -3.010107298E+01               0
GRID*               2361               01.3398236169E+03-2.528439116E+01+
*       -3.924656618E+01               0
GRID*               2362               01.4210312076E+032.7383400609E-15+
*       -4.675000000E+01               0
GRID*               2363               01.4346675712E+032.7786977382E-15+
*       -4.675000000E+01               0
GRID*               2364               01.4269753154E+03-6.584519665E+00+
*       -4.340195530E+01               0
GRID*               2365               03.6533242877E+021.2501342512E+01+
*       -4.339985961E+01               0
GRID*               2366               03.2483039349E+022.9975597261E-15+
*       -4.675000000E+01               0
GRID*               2367               03.3826322266E+02-1.278144202E+01+
*       -4.259793913E+01               0
GRID*               2368               01.6917232022E+031.2499663170E+01+
*       4.3400829231E+01               0
GRID*               2369               01.6782903664E+031.2499663170E+01+
*       4.3400829231E+01               0
GRID*               2370               01.6782903664E+03-2.137770864E-14+
*       4.6750000000E+01               0
GRID*               2371               04.1967434715E+02-3.442931659E+01+
*       -3.010248865E+01               0
GRID*               2372               04.0603799025E+02-4.233278805E+01+
*       -1.922790556E+01               0
GRID*               2373               04.6017639077E+02-1.250134251E+01+
*       -4.339985961E+01               0
GRID*               2374               04.6017638228E+02-2.528251884E+01+
*       -3.924800258E+01               0
GRID*               2375               04.4654001880E+02-2.528254588E+01+
*       -3.924798183E+01               0
GRID*               2376               01.3432835821E+011.5812180230E-15+
*       4.6750000000E+01               0
GRID*               2377               01.6241519674E+031.2499663170E+01+
*       4.3400829231E+01               0
GRID*               2378               01.6782903679E+03-2.528173402E+01+
*       3.9248285939E+01               0
GRID*               2379               01.6646540027E+03-1.249966317E+01+
*       4.3400829231E+01               0
GRID*               2380               03.9240162055E+02-2.528264399E+01+
*       -3.924790657E+01               0
GRID*               2381               03.9240162055E+02-1.278130147E+01+
*       -4.259804696E+01               0
GRID*               2382               03.7896878638E+021.2782833957E+01+
*       -4.259687128E+01               0
GRID*               2383               01.1232700149E+03-4.568464483E+01+
*       6.7286671633E+00               0
GRID*               2384               01.3805291723E+031.2501342511E+01+
*       -4.339985961E+01               0
GRID*               2385               01.4075983718E+032.7840358355E-15+
*       -4.675000000E+01               0
GRID*               2386               01.4075983718E+03-1.250134251E+01+
*       -4.339985961E+01               0
GRID*               2387               02.7069199238E+01-2.528186335E+01+
*       3.9248186727E+01               0
GRID*               2388               01.3805291723E+03-1.250134251E+01+
*       -4.339985961E+01               0
GRID*               2389               01.4075983718E+03-8.269480679E-15+
*       4.6750000000E+01               0
GRID*               2390               01.0827679700E+02-4.233282054E+01+
*       -1.922780981E+01               0
GRID*               2391               05.5481682343E+024.5684656989E+01+
*       6.7286313435E+00               0
GRID*               2392               05.6845318710E+024.2337614846E+01+
*       1.9219570210E+01               0
GRID*               2393               05.5481682343E+024.2337617872E+01+
*       1.9219561292E+01               0
GRID*               2394               01.2181139771E+03-4.233761485E+01+
*       1.9219570209E+01               0
GRID*               2395               01.2044776134E+03-4.233761207E+01+
*       1.9219578394E+01               0
GRID*               2396               01.3127544107E+034.2337723088E+01+
*       1.9219251211E+01               0
GRID*               2397               01.3534599518E+02-3.443012166E+01+
*       -3.010187102E+01               0
GRID*               2398               01.2191315935E+02-3.443012166E+01+
*       -3.010187102E+01               0
GRID*               2399               01.0556987788E+031.2499663170E+01+
*       4.3400829231E+01               0
GRID*               2400               01.0420624262E+032.5283201839E+01+
*       3.9247159870E+01               0
GRID*               2401               01.0420624152E+031.2499663170E+01+
*       4.3400829231E+01               0
GRID*               2402               02.1655359434E+024.2337658677E+01+
*       1.9219441032E+01               0
GRID*               2403               02.1655359434E+024.5684697795E+01+
*       6.7285110878E+00               0
GRID*               2404               02.0312075852E+024.5684697795E+01+
*       6.7285110881E+00               0
GRID*               2405               06.7774761887E+014.5684708268E+01+
*       6.7284802226E+00               0
GRID*               2406               05.4138398455E+014.5684711919E+01+
*       -6.718387221E+00               0
GRID*               2407               02.2998643017E+024.2337658677E+01+
*       1.9219441032E+01               0
GRID*               2408               02.5705562621E+021.2781692107E+01+
*       4.2597747274E+01               0
GRID*               2409               09.0671641791E+02-1.249966317E+01+
*       4.3400829231E+01               0
GRID*               2410               02.2998642743E+022.5281440357E+01+
*       3.9248511233E+01               0
GRID*               2411               02.3018995457E+023.4434652480E+01+
*       3.0093718338E+01               0
GRID*               2412               01.0286295794E+032.8587691972E-15+
*       -4.675000000E+01               0
GRID*               2413               06.2259158752E+021.2499663170E+01+
*       4.3400829231E+01               0
GRID*               2414               06.0895521718E+022.5281030840E+01+
*       3.9248825404E+01               0
GRID*               2415               06.2259158752E+020.0000000000E+00+
*       4.6750000000E+01               0
GRID*               2416               06.0895521718E+021.2781367670E+01+
*       4.2597996173E+01               0
GRID*               2417               05.0088194551E+023.4434139566E+01+
*       3.0094111831E+01               0
GRID*               2418               01.5834464084E+032.5283119699E+01+
*       -3.924754161E+01               0
GRID*               2419               01.5834464084E+033.4429890406E+01+
*       -3.010204843E+01               0
GRID*               2420               01.5891316542E+033.0214338003E+01+
*       -3.164924770E+01               0
GRID*               2421               01.5907598727E+033.9080674033E+01+
*       -2.655593213E+01               0
GRID*               2422               07.1723202045E+02-4.233275729E+01+
*       -1.922799624E+01               0
GRID*               2423               03.1119402985E+020.0000000000E+00+
*       4.6750000000E+01               0
GRID*               2424               02.9776119403E+021.2499663169E+01+
*       4.3400829231E+01               0
GRID*               2425               02.7069199457E+02-1.249966317E+01+
*       4.3400829231E+01               0
GRID*               2426               03.5189958748E+02-3.443572322E+01+
*       3.0092896890E+01               0
GRID*               2427               03.3826322440E+02-3.443565350E+01+
*       3.0092950379E+01               0
GRID*               2428               04.7360921810E+022.5280839496E+01+
*       3.9248972199E+01               0
GRID*               2429               02.9776119281E+02-4.233770499E+01+
*       1.9219304556E+01               0
GRID*               2430               02.8412482918E+02-4.233770075E+01+
*       1.9219317052E+01               0
GRID*               2431               01.2856852112E+03-4.568476167E+01+
*       -6.718240591E+00               0
GRID*               2432               07.9843962008E+02-1.250134251E+01+
*       -4.339985961E+01               0
GRID*               2433               04.4674355335E+024.5684667114E+01+
*       6.7286015052E+00               0
GRID*               2434               04.3310718971E+024.5684670699E+01+
*       6.7285909389E+00               0
GRID*               2435               07.0379918583E+024.5684716499E+01+
*       -6.718373734E+00               0
GRID*               2436               04.6017638917E+024.5684667114E+01+
*       6.7286015048E+00               0
GRID*               2437               01.5970827692E+034.2332814202E+01+
*       -1.922782850E+01               0
GRID*               2438               04.7381274590E+023.4434127749E+01+
*       3.0094120897E+01               0
GRID*               2439               02.1655359450E+024.5684731262E+01+
*       -6.718330217E+00               0
GRID*               2440               02.0291723092E+024.5684727115E+01+
*       -6.718342440E+00               0
GRID*               2441               05.5481682343E+02-4.233277072E+01+
*       -1.922795665E+01               0
GRID*               2442               05.5481682343E+02-4.568465699E+01+
*       -6.718549126E+00               0
GRID*               2443               05.4138398761E+02-4.568465699E+01+
*       -6.718549127E+00               0
GRID*               2444               04.4674354645E+023.4434136700E+01+
*       3.0094114031E+01               0
GRID*               2445               03.6533242757E+024.5684751920E+01+
*       -6.718269337E+00               0
GRID*               2446               07.5793758501E+02-4.568469054E+01+
*       6.7285324589E+00               0
GRID*               2447               07.4430122124E+02-4.568470277E+01+
*       6.7284964191E+00               0
GRID*               2448               07.3086838415E+02-4.568464279E+01+
*       -6.718590983E+00               0
GRID*               2449               07.3086838542E+02-4.568470277E+01+
*       6.7284964187E+00               0
GRID*               2450               04.7360921894E+02-2.528271181E+01+
*       3.9247535804E+01               0
GRID*               2451               04.8724558206E+02-3.443607858E+01+
*       3.0092624269E+01               0
GRID*               2452               08.2550881998E+024.5684671242E+01+
*       -6.718507115E+00               0
GRID*               2453               08.2550881998E+024.2332784978E+01+
*       -1.922791464E+01               0
GRID*               2454               08.1207598416E+024.5684671242E+01+
*       -6.718507114E+00               0
GRID*               2455               08.1207598416E+024.2332784979E+01+
*       -1.922791464E+01               0
GRID*               2456               04.0705562634E+014.2332825662E+01+
*       -1.922779475E+01               0
GRID*               2457               08.1207598273E+024.5684644221E+01+
*       6.7286689666E+00               0
GRID*               2458               02.7069199457E+011.2501342512E+01+
*       -4.339985961E+01               0
GRID*               2459               01.3432835821E+011.2501342512E+01+
*       -4.339985961E+01               0
GRID*               2460               02.7069199238E+012.5283542688E+01+
*       -3.924721711E+01               0
GRID*               2461               04.0603799186E+02-1.250134251E+01+
*       -4.339985961E+01               0
GRID*               2462               03.1119402985E+022.9572020488E-15+
*       -4.675000000E+01               0
GRID*               2463               03.1119402381E+02-1.278152237E+01+
*       -4.259787749E+01               0
GRID*               2464               09.7449118002E+02-4.568467124E+01+
*       -6.718507115E+00               0
GRID*               2465               09.6085481773E+02-4.568464619E+01+
*       6.7286631669E+00               0
GRID*               2466               01.0691316133E+03-2.528202892E+01+
*       3.9248059701E+01               0
GRID*               2467               01.0556987775E+03-2.528202892E+01+
*       3.9248059701E+01               0
GRID*               2468               01.0556987775E+03-3.443532613E+01+
*       3.0093201531E+01               0
GRID*               2469               01.7605155916E+024.5684700475E+01+
*       6.7285031905E+00               0
GRID*               2470               01.0962008142E+03-4.568471650E+01+
*       -6.718373734E+00               0
GRID*               2471               09.4640433407E+01-3.443519479E+01+
*       3.0093302282E+01               0
GRID*               2472               01.0827679670E+02-3.443522345E+01+
*       3.0093280297E+01               0
GRID*               2473               09.4843960880E+01-2.528192624E+01+
*       3.9248138474E+01               0
GRID*               2474               08.1207597586E+01-2.528189759E+01+
*       3.9248160459E+01               0
GRID*               2475               01.6646540042E+033.4435259052E+01+
*       3.0093252985E+01               0
GRID*               2476               01.6646540036E+034.2337680521E+01+
*       1.9219376662E+01               0
GRID*               2477               01.6512211684E+033.4435259052E+01+
*       3.0093252985E+01               0
GRID*               2478               01.6512211678E+034.2337680521E+01+
*       1.9219376662E+01               0
GRID*               2479               01.1774084182E+032.5282834129E+01+
*       -3.924776069E+01               0
GRID*               2480               01.1639755870E+03-3.443152781E+01+
*       -3.010079225E+01               0
GRID*               2481               04.0603799186E+022.9815454343E-15+
*       -4.675000000E+01               0
GRID*               2482               01.1774084139E+034.2332762437E+01+
*       -1.922798106E+01               0
GRID*               2483               01.5427408427E+034.2332805497E+01+
*       -1.922785415E+01               0
GRID*               2484               01.5346861253E+033.8095294843E+01+
*       -2.066703281E+01               0
GRID*               2485               01.3805291804E+032.5282588426E+01+
*       -3.924794919E+01               0
GRID*               2486               01.2586160116E+034.2337720860E+01+
*       1.9219257775E+01               0
GRID*               2487               01.2451831758E+034.2337720860E+01+
*       1.9219257775E+01               0
GRID*               2488               01.5158751750E+033.4429719680E+01+
*       -3.010217940E+01               0
GRID*               2489               01.2856852190E+033.4436145833E+01+
*       3.0092572671E+01               0
GRID*               2490               01.2315468210E+033.4436270143E+01+
*       3.0092477304E+01               0
GRID*               2491               01.2315468210E+032.5282972936E+01+
*       3.9247335478E+01               0
GRID*               2492               01.2586160116E+034.5684759975E+01+
*       6.7283278207E+00               0
GRID*               2493               01.2451831758E+034.5684759975E+01+
*       6.7283278211E+00               0
GRID*               2494               03.1119402863E+02-4.568474410E+01+
*       6.7283746014E+00               0
GRID*               2495               02.9776119281E+02-4.568474410E+01+
*       6.7283746012E+00               0
GRID*               2496               01.2722523828E+03-2.528084236E+01+
*       3.9248969999E+01               0
GRID*               2497               01.4888059717E+03-4.233764937E+01+
*       1.9219468466E+01               0
GRID*               2498               01.4888059762E+03-3.443448275E+01+
*       3.0093848551E+01               0
GRID*               2499               01.4751696132E+03-3.443440239E+01+
*       3.0093910197E+01               0
GRID*               2500               01.2722523745E+03-8.930705343E-15+
*       4.6750000000E+01               0
GRID*               2501               01.4210312076E+03-1.262920161E-14+
*       4.6750000000E+01               0
GRID*               2502               01.4075983718E+03-1.249966317E+01+
*       4.3400829231E+01               0
GRID*               2503               01.2993215821E+032.5282781368E+01+
*       3.9247482444E+01               0
GRID*               2504               08.5257801809E+02-4.568464619E+01+
*       -6.718580950E+00               0
GRID*               2505               01.4751696077E+03-4.568474816E+01+
*       -6.718280426E+00               0
GRID*               2506               01.4751696081E+03-4.568468507E+01+
*       6.7285485981E+00               0
GRID*               2507               01.4617367719E+03-4.568474816E+01+
*       -6.718280426E+00               0
GRID*               2508               01.4617367722E+03-4.568468507E+01+
*       6.7285485976E+00               0
GRID*               2509               01.0962008149E+033.4430206906E+01+
*       -3.010180561E+01               0
GRID*               2510               01.4075983734E+034.2332791680E+01+
*       -1.922789487E+01               0
GRID*               2511               01.4075983734E+034.5684677951E+01+
*       -6.718487350E+00               0
GRID*               2512               08.3914517281E+02-3.443643099E+01+
*       3.0092353906E+01               0
GRID*               2513               03.3826322776E+02-4.233279880E+01+
*       -1.922787390E+01               0
GRID*               2514               01.4075983729E+034.5684755275E+01+
*       6.7283416703E+00               0
GRID*               2515               09.8792400997E+022.5284325203E+01+
*       -3.924661678E+01               0
GRID*               2516               09.7449117415E+022.5284325203E+01+
*       -3.924661678E+01               0
GRID*               2517               09.7449117415E+023.4431095917E+01+
*       -3.010112359E+01               0
GRID*               2518               08.1207598416E+02-4.568467124E+01+
*       6.7285893309E+00               0
GRID*               2519               03.1119402863E+02-4.233770499E+01+
*       1.9219304556E+01               0
GRID*               2520               09.4742199137E+02-3.443158384E+01+
*       -3.010074926E+01               0
GRID*               2521               09.3378562725E+02-3.443152873E+01+
*       -3.010079154E+01               0
GRID*               2522               09.4742199137E+02-2.528481313E+01+
*       -3.924624246E+01               0
GRID*               2523               09.3378562725E+02-2.528475802E+01+
*       -3.924628474E+01               0
GRID*               2524               09.7449118002E+024.2337632126E+01+
*       1.9219519284E+01               0
GRID*               2525               07.7137041949E+02-4.233275633E+01+
*       -1.922799907E+01               0
GRID*               2526               08.6621438181E+024.5684649038E+01+
*       6.7286547705E+00               0
GRID*               2527               08.5257801954E+024.5684663845E+01+
*       -6.718528916E+00               0
GRID*               2528               02.7069199073E+02-2.528222370E+01+
*       3.9247910271E+01               0
GRID*               2529               01.6512211669E+031.2499663170E+01+
*       4.3400829231E+01               0
GRID*               2530               01.7324287657E+03-4.568471192E+01+
*       -6.718387221E+00               0
GRID*               2531               07.1723202165E+02-4.233767738E+01+
*       1.9219385905E+01               0
GRID*               2532               07.1723201073E+02-3.443647857E+01+
*       3.0092317407E+01               0
GRID*               2533               07.0379918583E+02-4.233767738E+01+
*       1.9219385904E+01               0
GRID*               2534               07.0379917491E+02-3.443647857E+01+
*       3.0092317407E+01               0
GRID*               2535               07.3086838670E+02-3.443047898E+01+
*       -3.010159689E+01               0
GRID*               2536               01.7865671642E+03-3.443031682E+01+
*       -3.010172683E+01               0
GRID*               2537               01.4751696065E+032.7276638664E-15+
*       -4.675000000E+01               0
GRID*               2538               09.7449119117E+023.4436468793E+01+
*       3.0092324906E+01               0
GRID*               2539               09.7449119117E+022.5283171587E+01+
*       3.9247183078E+01               0
GRID*               2540               01.4751696065E+031.2501342511E+01+
*       -4.339985961E+01               0
GRID*               2541               01.4888059701E+031.2501342511E+01+
*       -4.339985961E+01               0
GRID*               2542               04.8724559023E+021.2501342512E+01+
*       -4.339985961E+01               0
GRID*               2543               01.0015603909E+033.4436490963E+01+
*       3.0092307898E+01               0
GRID*               2544               09.8792402699E+023.4436468793E+01+
*       3.0092324906E+01               0
GRID*               2545               01.0015603909E+032.5283193757E+01+
*       3.9247166070E+01               0
GRID*               2546               04.8724559023E+02-1.250134251E+01+
*       -4.339985961E+01               0
GRID*               2547               01.6027680150E+033.8117261799E+01+
*       -2.077502777E+01               0
GRID*               2548               01.3636363417E+012.5283542687E+01+
*       -3.924721711E+01               0
GRID*               2549               02.7069199237E+013.4430313409E+01+
*       -3.010172390E+01               0
GRID*               2550               02.8412482500E+022.5281269631E+01+
*       3.9248642210E+01               0
GRID*               2551               02.7069198918E+022.5281269631E+01+
*       3.9248642210E+01               0
GRID*               2552               07.9843962500E+02-2.528415223E+01+
*       -3.924674948E+01               0
GRID*               2553               07.8500678918E+02-2.528415223E+01+
*       -3.924674948E+01               0
GRID*               2554               08.1207598372E+022.9014739753E-15+
*       -4.675000000E+01               0
GRID*               2555               08.1207598372E+02-1.250134251E+01+
*       -4.339985961E+01               0
GRID*               2556               01.6241519563E+02-4.568470289E+01+
*       -6.718413847E+00               0
GRID*               2557               01.4877883219E+02-4.568471963E+01+
*       6.7284467079E+00               0
GRID*               2558               01.4898235981E+02-4.568470289E+01+
*       -6.718413848E+00               0
GRID*               2559               01.3534599637E+02-4.568471963E+01+
*       6.7284467078E+00               0
GRID*               2560               07.9843962008E+021.2501342512E+01+
*       -4.339985961E+01               0
GRID*               2561               04.0502035058E+013.4430313409E+01+
*       -3.010172390E+01               0
GRID*               2562               01.2170963365E+02-9.970678503E-15+
*       4.6750000000E+01               0
GRID*               2563               01.3534599637E+02-4.233768052E+01+
*       1.9219376662E+01               0
GRID*               2564               01.3534599578E+02-3.443525905E+01+
*       3.0093252985E+01               0
GRID*               2565               01.2170963252E+02-3.443522345E+01+
*       3.0093280297E+01               0
GRID*               2566               01.2191316055E+02-4.233768052E+01+
*       1.9219376662E+01               0
GRID*               2567               02.7069199457E+013.7345112800E-15+
*       4.6750000000E+01               0
GRID*               2568               01.3432835821E+01-1.249966317E+01+
*       4.3400829231E+01               0
GRID*               2569               02.7069199457E+01-1.249966317E+01+
*       4.3400829231E+01               0
GRID*               2570               01.4898235990E+02-4.233768409E+01+
*       1.9219366135E+01               0
GRID*               2571               01.6105156050E+034.2332814202E+01+
*       -1.922782850E+01               0
GRID*               2572               01.6041927085E+033.9080674033E+01+
*       -2.655593213E+01               0
GRID*               2573               02.2998642865E+023.4430554623E+01+
*       -3.010153885E+01               0
GRID*               2574               01.5776819763E+034.2617604433E+01+
*       -2.214164635E+01               0
GRID*               2575               01.5642491405E+034.5969490706E+01+
*       -9.632238822E+00               0
GRID*               2576               01.5642491405E+034.2617604433E+01+
*       -2.214164635E+01               0
GRID*               2577               02.5725915336E+023.4434566834E+01+
*       3.0093784043E+01               0
GRID*               2578               02.4362279372E+024.2337655765E+01+
*       1.9219449615E+01               0
GRID*               2579               01.6782903672E+03-4.233766770E+01+
*       1.9219414441E+01               0
GRID*               2580               02.5705562954E+024.2337655765E+01+
*       1.9219449615E+01               0
GRID*               2581               01.0286295794E+03-1.249966317E+01+
*       4.3400829231E+01               0
GRID*               2582               01.5760537578E+033.3751268403E+01+
*       -2.723496192E+01               0
GRID*               2583               03.6533242330E+02-3.443572322E+01+
*       3.0092896890E+01               0
GRID*               2584               01.5970827703E+03-3.443050165E+01+
*       -3.010157949E+01               0
GRID*               2585               01.5834464072E+03-3.443055462E+01+
*       -3.010153885E+01               0
GRID*               2586               03.5189959175E+02-4.233771281E+01+
*       1.9219281509E+01               0
GRID*               2587               03.3826322809E+02-4.233770904E+01+
*       1.9219292599E+01               0
GRID*               2588               01.5760537551E+034.1654189519E+01+
*       -1.636074989E+01               0
GRID*               2589               01.7187924016E+03-1.249966317E+01+
*       4.3400829231E+01               0
GRID*               2590               01.7053595658E+03-1.249966317E+01+
*       4.3400829231E+01               0
GRID*               2591               05.4138398761E+024.2337617872E+01+
*       1.9219561292E+01               0
GRID*               2592               01.6917232033E+033.4435223451E+01+
*       3.0093280297E+01               0
GRID*               2593               01.6917232033E+032.5281926242E+01+
*       3.9248138474E+01               0
GRID*               2594               01.7458616017E+03-3.443512238E+01+
*       3.0093357840E+01               0
GRID*               2595               01.6105156062E+032.5282051587E+01+
*       3.9248042313E+01               0
GRID*               2596               01.6171514119E+033.1663967092E+01+
*       3.0461918296E+01               0
GRID*               2597               01.6185761042E+034.0534539053E+01+
*       2.5360676268E+01               0
GRID*               2598               01.6185761042E+033.1381241844E+01+
*       3.4515534445E+01               0
GRID*               2599               06.9016282093E+024.5684644834E+01+
*       6.7286671628E+00               0
GRID*               2600               06.4966078665E+024.5684738431E+01+
*       -6.718309096E+00               0
GRID*               2601               06.3602442290E+024.5684746346E+01+
*       -6.718285769E+00               0
GRID*               2602               01.5722999547E+034.3430215946E+01+
*       -1.162050815E+01               0
GRID*               2603               01.6295309622E+034.7728643894E+01+
*       1.3366325813E+00               0
GRID*               2604               01.6160981264E+034.7728643894E+01+
*       1.3366325814E+00               0
GRID*               2605               07.4430121011E+02-2.528319726E+01+
*       3.9247163380E+01               0
GRID*               2606               07.3086837429E+02-1.278353409E+01+
*       4.2596334149E+01               0
GRID*               2607               07.3086837429E+02-2.528319726E+01+
*       3.9247163380E+01               0
GRID*               2608               01.7379189251E+03-3.945498499E+01+
*       2.6635405294E+01               0
GRID*               2609               07.1723202171E+02-1.249966317E+01+
*       4.3400829231E+01               0
GRID*               2610               07.4430122124E+02-4.233766365E+01+
*       1.9219426372E+01               0
GRID*               2611               08.6621438328E+024.5684657759E+01+
*       -6.718546851E+00               0
GRID*               2612               08.5257801954E+024.2332777581E+01+
*       -1.922793644E+01               0
GRID*               2613               09.2035278155E+021.2499663170E+01+
*       4.3400829231E+01               0
GRID*               2614               08.9328358209E+021.2499663170E+01+
*       4.3400829231E+01               0
GRID*               2615               09.7449118145E+02-4.568464422E+01+
*       6.7286689661E+00               0
GRID*               2616               01.6782903671E+034.2337677385E+01+
*       1.9219385904E+01               0
GRID*               2617               01.5022388120E+03-2.528118554E+01+
*       3.9248706719E+01               0
GRID*               2618               01.4751696081E+03-4.233764595E+01+
*       1.9219478544E+01               0
GRID*               2619               01.0286295761E+033.4430718439E+01+
*       -3.010141318E+01               0
GRID*               2620               01.5662597695E+034.7460724223E+01+
*       -1.978187124E+00               0
GRID*               2621               01.5624173949E+033.3751183322E+01+
*       -2.723502720E+01               0
GRID*               2622               01.5624173915E+034.1654186607E+01+
*       -1.636075847E+01               0
GRID*               2623               01.1503392174E+03-3.443461193E+01+
*       3.0093749446E+01               0
GRID*               2624               01.1503392144E+03-4.233760745E+01+
*       1.9219591997E+01               0
GRID*               2625               01.1369063786E+03-4.233760745E+01+
*       1.9219591997E+01               0
GRID*               2626               01.1369063816E+03-3.443461193E+01+
*       3.0093749446E+01               0
GRID*               2627               01.4888059762E+03-2.528118554E+01+
*       3.9248706719E+01               0
GRID*               2628               01.1232700163E+03-3.443481138E+01+
*       3.0093596436E+01               0
GRID*               2629               01.5834464055E+034.5684731263E+01+
*       6.7284124364E+00               0
GRID*               2630               01.5918560806E+034.3703586210E+01+
*       4.6920151324E+00               0
GRID*               2631               01.5918560808E+034.3703552743E+01+
*       -8.754826172E+00               0
GRID*               2632               01.5934843020E+034.8018853930E+01+
*       -2.026315104E+00               0
GRID*               2633               01.7458616017E+03-2.528182518E+01+
*       3.9248216007E+01               0
GRID*               2634               01.2451831766E+034.2332770720E+01+
*       -1.922795665E+01               0
GRID*               2635               01.2451831831E+033.4429327782E+01+
*       -3.010248006E+01               0
GRID*               2636               01.2315468189E+033.4429389598E+01+
*       -3.010243263E+01               0
GRID*               2637               01.5158751708E+03-4.568473986E+01+
*       -6.718304879E+00               0
GRID*               2638               01.5022388072E+03-4.568474410E+01+
*       -6.718292382E+00               0
GRID*               2639               01.5158751708E+03-4.233285360E+01+
*       -1.922771240E+01               0
GRID*               2640               01.4888059717E+03-4.568468849E+01+
*       6.7285385196E+00               0
GRID*               2641               01.2722523753E+034.2337722561E+01+
*       1.9219252763E+01               0
GRID*               2642               01.4210312136E+03-2.528417647E+01+
*       -3.924673089E+01               0
GRID*               2643               01.4210312076E+03-1.250134251E+01+
*       -4.339985961E+01               0
GRID*               2644               01.4751696132E+03-2.528110519E+01+
*       3.9248768364E+01               0
GRID*               2645               01.2722523832E+033.4436145833E+01+
*       3.0092572672E+01               0
GRID*               2646               01.4346675784E+032.5282710137E+01+
*       -3.924785582E+01               0
GRID*               2647               01.3939620081E+03-1.016595914E-14+
*       4.6750000000E+01               0
GRID*               2648               01.4210312092E+03-4.568467795E+01+
*       6.7285695687E+00               0
GRID*               2649               01.6105156050E+034.5684700475E+01+
*       -6.718420970E+00               0
GRID*               2650               01.6054924442E+034.3703582062E+01+
*       4.6920273550E+00               0
GRID*               2651               01.6069171378E+034.8018853930E+01+
*       -2.026315104E+00               0
GRID*               2652               01.6054924443E+034.3703555423E+01+
*       -8.754818274E+00               0
GRID*               2653               01.6146734329E+034.3413345386E+01+
*       -5.391870589E+00               0
GRID*               2654               01.3939620097E+034.2332788054E+01+
*       -1.922790556E+01               0
GRID*               2655               01.6069171378E+034.4666967656E+01+
*       -1.453572263E+01               0
GRID*               2656               01.5293080069E+034.2332805497E+01+
*       -1.922785415E+01               0
GRID*               2657               01.6375848044E+034.2332816619E+01+
*       -1.922782137E+01               0
GRID*               2658               01.6375848044E+034.5684702892E+01+
*       -6.718413847E+00               0
GRID*               2659               01.7187924016E+030.0000000000E+00+
*       4.6750000000E+01               0
GRID*               2660               01.7324287653E+03-1.249966317E+01+
*       4.3400829231E+01               0
GRID*               2661               01.7085784435E+036.3464751514E+00+
*       4.6133707111E+01               0
GRID*               2662               01.7458616011E+03-1.249966317E+01+
*       4.3400829231E+01               0
GRID*               2663               01.2181139756E+032.8214025163E-15+
*       -4.675000000E+01               0
GRID*               2664               01.3398236092E+03-1.250134251E+01+
*       -4.339985961E+01               0
GRID*               2665               04.0603798529E+021.2782905775E+01+
*       -4.259681618E+01               0
GRID*               2666               04.1947082768E+021.2501342512E+01+
*       -4.339985961E+01               0
GRID*               2667               01.1232700149E+03-4.233760572E+01+
*       1.9219597113E+01               0
GRID*               2668               01.1098371791E+03-4.568464483E+01+
*       6.7286671628E+00               0
GRID*               2669               04.6017638312E+023.4431161876E+01+
*       -3.010107298E+01               0
GRID*               2670               09.0671641791E+022.8397639090E-15+
*       -4.675000000E+01               0
GRID*               2671               08.9328358209E+022.8854596835E-15+
*       -4.675000000E+01               0
GRID*               2672               08.9328358209E+021.2501342511E+01+
*       -4.339985961E+01               0
GRID*               2673               01.0827679699E+02-4.568470682E+01+
*       -6.718402277E+00               0
GRID*               2674               09.4640433552E+01-4.568471390E+01+
*       6.7284636208E+00               0
GRID*               2675               09.4843961174E+01-4.568470682E+01+
*       -6.718402277E+00               0
GRID*               2676               01.2315468129E+034.2332767695E+01+
*       -1.922796557E+01               0
GRID*               2677               01.2181139851E+03-2.528465228E+01+
*       -3.924636586E+01               0
GRID*               2678               09.8792400997E+023.4431095917E+01+
*       -3.010112359E+01               0
GRID*               2679               01.1639755781E+03-4.568464870E+01+
*       6.7286557561E+00               0
GRID*               2680               01.1503392144E+03-4.568464657E+01+
*       6.7286620477E+00               0
GRID*               2681               01.6241519402E+02-3.443005059E+01+
*       -3.010192554E+01               0
GRID*               2682               01.6241519402E+02-2.528327989E+01+
*       -3.924741872E+01               0
GRID*               2683               01.1639755771E+03-4.568474635E+01+
*       -6.718285769E+00               0
GRID*               2684               01.1639755771E+03-4.233286008E+01+
*       -1.922769329E+01               0
GRID*               2685               01.1098371777E+031.2499663170E+01+
*       4.3400829231E+01               0
GRID*               2686               01.0962008141E+031.2499663170E+01+
*       4.3400829231E+01               0
GRID*               2687               09.6085480933E+022.5284469688E+01+
*       -3.924650594E+01               0
GRID*               2688               01.7605155928E+024.2332840857E+01+
*       -1.922774996E+01               0
GRID*               2689               01.0827679783E+03-3.238600190E-14+
*       4.6750000000E+01               0
GRID*               2690               01.0691316147E+038.7043648395E-15+
*       4.6750000000E+01               0
GRID*               2691               01.0827679783E+03-1.249966317E+01+
*       4.3400829231E+01               0
GRID*               2692               01.0691316147E+03-1.249966317E+01+
*       4.3400829231E+01               0
GRID*               2693               09.6085481682E+022.8290877144E-15+
*       -4.675000000E+01               0
GRID*               2694               09.6085481682E+02-1.250134251E+01+
*       -4.339985961E+01               0
GRID*               2695               01.7584803155E+024.5684723205E+01+
*       -6.718353961E+00               0
GRID*               2696               01.0420624119E+03-2.528226838E+01+
*       3.9247875993E+01               0
GRID*               2697               01.0420624152E+03-1.249966317E+01+
*       4.3400829231E+01               0
GRID*               2698               06.7774761765E+012.5283576928E+01+
*       -3.924719084E+01               0
GRID*               2699               01.0691316133E+03-3.443532613E+01+
*       3.0093201531E+01               0
GRID*               2700               09.6085481628E+02-4.233277758E+01+
*       -1.922793644E+01               0
GRID*               2701               01.0149932267E+032.5283193757E+01+
*       3.9247166070E+01               0
GRID*               2702               08.9328358283E+02-4.233761375E+01+
*       1.9219573456E+01               0
GRID*               2703               08.7964721910E+02-4.233761864E+01+
*       1.9219559020E+01               0
GRID*               2704               08.9328358283E+02-4.568465286E+01+
*       6.7286435036E+00               0
GRID*               2705               08.7964721910E+02-4.568465776E+01+
*       6.7286290679E+00               0
GRID*               2706               02.8412482500E+021.2781606461E+01+
*       4.2597812979E+01               0
GRID*               2707               01.0420624262E+033.4436499045E+01+
*       3.0092301697E+01               0
GRID*               2708               01.0286295904E+032.5283201839E+01+
*       3.9247159870E+01               0
GRID*               2709               09.8792401584E+024.2337632127E+01+
*       1.9219519283E+01               0
GRID*               2710               09.8792401584E+024.5684671242E+01+
*       6.7285893309E+00               0
GRID*               2711               02.4362279372E+024.5684694882E+01+
*       6.7285196701E+00               0
GRID*               2712               09.8792401727E+024.2332757956E+01+
*       -1.922799427E+01               0
GRID*               2713               09.8792401628E+022.8237496172E-15+
*       -4.675000000E+01               0
GRID*               2714               01.5764086976E+036.8736906416E+00+
*       4.3405193885E+01               0
GRID*               2715               01.5780369201E+031.9373353811E+01+
*       4.3306023116E+01               0
GRID*               2716               01.5764087004E+031.9656132032E+01+
*       3.9252366328E+01               0
GRID*               2717               01.5646040843E+031.9373353811E+01+
*       4.3306023116E+01               0
GRID*               2718               01.0286295904E+033.4436499045E+01+
*       3.0092301698E+01               0
GRID*               2719               01.0149932267E+033.4436490963E+01+
*       3.0092307898E+01               0
GRID*               2720               08.6621439110E+02-3.443135911E+01+
*       -3.010092167E+01               0
GRID*               2721               08.6621439110E+02-2.528458840E+01+
*       -3.924641486E+01               0
GRID*               2722               08.5257802649E+02-2.528446969E+01+
*       -3.924650594E+01               0
GRID*               2723               09.7449118046E+021.2501342511E+01+
*       -4.339985961E+01               0
GRID*               2724               03.3846674993E+02-3.442948085E+01+
*       -3.010236263E+01               0
GRID*               2725               08.2550881954E+022.8557782008E-15+
*       -4.675000000E+01               0
GRID*               2726               09.3378560890E+022.5284588400E+01+
*       -3.924641486E+01               0
GRID*               2727               09.3378561737E+021.2501342511E+01+
*       -4.339985961E+01               0
GRID*               2728               09.2035278155E+021.2501342511E+01+
*       -4.339985961E+01               0
GRID*               2729               09.2035277308E+022.5284588400E+01+
*       -3.924641486E+01               0
GRID*               2730               05.4138398432E+012.5283555778E+01+
*       -3.924720706E+01               0
GRID*               2731               05.4138398915E+011.2501342512E+01+
*       -4.339985961E+01               0
GRID*               2732               09.2035279143E+02-2.528475802E+01+
*       -3.924628474E+01               0
GRID*               2733               09.0671641717E+02-4.568465286E+01+
*       -6.718561287E+00               0
GRID*               2734               09.2035278155E+02-1.250134251E+01+
*       -4.339985961E+01               0
GRID*               2735               09.0671642717E+02-2.528468378E+01+
*       -3.924634169E+01               0
GRID*               2736               06.6309362280E+02-2.219878715E-14+
*       4.6750000000E+01               0
GRID*               2737               06.4966078697E+021.2499663170E+01+
*       4.3400829231E+01               0
GRID*               2738               06.9016281143E+02-2.528315538E+01+
*       3.9247195515E+01               0
GRID*               2739               06.7672997561E+02-1.278349221E+01+
*       4.2596366284E+01               0
GRID*               2740               06.7672997561E+02-2.528315538E+01+
*       3.9247195515E+01               0
GRID*               2741               09.2035279143E+02-3.443152873E+01+
*       -3.010079154E+01               0
GRID*               2742               07.0379917491E+02-2.528318136E+01+
*       3.9247175580E+01               0
GRID*               2743               06.3602442334E+02-4.770805767E-15+
*       4.6750000000E+01               0
GRID*               2744               07.4430122252E+02-3.443047898E+01+
*       -3.010159689E+01               0
GRID*               2745               08.5257800863E+02-3.443643099E+01+
*       3.0092353907E+01               0
GRID*               2746               08.3914518372E+024.2332777581E+01+
*       -1.922793644E+01               0
GRID*               2747               07.9843962041E+024.2332793825E+01+
*       -1.922788856E+01               0
GRID*               2748               08.1207597301E+023.4431621645E+01+
*       -3.010072026E+01               0
GRID*               2749               08.1207597301E+022.5284850929E+01+
*       -3.924621346E+01               0
GRID*               2750               07.9843961902E+024.2337603933E+01+
*       1.9219602371E+01               0
GRID*               2751               09.0671640865E+023.4431454491E+01+
*       -3.010084850E+01               0
GRID*               2752               08.9328357283E+023.4431454491E+01+
*       -3.010084850E+01               0
GRID*               2753               04.0705562611E+012.5283555778E+01+
*       -3.924720706E+01               0
GRID*               2754               06.7571234253E+013.4430326499E+01+
*       -3.010171386E+01               0
GRID*               2755               01.1098371791E+03-4.233760572E+01+
*       1.9219597113E+01               0
GRID*               2756               01.2044776186E+032.5282710181E+01+
*       -3.924785578E+01               0
GRID*               2757               01.1910447828E+033.4429480893E+01+
*       -3.010236259E+01               0
GRID*               2758               01.1774084182E+033.4429604840E+01+
*       -3.010226750E+01               0
GRID*               2759               01.2315468121E+034.2337717841E+01+
*       1.9219266674E+01               0
GRID*               2760               09.0671641791E+021.2501342511E+01+
*       -4.339985961E+01               0
GRID*               2761               09.0671640865E+022.5284683776E+01+
*       -3.924634169E+01               0
GRID*               2762               09.0671641791E+02-1.250134251E+01+
*       -4.339985961E+01               0
GRID*               2763               07.1723202165E+02-4.568471650E+01+
*       6.7284559515E+00               0
GRID*               2764               07.0379918583E+02-4.568471650E+01+
*       6.7284559511E+00               0
GRID*               2765               07.0379917491E+02-1.278351819E+01+
*       4.2596346349E+01               0
GRID*               2766               07.0379918589E+026.0522010438E-15+
*       4.6750000000E+01               0
GRID*               2767               06.9016282225E+02-2.460753414E-14+
*       4.6750000000E+01               0
GRID*               2768               01.3263907744E+03-4.568476169E+01+
*       -6.718240537E+00               0
GRID*               2769               01.3263907744E+03-4.233287543E+01+
*       -1.922764806E+01               0
GRID*               2770               06.7571234276E+014.5684711919E+01+
*       -6.718387221E+00               0
GRID*               2771               01.5646040843E+036.8736906416E+00+
*       4.6655193885E+01               0
GRID*               2772               06.6309361842E+021.2781651555E+01+
*       4.2597778384E+01               0
GRID*               2773               06.6309361842E+022.5281314724E+01+
*       3.9248607615E+01               0
GRID*               2774               06.4966078260E+022.5281314724E+01+
*       3.9248607615E+01               0
GRID*               2775               01.4888059714E+03-4.568474410E+01+
*       -6.718292383E+00               0
GRID*               2776               01.4751696077E+03-4.233286190E+01+
*       -1.922768795E+01               0
GRID*               2777               01.6375848033E+031.2499663170E+01+
*       4.3400829231E+01               0
GRID*               2778               01.7117579673E+03-3.847295516E+01+
*       2.0358765738E+01               0
GRID*               2779               06.7672998511E+024.2337605717E+01+
*       1.9219597113E+01               0
GRID*               2780               06.4966078260E+023.4434611929E+01+
*       3.0093749446E+01               0
GRID*               2781               06.3602441766E+023.4434451991E+01+
*       3.0093872146E+01               0
GRID*               2782               06.3602441766E+022.5281154787E+01+
*       3.9248730315E+01               0
GRID*               2783               01.6981216046E+03-3.057031724E+01+
*       3.1232783343E+01               0
GRID*               2784               01.6917232022E+03-1.249966317E+01+
*       4.3400829231E+01               0
GRID*               2785               01.6917232022E+031.6406539404E-14+
*       4.6750000000E+01               0
GRID*               2786               01.6782903664E+03-1.249966317E+01+
*       4.3400829231E+01               0
GRID*               2787               06.2259158610E+024.5684648705E+01+
*       6.7286557566E+00               0
GRID*               2788               06.0895522333E+024.5684752465E+01+
*       -6.718267735E+00               0
GRID*               2789               06.0895522242E+024.5684651186E+01+
*       6.7286484448E+00               0
GRID*               2790               01.5686419542E+031.4173164326E+01+
*       4.2785663205E+01               0
GRID*               2791               08.1207598372E+021.2501342512E+01+
*       -4.339985961E+01               0
GRID*               2792               09.6085482719E+02-2.528481313E+01+
*       -3.924624246E+01               0
GRID*               2793               09.6085481682E+021.2501342511E+01+
*       -4.339985961E+01               0
GRID*               2794               05.9552238136E+02-3.442948089E+01+
*       -3.010236259E+01               0
GRID*               2795               05.8188601695E+02-3.442938960E+01+
*       -3.010243263E+01               0
GRID*               2796               06.2259158708E+024.2332860085E+01+
*       -1.922769329E+01               0
GRID*               2797               06.2259157721E+023.4431527808E+01+
*       -3.010079225E+01               0
GRID*               2798               06.0895521392E+023.4431478302E+01+
*       -3.010083023E+01               0
GRID*               2799               04.8724559023E+022.9655311425E-15+
*       -4.675000000E+01               0
GRID*               2800               04.7360922659E+022.9251734652E-15+
*       -4.675000000E+01               0
GRID*               2801               04.7360922659E+021.2501342512E+01+
*       -4.339985961E+01               0
GRID*               2802               05.9552237810E+022.5284707584E+01+
*       -3.924632343E+01               0
GRID*               2803               05.8188601486E+022.5284652278E+01+
*       -3.924636586E+01               0
GRID*               2804               05.9552237810E+023.4431478302E+01+
*       -3.010083023E+01               0
GRID*               2805               05.8188601486E+023.4431422996E+01+
*       -3.010087266E+01               0
GRID*               2806               03.1119402834E+02-4.233280222E+01+
*       -1.922786383E+01               0
GRID*               2807               03.2483039349E+021.2501342512E+01+
*       -4.339985961E+01               0
GRID*               2808               05.1431478812E+02-4.568466022E+01+
*       -6.718539610E+00               0
GRID*               2809               02.7069199457E+02-1.250134251E+01+
*       -4.339985961E+01               0
GRID*               2810               04.8724558931E+02-4.568476220E+01+
*       6.7283212569E+00               0
GRID*               2811               06.9016282225E+02-1.249966317E+01+
*       4.3400829231E+01               0
GRID*               2812               06.7672998643E+02-6.078720196E-15+
*       4.6750000000E+01               0
GRID*               2813               05.5481681583E+023.4431362827E+01+
*       -3.010091882E+01               0
GRID*               2814               04.1947081962E+021.2781245915E+01+
*       4.2598089580E+01               0
GRID*               2815               01.4481004071E+03-1.250134251E+01+
*       -4.339985961E+01               0
GRID*               2816               05.0067841788E+02-2.528278137E+01+
*       3.9247482444E+01               0
GRID*               2817               04.3310719132E+02-9.310363137E-15+
*       4.6750000000E+01               0
GRID*               2818               01.3398236177E+032.5282518837E+01+
*       -3.924800258E+01               0
GRID*               2819               01.6171514106E+033.9566306299E+01+
*       1.9588088773E+01               0
GRID*               2820               01.6320089401E+034.0534539053E+01+
*       2.5360676268E+01               0
GRID*               2821               01.6241519694E+032.5282003818E+01+
*       3.9248078960E+01               0
GRID*               2822               01.6375848052E+033.4435301027E+01+
*       3.0093220783E+01               0
GRID*               2823               01.6307877751E+033.1663919323E+01+
*       3.0461954943E+01               0
GRID*               2824               08.1207598372E+011.2499663169E+01+
*       4.3400829231E+01               0
GRID*               2825               02.8432835670E+02-4.568468849E+01+
*       -6.718456301E+00               0
GRID*               2826               09.4843962008E+011.2499663169E+01+
*       4.3400829231E+01               0
GRID*               2827               01.7605155916E+02-4.568470048E+01+
*       -6.718420971E+00               0
GRID*               2828               01.6241519572E+02-4.568472321E+01+
*       6.7284361810E+00               0
GRID*               2829               02.1655359450E+024.2332845004E+01+
*       -1.922773774E+01               0
GRID*               2830               02.1655359283E+023.4430554623E+01+
*       -3.010153885E+01               0
GRID*               2831               02.0291722966E+023.4430501650E+01+
*       -3.010157949E+01               0
GRID*               2832               02.2998642865E+022.5283783902E+01+
*       -3.924703205E+01               0
GRID*               2833               02.3018995810E+024.2332849287E+01+
*       -1.922772512E+01               0
GRID*               2834               05.0067842447E+02-4.568466361E+01+
*       -6.718529623E+00               0
GRID*               2835               05.0067842447E+02-4.233277734E+01+
*       -1.922793715E+01               0
GRID*               2836               04.4654002002E+02-2.528264075E+01+
*       3.9247590320E+01               0
GRID*               2837               01.7630619546E+03-4.418760347E+01+
*       4.9245553378E+00               0
GRID*               2838               02.9776119252E+02-4.568468849E+01+
*       -6.718456301E+00               0
GRID*               2839               02.9776118799E+022.5281185544E+01+
*       3.9248706719E+01               0
GRID*               2840               03.1139755102E+023.4434402394E+01+
*       3.0093910197E+01               0
GRID*               2841               09.4640434193E+01-7.231775562E-15+
*       4.6750000000E+01               0
GRID*               2842               01.0827679783E+02-1.959839555E-14+
*       4.6750000000E+01               0
GRID*               2843               05.6845318113E+02-3.442938960E+01+
*       -3.010243263E+01               0
GRID*               2844               05.6845318710E+02-4.233276769E+01+
*       -1.922796557E+01               0
GRID*               2845               06.0895521392E+022.5284707584E+01+
*       -3.924632343E+01               0
GRID*               2846               06.7672998367E+023.4434811376E+01+
*       3.0093596436E+01               0
GRID*               2847               06.9016281949E+023.4434811376E+01+
*       3.0093596435E+01               0
GRID*               2848               02.4362279392E+024.5684735545E+01+
*       -6.718317595E+00               0
GRID*               2849               02.2998643032E+024.5684731262E+01+
*       -6.718330217E+00               0
GRID*               2850               07.1723201073E+02-2.528318136E+01+
*       3.9247175580E+01               0
GRID*               2851               06.9016281949E+021.2781851001E+01+
*       4.2597625374E+01               0
GRID*               2852               07.9843962500E+02-3.443092294E+01+
*       -3.010125629E+01               0
GRID*               2853               07.8500678918E+02-3.443092294E+01+
*       -3.010125629E+01               0
GRID*               2854               07.8500678320E+02-4.233275678E+01+
*       -1.922799773E+01               0
GRID*               2855               01.3534599630E+02-4.233281874E+01+
*       -1.922781511E+01               0
GRID*               2856               01.2170963282E+02-4.233282054E+01+
*       -1.922780980E+01               0
GRID*               2857               08.6621437275E+022.5284758018E+01+
*       -3.924628474E+01               0
GRID*               2858               08.3914518372E+024.5684663845E+01+
*       -6.718528915E+00               0
GRID*               2859               01.0827679704E+02-4.568471650E+01+
*       6.7284559494E+00               0
GRID*               2860               09.4843961216E+01-4.233767739E+01+
*       1.9219385904E+01               0
GRID*               2861               08.1207597731E+01-4.233767478E+01+
*       1.9219393575E+01               0
GRID*               2862               08.1207597586E+01-3.443519479E+01+
*       3.0093302282E+01               0
GRID*               2863               08.3914518227E+024.5684646189E+01+
*       6.7286631669E+00               0
GRID*               2864               05.4138398915E+01-1.395051619E-14+
*       4.6750000000E+01               0
GRID*               2865               04.0502035278E+01-3.011009311E-14+
*       4.6750000000E+01               0
GRID*               2866               04.0502035059E+01-3.443516055E+01+
*       3.0093328550E+01               0
GRID*               2867               04.0705562611E+01-2.528187644E+01+
*       3.9248176685E+01               0
GRID*               2868               08.1207598372E+01-1.249966317E+01+
*       4.3400829231E+01               0
GRID*               2869               06.7571234735E+01-1.249966317E+01+
*       4.3400829231E+01               0
GRID*               2870               01.3636363636E+011.2499663169E+01+
*       4.3400829232E+01               0
GRID*               2871               01.3805291739E+034.2332788054E+01+
*       -1.922790556E+01               0
GRID*               2872               01.0556987788E+034.5684702768E+01+
*       6.7284964191E+00               0
GRID*               2873               01.4617367707E+031.2501342511E+01+
*       -4.339985961E+01               0
GRID*               2874               01.4617367773E+032.5282784532E+01+
*       -3.924779874E+01               0
GRID*               2875               01.0691316257E+032.5283197263E+01+
*       3.9247163380E+01               0
GRID*               2876               01.0827679783E+031.2499663170E+01+
*       4.3400829231E+01               0
GRID*               2877               01.2181139771E+034.2332767695E+01+
*       -1.922796557E+01               0
GRID*               2878               01.2181139831E+033.4429389598E+01+
*       -3.010243263E+01               0
GRID*               2879               01.2044776186E+033.4429480893E+01+
*       -3.010236259E+01               0
GRID*               2880               08.6621438263E+02-1.250134251E+01+
*       -4.339985961E+01               0
GRID*               2881               09.2035277308E+023.4431359115E+01+
*       -3.010092167E+01               0
GRID*               2882               01.2315468189E+032.5282618887E+01+
*       -3.924792582E+01               0
GRID*               2883               01.4617367756E+032.5282356288E+01+
*       3.9247808555E+01               0
GRID*               2884               01.0015603810E+034.5684643050E+01+
*       -6.718590204E+00               0
GRID*               2885               04.6017638312E+022.5284391156E+01+
*       -3.924656618E+01               0
GRID*               2886               01.5563772061E+03-4.568473554E+01+
*       -6.718317595E+00               0
GRID*               2887               01.5563772061E+03-4.233284929E+01+
*       -1.922772512E+01               0
GRID*               2888               05.4138398112E+02-3.442932778E+01+
*       -3.010248006E+01               0
GRID*               2889               05.4138398112E+02-2.528255707E+01+
*       -3.924797325E+01               0
GRID*               2890               04.8724558865E+02-4.568466361E+01+
*       -6.718529623E+00               0
GRID*               2891               04.8724558865E+02-4.233277734E+01+
*       -1.922793715E+01               0
GRID*               2892               04.0502035028E+012.5281850135E+01+
*       3.9248196862E+01               0
GRID*               2893               02.7069199206E+013.4435147338E+01+
*       3.0093338695E+01               0
GRID*               2894               02.7069199207E+012.5281850135E+01+
*       3.9248196862E+01               0
GRID*               2895               01.5700135714E+03-3.443055462E+01+
*       -3.010153885E+01               0
GRID*               2896               01.6981216039E+03-3.847295371E+01+
*       2.0358770013E+01               0
GRID*               2897               01.5700135714E+03-2.528378390E+01+
*       -3.924703205E+01               0
GRID*               2898               04.0502035028E+014.2337670884E+01+
*       1.9219405058E+01               0
GRID*               2899               04.3310719132E+021.2501342512E+01+
*       -4.339985961E+01               0
GRID*               2900               03.9240162822E+021.2501342512E+01+
*       -4.339985961E+01               0
GRID*               2901               01.6782903675E+033.4435223451E+01+
*       3.0093280297E+01               0
GRID*               2902               01.6646540036E+034.5684719634E+01+
*       6.7284467078E+00               0
GRID*               2903               04.6017639077E+022.9708692397E-15+
*       -4.675000000E+01               0
GRID*               2904               04.6017639077E+021.2501342512E+01+
*       -4.339985961E+01               0
GRID*               2905               03.6533242877E+022.9465258543E-15+
*       -4.675000000E+01               0
GRID*               2906               03.6533242157E+02-1.278136763E+01+
*       -4.259799621E+01               0
GRID*               2907               03.5189959294E+02-1.250134251E+01+
*       -4.339985961E+01               0
GRID*               2908               03.5189958575E+02-2.528271014E+01+
*       -3.924785582E+01               0
GRID*               2909               04.7360921810E+02-1.278117633E+01+
*       -4.259814297E+01               0
GRID*               2910               09.2035278155E+022.8801215862E-15+
*       -4.675000000E+01               0
GRID*               2911               09.4742198100E+022.8747834890E-15+
*       -4.675000000E+01               0
GRID*               2912               08.9328359135E+02-2.528468378E+01+
*       -3.924634169E+01               0
GRID*               2913               08.9328358209E+02-1.250134251E+01+
*       -4.339985961E+01               0
GRID*               2914               08.7964721845E+021.2501342511E+01+
*       -4.339985961E+01               0
GRID*               2915               08.7964720857E+022.5284758018E+01+
*       -3.924628474E+01               0
GRID*               2916               08.9328357283E+022.5284683776E+01+
*       -3.924634169E+01               0
GRID*               2917               01.4210312076E+031.2501342511E+01+
*       -4.339985961E+01               0
GRID*               2918               01.4346675712E+031.2501342511E+01+
*       -4.339985961E+01               0
GRID*               2919               01.3939620081E+031.2501342511E+01+
*       -4.339985961E+01               0
GRID*               2920               01.2722523745E+031.2499663170E+01+
*       4.3400829231E+01               0
GRID*               2921               01.3668928087E+031.2501342511E+01+
*       -4.339985961E+01               0
GRID*               2922               01.3432835821E+014.2337671114E+01+
*       1.9219404596E+01               0
GRID*               2923               01.3636363386E+013.4435147338E+01+
*       3.0093338695E+01               0
GRID*               2924               01.3432835821E+012.5281866752E+01+
*       3.9248189659E+01               0
GRID*               2925               03.1119402985E+021.2501342512E+01+
*       -4.339985961E+01               0
GRID*               2926               01.4075983718E+031.2501342511E+01+
*       -4.339985961E+01               0
GRID*               2927               03.1119402548E+022.5283967975E+01+
*       -3.924689084E+01               0
GRID*               2928               01.3534599729E+03-1.250134251E+01+
*       -4.339985961E+01               0
GRID*               2929               01.4481004071E+032.7330019637E-15+
*       -4.675000000E+01               0
GRID*               2930               01.6512211684E+032.5281961843E+01+
*       3.9248111162E+01               0
GRID*               2931               01.6375848052E+032.5282003818E+01+
*       3.9248078960E+01               0
GRID*               2932               01.2170963286E+02-4.568471650E+01+
*       6.7284559495E+00               0
GRID*               2933               01.0827679704E+02-4.233767739E+01+
*       1.9219385904E+01               0
GRID*               2934               01.7053595658E+031.2499663170E+01+
*       4.3400829231E+01               0
GRID*               2935               01.4898235820E+02-3.443005059E+01+
*       -3.010192554E+01               0
GRID*               2936               02.0312075868E+024.2332845004E+01+
*       -1.922773774E+01               0
GRID*               2937               01.7584803064E+023.4430453881E+01+
*       -3.010161613E+01               0
GRID*               2938               01.8948439384E+023.4430501650E+01+
*       -3.010157949E+01               0
GRID*               2939               02.3018995790E+024.5684694882E+01+
*       6.7285196705E+00               0
GRID*               2940               01.6375848043E+034.2337684093E+01+
*       1.9219366135E+01               0
GRID*               2941               01.6307877742E+033.9566302389E+01+
*       1.9588100295E+01               0
GRID*               2942               03.2483038857E+02-3.443565350E+01+
*       3.0092950379E+01               0
GRID*               2943               01.4346675712E+03-2.527239137E-14+
*       4.6750000000E+01               0
GRID*               2944               01.6512211678E+034.5684719634E+01+
*       6.7284467079E+00               0
GRID*               2945               01.6375848043E+034.5684723206E+01+
*       6.7284361810E+00               0
GRID*               2946               05.8188602377E+024.5684756955E+01+
*       -6.718254503E+00               0
GRID*               2947               06.0895521718E+023.4434328044E+01+
*       3.0093967235E+01               0
GRID*               2948               06.0895522242E+024.2337612069E+01+
*       1.9219578394E+01               0
GRID*               2949               01.5022388075E+03-4.568468849E+01+
*       6.7285385201E+00               0
GRID*               2950               01.4815173215E+03-1.957359250E+01+
*       -4.317023333E+01               0
GRID*               2951               01.6105156072E+033.4429972842E+01+
*       -3.010198519E+01               0
GRID*               2952               07.3086837429E+02-3.443649447E+01+
*       3.0092305207E+01               0
GRID*               2953               08.6621438263E+021.2501342512E+01+
*       -4.339985961E+01               0
GRID*               2954               08.3914518318E+02-1.250134251E+01+
*       -4.339985961E+01               0
GRID*               2955               08.3914519067E+02-2.528446969E+01+
*       -3.924650594E+01               0
GRID*               2956               01.5563772063E+034.5684694883E+01+
*       -6.718437451E+00               0
GRID*               2957               01.5022388075E+03-4.233764937E+01+
*       1.9219468466E+01               0
GRID*               2958               01.0420624152E+03-4.635164100E-14+
*       4.6750000000E+01               0
GRID*               2959               01.0556987788E+03-1.468317326E-15+
*       4.6750000000E+01               0
GRID*               2960               01.0556987788E+03-1.249966317E+01+
*       4.3400829231E+01               0
GRID*               2961               01.4481004071E+03-5.869691849E-14+
*       4.6750000000E+01               0
GRID*               2962               01.0962008154E+03-4.233760444E+01+
*       1.9219600889E+01               0
GRID*               2963               09.7449119117E+02-3.443162165E+01+
*       -3.010072026E+01               0
GRID*               2964               01.1503392236E+03-3.443157053E+01+
*       -3.010075947E+01               0
GRID*               2965               01.1503392133E+03-4.233285217E+01+
*       -1.922771662E+01               0
GRID*               2966               01.2451831766E+034.5684656989E+01+
*       -6.718549126E+00               0
GRID*               2967               01.2856852103E+031.2499663170E+01+
*       4.3400829231E+01               0
GRID*               2968               01.2856852190E+032.5282848625E+01+
*       3.9247430846E+01               0
GRID*               2969               01.2722523832E+032.5282848625E+01+
*       3.9247430846E+01               0
GRID*               2970               01.6646540042E+032.5281961843E+01+
*       3.9248111162E+01               0
GRID*               2971               01.4481004071E+031.2501342511E+01+
*       -4.339985961E+01               0
GRID*               2972               01.2993215739E+031.2499663170E+01+
*       4.3400829231E+01               0
GRID*               2973               04.4654002714E+021.2501342512E+01+
*       -4.339985961E+01               0
GRID*               2974               04.4674354646E+02-3.442928955E+01+
*       -3.010250939E+01               0
GRID*               2975               08.2550881954E+02-1.250134251E+01+
*       -4.339985961E+01               0
GRID*               2976               08.2550882585E+02-2.528432520E+01+
*       -3.924661678E+01               0
GRID*               2977               08.1207599003E+02-2.528432520E+01+
*       -3.924661678E+01               0
GRID*               2978               01.2191315996E+02-2.528196184E+01+
*       3.9248111162E+01               0
GRID*               2979               01.1232700163E+03-2.528151417E+01+
*       3.9248454605E+01               0
GRID*               2980               01.3534599630E+02-4.568470502E+01+
*       -6.718407587E+00               0
GRID*               2981               01.0420624150E+034.5684690539E+01+
*       6.7285324589E+00               0
GRID*               2982               02.5725915730E+024.5684691769E+01+
*       6.7285288458E+00               0
GRID*               2983               06.2259158184E+023.4434451991E+01+
*       3.0093872146E+01               0
GRID*               2984               06.2259158184E+022.5281154787E+01+
*       3.9248730315E+01               0
GRID*               2985               06.0895522333E+024.2332866204E+01+
*       -1.922767526E+01               0
GRID*               2986               06.3602442290E+024.2332860085E+01+
*       -1.922769329E+01               0
GRID*               2987               06.4966078560E+024.2337607453E+01+
*       1.9219591997E+01               0
GRID*               2988               06.3602442192E+024.2337609588E+01+
*       1.9219585706E+01               0
GRID*               2989               06.6309361842E+023.4434611929E+01+
*       3.0093749446E+01               0
GRID*               2990               07.7137042390E+02-3.443071844E+01+
*       -3.010141318E+01               0
GRID*               2991               01.0827679791E+03-2.528175685E+01+
*       3.9248268427E+01               0
GRID*               2992               01.0827679791E+03-3.443505406E+01+
*       3.0093410257E+01               0
GRID*               2993               01.0015603796E+034.2337640973E+01+
*       1.9219493211E+01               0
GRID*               2994               01.0015603796E+034.5684680089E+01+
*       6.7285632589E+00               0
GRID*               2995               07.5793758808E+02-3.443071844E+01+
*       -3.010141318E+01               0
GRID*               2996               07.9843960915E+02-2.528319376E+01+
*       3.9247166070E+01               0
GRID*               2997               01.0420624150E+034.2337651424E+01+
*       1.9219462412E+01               0
GRID*               2998               09.8792401727E+024.5684644222E+01+
*       -6.718586750E+00               0
GRID*               2999               09.7449118145E+024.5684644222E+01+
*       -6.718586750E+00               0
GRID*               3000               09.6085482719E+02-3.443158384E+01+
*       -3.010074926E+01               0
GRID*               3001               09.4742198100E+02-1.250134251E+01+
*       -4.339985961E+01               0
GRID*               3002               09.4742198100E+021.2501342511E+01+
*       -4.339985961E+01               0
GRID*               3003               09.3378561737E+02-1.250134251E+01+
*       -4.339985961E+01               0
GRID*               3004               01.1098371805E+03-2.528151417E+01+
*       3.9248454605E+01               0
GRID*               3005               01.0962008141E+03-1.249966317E+01+
*       4.3400829231E+01               0
GRID*               3006               01.1369063786E+03-4.568464657E+01+
*       6.7286620473E+00               0
GRID*               3007               01.1503392133E+03-4.568473843E+01+
*       -6.718309096E+00               0
GRID*               3008               01.7214006958E+036.3464751514E+00+
*       4.2883707111E+01               0
GRID*               3009               01.7053595658E+031.8303017868E-14+
*       4.6750000000E+01               0
GRID*               3010               01.4617367707E+031.2499663170E+01+
*       4.3400829231E+01               0
GRID*               3011               08.6621437275E+02-2.528307868E+01+
*       3.9247254357E+01               0
GRID*               3012               08.5257800863E+02-2.528313379E+01+
*       3.9247212078E+01               0
GRID*               3013               01.6241519685E+034.2332816619E+01+
*       -1.922782137E+01               0
GRID*               3014               01.6241519702E+033.4430050594E+01+
*       -3.010192554E+01               0
GRID*               3015               01.7342645669E+034.3650246271E+01+
*       -4.472812561E+00               0
GRID*               3016               07.8500678426E+021.2499663170E+01+
*       4.3400829231E+01               0
GRID*               3017               06.3602442192E+024.5684648705E+01+
*       6.7286557561E+00               0
GRID*               3018               07.1723202045E+02-4.568464355E+01+
*       -6.718588722E+00               0
GRID*               3019               05.6845318795E+024.2332870694E+01+
*       -1.922766202E+01               0
GRID*               3020               05.5481682421E+024.2332873714E+01+
*       -1.922765313E+01               0
GRID*               3021               06.3602441766E+021.2781491617E+01+
*       4.2597901084E+01               0
GRID*               3022               06.7774761765E+01-2.528189759E+01+
*       3.9248160459E+01               0
GRID*               3023               01.7605155700E+02-3.442997284E+01+
*       -3.010198519E+01               0
GRID*               3024               01.6241519563E+02-4.233281662E+01+
*       -1.922782137E+01               0
GRID*               3025               01.8948439510E+024.2332840857E+01+
*       -1.922774996E+01               0
GRID*               3026               01.8948439510E+024.5684727115E+01+
*       -6.718342439E+00               0
GRID*               3027               07.9843960915E+023.4431643815E+01+
*       -3.010070325E+01               0
GRID*               3028               06.2259158708E+024.5684746346E+01+
*       -6.718285769E+00               0
GRID*               3029               01.5644280203E+034.3145460786E+01+
*       4.7401304895E+00               0
GRID*               3030               05.1431478884E+02-4.568476168E+01+
*       6.7283228089E+00               0
GRID*               3031               05.0067842513E+02-4.568476220E+01+
*       6.7283212572E+00               0
GRID*               3032               06.7672998643E+021.2499663170E+01+
*       4.3400829231E+01               0
GRID*               3033               05.2774762395E+02-4.568466022E+01+
*       -6.718539610E+00               0
GRID*               3034               05.4138398839E+02-4.568475997E+01+
*       6.7283278207E+00               0
GRID*               3035               05.2774762467E+02-4.568476168E+01+
*       6.7283228092E+00               0
GRID*               3036               04.6017638312E+02-3.443600902E+01+
*       3.0092677629E+01               0
GRID*               3037               01.1098371805E+03-3.443481138E+01+
*       3.0093596435E+01               0
GRID*               3038               01.0962008149E+03-3.443505406E+01+
*       3.0093410257E+01               0
GRID*               3039               01.0962008149E+03-2.528175685E+01+
*       3.9248268427E+01               0
GRID*               3040               01.1369063878E+03-3.443157053E+01+
*       -3.010075947E+01               0
GRID*               3041               01.5293080066E+03-4.233285360E+01+
*       -1.922771240E+01               0
GRID*               3042               01.5293080066E+03-4.568473986E+01+
*       -6.718304879E+00               0
GRID*               3043               01.4927113557E+03-1.985487546E+01+
*       -3.911740494E+01               0
GRID*               3044               01.5934843020E+034.4666967657E+01+
*       -1.453572263E+01               0
GRID*               3045               09.4742197351E+022.5284469688E+01+
*       -3.924650594E+01               0
GRID*               3046               04.4654002002E+022.5284320095E+01+
*       -3.924662070E+01               0
GRID*               3047               02.7069199208E+014.5684710002E+01+
*       6.7284751125E+00               0
GRID*               3048               04.0705562494E+013.4435122383E+01+
*       3.0093357840E+01               0
GRID*               3049               02.7069199207E+014.2337670884E+01+
*       1.9219405058E+01               0
GRID*               3050               01.5622468252E+037.2994736841E+00+
*       4.6130469320E+01               0
GRID*               3051               06.7774762551E+011.2499663169E+01+
*       4.3400829231E+01               0
GRID*               3052               05.4138398315E+012.5281825179E+01+
*       3.9248216007E+01               0
GRID*               3053               01.4877883213E+02-4.233281874E+01+
*       -1.922781511E+01               0
GRID*               3054               04.1947082656E+02-4.233771899E+01+
*       1.9219263290E+01               0
GRID*               3055               08.1207598372E+01-3.125565443E-14+
*       4.6750000000E+01               0
GRID*               3056               05.4138398915E+011.2499663169E+01+
*       4.3400829231E+01               0
GRID*               3057               04.0705563094E+011.2499663169E+01+
*       4.3400829231E+01               0
GRID*               3058               01.3636363387E+014.5684710002E+01+
*       6.7284750947E+00               0
GRID*               3059               05.9552238751E+024.2332866204E+01+
*       -1.922767526E+01               0
GRID*               3060               02.7069199457E+011.2499663169E+01+
*       4.3400829231E+01               0
GRID*               3061               06.7672998367E+022.5281514171E+01+
*       3.9248454605E+01               0
GRID*               3062               08.5257801900E+021.2501342512E+01+
*       -4.339985961E+01               0
GRID*               3063               09.3378561737E+022.8344258117E-15+
*       -4.675000000E+01               0
GRID*               3064               05.0088194551E+02-3.442929241E+01+
*       -3.010250719E+01               0
GRID*               3065               01.0962008141E+03-9.134156952E-15+
*       4.6750000000E+01               0
GRID*               3066               01.3432835821E+014.5684710232E+01+
*       -6.718392412E+00               0
GRID*               3067               01.5429443703E+03-4.568473554E+01+
*       -6.718317595E+00               0
GRID*               3068               01.5429443705E+03-4.568469488E+01+
*       6.7285196697E+00               0
GRID*               3069               01.6782903675E+032.5281926242E+01+
*       3.9248138474E+01               0
GRID*               3070               06.6309362142E+02-4.233276030E+01+
*       -1.922798735E+01               0
GRID*               3071               06.2259158610E+024.2337609588E+01+
*       1.9219585706E+01               0
GRID*               3072               09.4742197351E+023.4431240403E+01+
*       -3.010101274E+01               0
GRID*               3073               01.0691316147E+031.2499663170E+01+
*       4.3400829231E+01               0
GRID*               3074               01.0962008154E+03-4.568464355E+01+
*       6.7286709389E+00               0
GRID*               3075               01.5563772082E+03-3.443061220E+01+
*       -3.010149468E+01               0
GRID*               3076               07.3086838542E+02-4.233766365E+01+
*       1.9219426372E+01               0
GRID*               3077               05.9552238751E+024.5684752465E+01+
*       -6.718267735E+00               0
GRID*               3078               05.6845317903E+023.4431422996E+01+
*       -3.010087266E+01               0
GRID*               3079               06.7571234735E+01-4.527161060E-15+
*       4.6750000000E+01               0
GRID*               3080               08.7964722692E+02-2.528458840E+01+
*       -3.924641486E+01               0
GRID*               3081               01.2191316048E+02-4.568470502E+01+
*       -6.718407588E+00               0
GRID*               3082               01.6283097964E+034.3413347803E+01+
*       -5.391863466E+00               0
GRID*               3083               05.8188602377E+024.2332870694E+01+
*       -1.922766203E+01               0
GRID*               3084               01.6241519685E+034.5684702892E+01+
*       -6.718413847E+00               0
GRID*               3085               01.5429443703E+03-4.233284929E+01+
*       -1.922772512E+01               0
GRID*               3086               01.5429443724E+03-3.443061220E+01+
*       -3.010149468E+01               0
GRID*               3087               05.5481681695E+02-3.442932778E+01+
*       -3.010248006E+01               0
GRID*               3088               05.4138398761E+02-4.233277072E+01+
*       -1.922795665E+01               0
GRID*               3089               00.0000000000E+00-4.233767116E+01+
*       1.9219404614E+01               0
GRID*               3090               00.0000000000E+00-4.568471028E+01+
*       6.7284746512E+00               0
GRID*               3091               00.0000000000E+00-1.250134251E+01+
*       -4.339985961E+01               0
GRID*               3092               00.0000000000E+00-2.528354607E+01+
*       -3.924722000E+01               0
GRID*               3093               00.0000000000E+003.0616168932E-15+
*       -4.675000000E+01               0
GRID*               3094               00.0000000000E+00-4.568471028E+01+
*       -6.718392449E+00               0
GRID*               3095               00.0000000000E+00-4.233282402E+01+
*       -1.922779996E+01               0
GRID*               3096               00.0000000000E+00-3.443031678E+01+
*       -3.010172679E+01               0
GRID*               3097               00.0000000000E+00-1.249966317E+01+
*       4.3400829232E+01               0
GRID*               3098               00.0000000000E+00-8.024323109E-15+
*       4.6750000000E+01               0
GRID*               3099               00.0000000000E+00-2.528186673E+01+
*       3.9248189621E+01               0
GRID*               3100               00.0000000000E+00-3.443516393E+01+
*       3.0093331440E+01               0
GRID*               3101               00.0000000000E+001.2501342512E+01+
*       -4.339985961E+01               0
GRID*               3102               00.0000000000E+002.5283546071E+01+
*       -3.924722000E+01               0
GRID*               3103               00.0000000000E+003.4430316782E+01+
*       -3.010172679E+01               0
GRID*               3104               00.0000000000E+004.2332824022E+01+
*       -1.922779996E+01               0
GRID*               3105               00.0000000000E+004.5684710283E+01+
*       -6.718392449E+00               0
GRID*               3106               00.0000000000E+001.2499663169E+01+
*       4.3400829232E+01               0
GRID*               3107               00.0000000000E+002.5281866728E+01+
*       3.9248189621E+01               0
GRID*               3108               00.0000000000E+004.5684710283E+01+
*       6.7284746512E+00               0
GRID*               3109               00.0000000000E+004.2337671165E+01+
*       1.9219404614E+01               0
GRID*               3110               00.0000000000E+003.4435163925E+01+
*       3.0093331440E+01               0
GRID*               3111               01.7727272732E+03-2.556440035E+01+
*       -3.519471499E+01               0
GRID*               3112               01.7727272732E+03-4.136942235E+01+
*       -1.344686407E+01               0
GRID*               3113               01.7727272732E+03-4.136942102E+01+
*       1.3446867987E+01               0
GRID*               3114               01.7727272732E+03-2.556437393E+01+
*       3.5194735262E+01               0
GRID*               3115               01.7727272727E+035.8428610417E-14+
*       4.3500000000E+01               0
GRID*               3116               01.7727272732E+032.5564400352E+01+
*       3.5194714992E+01               0
GRID*               3117               01.7727272732E+034.1369422352E+01+
*       1.3446864067E+01               0
GRID*               3118               01.7727272732E+034.1369421022E+01+
*       -1.344686799E+01               0
GRID*               3119               01.7727272732E+032.5564373931E+01+
*       -3.519473526E+01               0
GRID*               3120               01.7454545464E+03-2.556442653E+01+
*       -3.519469491E+01               0
GRID*               3121               01.7454545464E+03-4.136942486E+01+
*       -1.344685668E+01               0
GRID*               3122               01.7454545464E+03-4.136941970E+01+
*       1.3446871893E+01               0
GRID*               3123               01.7454545467E+03-2.556432402E+01+
*       3.5194773552E+01               0
GRID*               3124               01.7454545455E+03-2.258700461E-15+
*       4.3500000000E+01               0
GRID*               3125               01.7454545464E+032.5564426532E+01+
*       3.5194694907E+01               0
GRID*               3126               01.7454545464E+034.1369424858E+01+
*       1.3446856683E+01               0
GRID*               3127               01.7454545464E+034.1369419697E+01+
*       -1.344687189E+01               0
GRID*               3128               01.7454545467E+032.5564324020E+01+
*       -3.519477355E+01               0
GRID*               3129               01.7181818198E+03-2.556446883E+01+
*       -3.519466246E+01               0
GRID*               3130               01.7181818195E+03-4.136942881E+01+
*       -1.344684504E+01               0
GRID*               3131               01.7181818195E+03-4.136941756E+01+
*       1.3446878204E+01               0
GRID*               3132               01.7181818202E+03-2.556424536E+01+
*       3.5194833898E+01               0
GRID*               3133               01.7181818182E+032.1763360095E-14+
*       4.3500000000E+01               0
GRID*               3134               01.7181818198E+032.5564468833E+01+
*       3.5194662455E+01               0
GRID*               3135               01.7181818195E+034.1369428807E+01+
*       1.3446845042E+01               0
GRID*               3136               01.7181818195E+034.1369417555E+01+
*       -1.344687820E+01               0
GRID*               3137               01.7181818202E+032.5564245360E+01+
*       -3.519483390E+01               0
GRID*               3138               01.6909090932E+03-2.556452615E+01+
*       -3.519461849E+01               0
GRID*               3139               01.6909090925E+03-4.136943401E+01+
*       -1.344682970E+01               0
GRID*               3140               01.6909090926E+03-4.136941465E+01+
*       1.3446886754E+01               0
GRID*               3141               01.6909090940E+03-2.556414171E+01+
*       3.5194913415E+01               0
GRID*               3142               01.6909090909E+031.7970403165E-14+
*       4.3500000000E+01               0
GRID*               3143               01.6909090932E+032.5564526146E+01+
*       3.5194618486E+01               0
GRID*               3144               01.6909090925E+034.1369434013E+01+
*       1.3446829700E+01               0
GRID*               3145               01.6909090926E+034.1369414654E+01+
*       -1.344688675E+01               0
GRID*               3146               01.6909090940E+032.5564141711E+01+
*       -3.519491341E+01               0
GRID*               3147               01.6636363667E+03-2.556459735E+01+
*       -3.519456386E+01               0
GRID*               3148               01.6636363655E+03-4.136944029E+01+
*       -1.344681122E+01               0
GRID*               3149               01.6636363656E+03-4.136941105E+01+
*       1.3446897374E+01               0
GRID*               3150               01.6636363679E+03-2.556401688E+01+
*       3.5195009179E+01               0
GRID*               3151               01.6636363636E+031.4177446235E-14+
*       4.3500000000E+01               0
GRID*               3152               01.6636363667E+032.5564597347E+01+
*       3.5194563862E+01               0
GRID*               3153               01.6636363655E+034.1369440285E+01+
*       1.3446811216E+01               0
GRID*               3154               01.6636363656E+034.1369411050E+01+
*       -1.344689737E+01               0
GRID*               3155               01.6636363679E+032.5564016884E+01+
*       -3.519500918E+01               0
GRID*               3156               01.6363636402E+03-2.556468130E+01+
*       -3.519449946E+01               0
GRID*               3157               01.6363636384E+03-4.136944743E+01+
*       -1.344679016E+01               0
GRID*               3158               01.6363636386E+03-4.136940680E+01+
*       1.3446909894E+01               0
GRID*               3159               01.6363636418E+03-2.556387475E+01+
*       3.5195118219E+01               0
GRID*               3160               01.6363636364E+03-1.743052818E-14+
*       4.3500000000E+01               0
GRID*               3161               01.6363636402E+032.5564681297E+01+
*       3.5194499459E+01               0
GRID*               3162               01.6363636384E+034.1369447429E+01+
*       1.3446790162E+01               0
GRID*               3163               01.6363636386E+034.1369406802E+01+
*       -1.344690989E+01               0
GRID*               3164               01.6363636418E+032.5563874752E+01+
*       -3.519511822E+01               0
GRID*               3165               01.6090909138E+03-2.556477683E+01+
*       -3.519442616E+01               0
GRID*               3166               01.6090909113E+03-4.136945525E+01+
*       -1.344676712E+01               0
GRID*               3167               01.6090909115E+03-4.136940197E+01+
*       1.3446924141E+01               0
GRID*               3168               01.6090909158E+03-2.556371925E+01+
*       3.5195237518E+01               0
GRID*               3169               01.6090909091E+03-2.248780409E-14+
*       4.3500000000E+01               0
GRID*               3170               01.6090909138E+032.5564776834E+01+
*       3.5194426165E+01               0
GRID*               3171               01.6090909113E+034.1369455248E+01+
*       1.3446767118E+01               0
GRID*               3172               01.6090909115E+034.1369401968E+01+
*       -1.344692414E+01               0
GRID*               3173               01.6090909158E+032.5563719248E+01+
*       -3.519523752E+01               0
GRID*               3174               01.5818181875E+03-2.556488278E+01+
*       -3.519434489E+01               0
GRID*               3175               01.5818181841E+03-4.136946354E+01+
*       -1.344674267E+01               0
GRID*               3176               01.5818181844E+03-4.136939661E+01+
*       1.3446939937E+01               0
GRID*               3177               01.5818181899E+03-2.556355438E+01+
*       3.5195364003E+01               0
GRID*               3178               01.5818181818E+033.1877911908E-14+
*       4.3500000000E+01               0
GRID*               3179               01.5818181875E+032.5564882780E+01+
*       3.5194344885E+01               0
GRID*               3180               01.5818181841E+034.1369463543E+01+
*       1.3446742673E+01               0
GRID*               3181               01.5818181844E+034.1369396609E+01+
*       -1.344693994E+01               0
GRID*               3182               01.5818181899E+032.5563554376E+01+
*       -3.519536400E+01               0
GRID*               3183               01.5545454612E+03-2.556499793E+01+
*       -3.519425654E+01               0
GRID*               3184               01.5545454569E+03-4.136947211E+01+
*       -1.344671743E+01               0
GRID*               3185               01.5545454573E+03-4.136939078E+01+
*       1.3446957102E+01               0
GRID*               3186               01.5545454640E+03-2.556338421E+01+
*       3.5195494547E+01               0
GRID*               3187               01.5545454545E+035.5899972464E-14+
*       4.3500000000E+01               0
GRID*               3188               01.5545454612E+032.5564997933E+01+
*       3.5194256543E+01               0
GRID*               3189               01.5545454569E+034.1369472109E+01+
*       1.3446717427E+01               0
GRID*               3190               01.5545454573E+034.1369390784E+01+
*       -1.344695710E+01               0
GRID*               3191               01.5545454640E+032.5563384214E+01+
*       -3.519549455E+01               0
GRID*               3192               01.5272727350E+03-2.556512107E+01+
*       -3.519416208E+01               0
GRID*               3193               01.5272727297E+03-4.136948074E+01+
*       -1.344669199E+01               0
GRID*               3194               01.5272727302E+03-4.136938456E+01+
*       1.3446975454E+01               0
GRID*               3195               01.5272727381E+03-2.556321292E+01+
*       3.5195625958E+01               0
GRID*               3196               01.5272727273E+03-4.787338415E-15+
*       4.3500000000E+01               0
GRID*               3197               01.5272727350E+032.5565121066E+01+
*       3.5194162079E+01               0
GRID*               3198               01.5272727297E+034.1369480738E+01+
*       1.3446691995E+01               0
GRID*               3199               01.5272727302E+034.1369384557E+01+
*       -1.344697545E+01               0
GRID*               3200               01.5272727381E+032.5563212922E+01+
*       -3.519562596E+01               0
GRID*               3201               01.5000000087E+03-2.556525093E+01+
*       -3.519406245E+01               0
GRID*               3202               01.5000000024E+03-4.136948922E+01+
*       -1.344666700E+01               0
GRID*               3203               01.5000000030E+03-4.136937799E+01+
*       1.3446994804E+01               0
GRID*               3204               01.5000000121E+03-2.556304475E+01+
*       3.5195754975E+01               0
GRID*               3205               01.5000000000E+03-8.580295344E-15+
*       4.3500000000E+01               0
GRID*               3206               01.5000000087E+032.5565250927E+01+
*       3.5194062453E+01               0
GRID*               3207               01.5000000024E+034.1369489219E+01+
*       1.3446667001E+01               0
GRID*               3208               01.5000000030E+034.1369377991E+01+
*       -1.344699480E+01               0
GRID*               3209               01.5000000121E+032.5563044749E+01+
*       -3.519575498E+01               0
GRID*               3210               01.4727272826E+03-2.556538624E+01+
*       -3.519395865E+01               0
GRID*               3211               01.4727272752E+03-4.136949733E+01+
*       -1.344664309E+01               0
GRID*               3212               01.4727272758E+03-4.136937115E+01+
*       1.3447014960E+01               0
GRID*               3213               01.4727272860E+03-2.556288404E+01+
*       3.5195878266E+01               0
GRID*               3214               01.4727272727E+031.5441765211E-14+
*       4.3500000000E+01               0
GRID*               3215               01.4727272826E+032.5565386236E+01+
*       3.5193958647E+01               0
GRID*               3216               01.4727272752E+034.1369497334E+01+
*       1.3446643087E+01               0
GRID*               3217               01.4727272758E+034.1369371152E+01+
*       -1.344701496E+01               0
GRID*               3218               01.4727272860E+032.5562884042E+01+
*       -3.519587827E+01               0
GRID*               3219               01.4454545564E+03-2.556552568E+01+
*       -3.519385167E+01               0
GRID*               3220               01.4454545478E+03-4.136950486E+01+
*       -1.344662091E+01               0
GRID*               3221               01.4454545486E+03-4.136936411E+01+
*       1.3447035728E+01               0
GRID*               3222               01.4454545598E+03-2.556273525E+01+
*       3.5195992414E+01               0
GRID*               3223               01.4454545455E+03-1.743052818E-14+
*       4.3500000000E+01               0
GRID*               3224               01.4454545564E+032.5565525680E+01+
*       3.5193851669E+01               0
GRID*               3225               01.4454545478E+034.1369504859E+01+
*       1.3446620908E+01               0
GRID*               3226               01.4454545486E+034.1369364105E+01+
*       -1.344703573E+01               0
GRID*               3227               01.4454545598E+032.5562735252E+01+
*       -3.519599241E+01               0
GRID*               3228               01.4181818302E+03-2.556566791E+01+
*       -3.519374255E+01               0
GRID*               3229               01.4181818205E+03-4.136951157E+01+
*       -1.344660114E+01               0
GRID*               3230               01.4181818214E+03-4.136935692E+01+
*       1.3447056903E+01               0
GRID*               3231               01.4181818335E+03-2.556260295E+01+
*       3.5196093913E+01               0
GRID*               3232               01.4181818182E+037.8558513517E-15+
*       4.3500000000E+01               0
GRID*               3233               01.4181818302E+032.5565667913E+01+
*       3.5193742551E+01               0
GRID*               3234               01.4181818205E+034.1369511568E+01+
*       1.3446601138E+01               0
GRID*               3235               01.4181818214E+034.1369356920E+01+
*       -1.344705690E+01               0
GRID*               3236               01.4181818335E+032.5562602949E+01+
*       -3.519609391E+01               0
GRID*               3237               01.3909091040E+03-2.556581155E+01+
*       -3.519363236E+01               0
GRID*               3238               01.3909090931E+03-4.136951722E+01+
*       -1.344658447E+01               0
GRID*               3239               01.3909090941E+03-4.136934967E+01+
*       1.3447078280E+01               0
GRID*               3240               01.3909091070E+03-2.556249183E+01+
*       3.5196179161E+01               0
GRID*               3241               01.3909090909E+034.0628944218E-15+
*       4.3500000000E+01               0
GRID*               3242               01.3909091040E+032.5565811551E+01+
*       3.5193632357E+01               0
GRID*               3243               01.3909090931E+034.1369517224E+01+
*       1.3446584468E+01               0
GRID*               3244               01.3909090941E+034.1369349667E+01+
*       -1.344707828E+01               0
GRID*               3245               01.3909091070E+032.5562491830E+01+
*       -3.519617916E+01               0
GRID*               3246               01.3636363779E+03-2.556595517E+01+
*       -3.519352218E+01               0
GRID*               3247               01.3636363658E+03-4.136952159E+01+
*       -1.344657161E+01               0
GRID*               3248               01.3636363668E+03-4.136934242E+01+
*       1.3447099646E+01               0
GRID*               3249               01.3636363803E+03-2.556240673E+01+
*       3.5196244445E+01               0
GRID*               3250               01.3636363636E+030.0000000000E+00+
*       4.3500000000E+01               0
GRID*               3251               01.3636363779E+032.5565955167E+01+
*       3.5193522178E+01               0
GRID*               3252               01.3636363658E+034.1369521586E+01+
*       1.3446571612E+01               0
GRID*               3253               01.3636363668E+034.1369342417E+01+
*       -1.344709965E+01               0
GRID*               3254               01.3636363803E+032.5562406733E+01+
*       -3.519624445E+01               0
GRID*               3255               01.3363636517E+03-2.556609729E+01+
*       -3.519341315E+01               0
GRID*               3256               01.3363636384E+03-4.136952440E+01+
*       -1.344656331E+01               0
GRID*               3257               01.3363636396E+03-4.136933525E+01+
*       1.3447120778E+01               0
GRID*               3258               01.3363636534E+03-2.556235265E+01+
*       3.5196285935E+01               0
GRID*               3259               01.3363636364E+032.5556317024E-14+
*       4.3500000000E+01               0
GRID*               3260               01.3363636517E+032.5566097290E+01+
*       3.5193413145E+01               0
GRID*               3261               01.3363636384E+034.1369524405E+01+
*       1.3446563305E+01               0
GRID*               3262               01.3363636396E+034.1369335247E+01+
*       -1.344712078E+01               0
GRID*               3263               01.3363636534E+032.5562352652E+01+
*       -3.519628593E+01               0
GRID*               3264               01.3090909254E+03-2.556623640E+01+
*       -3.519330643E+01               0
GRID*               3265               01.3090909109E+03-4.136952542E+01+
*       -1.344656031E+01               0
GRID*               3266               01.3090909123E+03-4.136932823E+01+
*       1.3447141450E+01               0
GRID*               3267               01.3090909261E+03-2.556233475E+01+
*       3.5196299668E+01               0
GRID*               3268               01.3090909091E+03-7.315976368E-15+
*       4.3500000000E+01               0
GRID*               3269               01.3090909254E+032.5566236397E+01+
*       3.5193306425E+01               0
GRID*               3270               01.3090909109E+034.1369525421E+01+
*       1.3446560309E+01               0
GRID*               3271               01.3090909123E+034.1369328232E+01+
*       -1.344714145E+01               0
GRID*               3272               01.3090909261E+032.5562334751E+01+
*       -3.519629967E+01               0
GRID*               3273               01.2818181991E+03-2.556637091E+01+
*       -3.519320323E+01               0
GRID*               3274               01.2818181835E+03-4.136952437E+01+
*       -1.344656341E+01               0
GRID*               3275               01.2818181849E+03-4.136932145E+01+
*       1.3447161426E+01               0
GRID*               3276               01.2818181985E+03-2.556235839E+01+
*       3.5196281536E+01               0
GRID*               3277               01.2818181818E+031.6706084188E-14+
*       4.3500000000E+01               0
GRID*               3278               01.2818181991E+032.5566370912E+01+
*       3.5193203229E+01               0
GRID*               3279               01.2818181835E+034.1369524368E+01+
*       1.3446563413E+01               0
GRID*               3280               01.2818181849E+034.1369321454E+01+
*       -1.344716143E+01               0
GRID*               3281               01.2818181985E+032.5562358386E+01+
*       -3.519628154E+01               0
GRID*               3282               01.2545454728E+03-2.556649919E+01+
*       -3.519310481E+01               0
GRID*               3283               01.2545454561E+03-4.136952097E+01+
*       -1.344657344E+01               0
GRID*               3284               01.2545454576E+03-4.136931500E+01+
*       1.3447180459E+01               0
GRID*               3285               01.2545454706E+03-2.556242912E+01+
*       3.5196227271E+01               0
GRID*               3286               01.2545454545E+034.1992463721E-14+
*       4.3500000000E+01               0
GRID*               3287               01.2545454728E+032.5566499193E+01+
*       3.5193104815E+01               0
GRID*               3288               01.2545454561E+034.1369520967E+01+
*       1.3446573436E+01               0
GRID*               3289               01.2545454576E+034.1369314996E+01+
*       -1.344718046E+01               0
GRID*               3290               01.2545454706E+032.5562429119E+01+
*       -3.519622727E+01               0
GRID*               3291               01.2272727464E+03-2.556661953E+01+
*       -3.519301249E+01               0
GRID*               3292               01.2272727286E+03-4.136951493E+01+
*       -1.344659123E+01               0
GRID*               3293               01.2272727303E+03-4.136930894E+01+
*       1.3447198294E+01               0
GRID*               3294               01.2272727422E+03-2.556255275E+01+
*       3.5196132424E+01               0
GRID*               3295               01.2272727273E+033.8199506791E-14+
*       4.3500000000E+01               0
GRID*               3296               01.2272727464E+032.5566619532E+01+
*       3.5193012494E+01               0
GRID*               3297               01.2272727286E+034.1369514928E+01+
*       1.3446591233E+01               0
GRID*               3298               01.2272727303E+034.1369308944E+01+
*       -1.344719829E+01               0
GRID*               3299               01.2272727422E+032.5562552751E+01+
*       -3.519613242E+01               0
GRID*               3300               01.2000000199E+03-2.556673014E+01+
*       -3.519292764E+01               0
GRID*               3301               01.2000000011E+03-4.136950595E+01+
*       -1.344661770E+01               0
GRID*               3302               01.2000000029E+03-4.136930339E+01+
*       1.3447214664E+01               0
GRID*               3303               01.2000000134E+03-2.556273534E+01+
*       3.5195992346E+01               0
GRID*               3304               01.2000000000E+03-2.248780409E-14+
*       4.3500000000E+01               0
GRID*               3305               01.2000000199E+032.5566730144E+01+
*       3.5192927635E+01               0
GRID*               3306               01.2000000011E+034.1369505949E+01+
*       1.3446617697E+01               0
GRID*               3307               01.2000000029E+034.1369303390E+01+
*       -1.344721466E+01               0
GRID*               3308               01.2000000134E+032.5562735340E+01+
*       -3.519599235E+01               0
GRID*               3309               01.1727272933E+03-2.556682916E+01+
*       -3.519285168E+01               0
GRID*               3310               01.1727272736E+03-4.136949371E+01+
*       -1.344665376E+01               0
GRID*               3311               01.1727272756E+03-4.136929843E+01+
*       1.3447229287E+01               0
GRID*               3312               01.1727272841E+03-2.556298323E+01+
*       3.5195802168E+01               0
GRID*               3313               01.1727272727E+031.5342564686E-15+
*       4.3500000000E+01               0
GRID*               3314               01.1727272933E+032.5566829157E+01+
*       3.5192851675E+01               0
GRID*               3315               01.1727272736E+034.1369493711E+01+
*       1.3446653764E+01               0
GRID*               3316               01.1727272756E+034.1369298428E+01+
*       -1.344722929E+01               0
GRID*               3317               01.1727272841E+032.5562983235E+01+
*       -3.519580217E+01               0
GRID*               3318               01.1454545666E+03-2.556691460E+01+
*       -3.519278612E+01               0
GRID*               3319               01.1454545461E+03-4.136947788E+01+
*       -1.344670042E+01               0
GRID*               3320               01.1454545482E+03-4.136929416E+01+
*       1.3447241870E+01               0
GRID*               3321               01.1454545542E+03-2.556330311E+01+
*       3.5195556768E+01               0
GRID*               3322               01.1454545455E+03-2.258700461E-15+
*       4.3500000000E+01               0
GRID*               3323               01.1454545666E+032.5566914604E+01+
*       3.5192786122E+01               0
GRID*               3324               01.1454545461E+034.1369477881E+01+
*       1.3446700417E+01               0
GRID*               3325               01.1454545482E+034.1369294158E+01+
*       -1.344724187E+01               0
GRID*               3326               01.1454545542E+032.5563303109E+01+
*       -3.519555677E+01               0
GRID*               3327               01.1181818398E+03-2.556698441E+01+
*       -3.519273257E+01               0
GRID*               3328               01.1181818186E+03-4.136945811E+01+
*       -1.344675869E+01               0
GRID*               3329               01.1181818208E+03-4.136929069E+01+
*       1.3447252103E+01               0
GRID*               3330               01.1181818237E+03-2.556370200E+01+
*       3.5195250748E+01               0
GRID*               3331               01.1181818182E+032.1763360095E-14+
*       4.3500000000E+01               0
GRID*               3332               01.1181818398E+032.5566984411E+01+
*       3.5192732568E+01               0
GRID*               3333               01.1181818186E+034.1369458107E+01+
*       1.3446758694E+01               0
GRID*               3334               01.1181818208E+034.1369290686E+01+
*       -1.344725210E+01               0
GRID*               3335               01.1181818237E+032.5563702003E+01+
*       -3.519525075E+01               0
GRID*               3336               01.0909091129E+03-2.556703638E+01+
*       -3.519269270E+01               0
GRID*               3337               01.0909090910E+03-4.136943402E+01+
*       -1.344682969E+01               0
GRID*               3338               01.0909090934E+03-4.136928812E+01+
*       1.3447259655E+01               0
GRID*               3339               01.0909090925E+03-2.556418736E+01+
*       3.5194878391E+01               0
GRID*               3340               01.0909090909E+03-3.892395078E-14+
*       4.3500000000E+01               0
GRID*               3341               01.0909091129E+032.5567036382E+01+
*       3.5192692697E+01               0
GRID*               3342               01.0909090910E+034.1369434016E+01+
*       1.3446829692E+01               0
GRID*               3343               01.0909090934E+034.1369288124E+01+
*       -1.344725965E+01               0
GRID*               3344               01.0909090925E+032.5564187364E+01+
*       -3.519487839E+01               0
GRID*               3345               01.0636363857E+03-2.556706819E+01+
*       -3.519266830E+01               0
GRID*               3346               01.0636363635E+03-4.136940655E+01+
*       -1.344691063E+01               0
GRID*               3347               01.0636363660E+03-4.136928659E+01+
*       1.3447264178E+01               0
GRID*               3348               01.0636363609E+03-2.556473151E+01+
*       3.5194460939E+01               0
GRID*               3349               01.0636363636E+034.3256782697E-14+
*       4.3500000000E+01               0
GRID*               3350               01.0636363857E+032.5567068187E+01+
*       3.5192668298E+01               0
GRID*               3351               01.0636363635E+034.1369406554E+01+
*       1.3446910626E+01               0
GRID*               3352               01.0636363660E+034.1369286589E+01+
*       -1.344726418E+01               0
GRID*               3353               01.0636363609E+032.5564731506E+01+
*       -3.519446094E+01               0
GRID*               3354               01.0363636585E+03-2.556707734E+01+
*       -3.519266128E+01               0
GRID*               3355               01.0363636360E+03-4.136938210E+01+
*       -1.344698271E+01               0
GRID*               3356               01.0363636386E+03-4.136928621E+01+
*       1.3447265299E+01               0
GRID*               3357               01.0363636298E+03-2.556521043E+01+
*       3.5194093523E+01               0
GRID*               3358               01.0363636364E+03-4.650986464E-14+
*       4.3500000000E+01               0
GRID*               3359               01.0363636585E+032.5567077338E+01+
*       3.5192661277E+01               0
GRID*               3360               01.0363636360E+034.1369382096E+01+
*       1.3446982706E+01               0
GRID*               3361               01.0363636386E+034.1369286209E+01+
*       -1.344726530E+01               0
GRID*               3362               01.0363636298E+032.5565210427E+01+
*       -3.519409352E+01               0
GRID*               3363               01.0090909310E+03-2.556706117E+01+
*       -3.519267368E+01               0
GRID*               3364               01.0090909084E+03-4.136936120E+01+
*       -1.344704430E+01               0
GRID*               3365               01.0090909112E+03-4.136928712E+01+
*       1.3447262621E+01               0
GRID*               3366               01.0090908993E+03-2.556561943E+01+
*       3.5193779743E+01               0
GRID*               3367               01.0090909091E+03-2.248780409E-14+
*       4.3500000000E+01               0
GRID*               3368               01.0090909310E+032.5567061174E+01+
*       3.5192673677E+01               0
GRID*               3369               01.0090909084E+034.1369361195E+01+
*       1.3447044304E+01               0
GRID*               3370               01.0090909112E+034.1369287117E+01+
*       -1.344726262E+01               0
GRID*               3371               01.0090908993E+032.5565619435E+01+
*       -3.519377974E+01               0
GRID*               3372               09.8181820324E+02-2.556701684E+01+
*       -3.519270769E+01               0
GRID*               3373               09.8181818094E+02-4.136934350E+01+
*       -1.344709645E+01               0
GRID*               3374               09.8181818379E+02-4.136928946E+01+
*       1.3447255714E+01               0
GRID*               3375               09.8181816919E+02-2.556596538E+01+
*       3.5193514340E+01               0
GRID*               3376               09.8181818182E+022.7985754452E-15+
*       4.3500000000E+01               0
GRID*               3377               09.8181820324E+022.5567016835E+01+
*       3.5192707693E+01               0
GRID*               3378               09.8181818094E+024.1369343502E+01+
*       1.3447096448E+01               0
GRID*               3379               09.8181818379E+024.1369289461E+01+
*       -1.344725571E+01               0
GRID*               3380               09.8181816919E+022.5565965383E+01+
*       -3.519351434E+01               0
GRID*               3381               09.5454547528E+02-2.556694123E+01+
*       -3.519276569E+01               0
GRID*               3382               09.5454545346E+02-4.136932871E+01+
*       -1.344714005E+01               0
GRID*               3383               09.5454545636E+02-4.136929340E+01+
*       1.3447244115E+01               0
GRID*               3384               09.5454543956E+02-2.556625435E+01+
*       3.5193292649E+01               0
GRID*               3385               09.5454545455E+02-3.007371795E-14+
*       4.3500000000E+01               0
GRID*               3386               09.5454547528E+022.5566941232E+01+
*       3.5192765694E+01               0
GRID*               3387               09.5454545346E+024.1369328708E+01+
*       1.3447140049E+01               0
GRID*               3388               09.5454545636E+024.1369293397E+01+
*       -1.344724412E+01               0
GRID*               3389               09.5454543956E+022.5566254354E+01+
*       -3.519329265E+01               0
GRID*               3390               09.2727274705E+02-2.556683101E+01+
*       -3.519285025E+01               0
GRID*               3391               09.2727272599E+02-4.136931654E+01+
*       -1.344717592E+01               0
GRID*               3392               09.2727272892E+02-4.136929909E+01+
*       1.3447227323E+01               0
GRID*               3393               09.2727271034E+02-2.556649178E+01+
*       3.5193110504E+01               0
GRID*               3394               09.2727272727E+022.3027679071E-14+
*       4.3500000000E+01               0
GRID*               3395               09.2727274705E+022.5566831014E+01+
*       3.5192850251E+01               0
GRID*               3396               09.2727272599E+024.1369316536E+01+
*       1.3447175920E+01               0
GRID*               3397               09.2727272892E+024.1369299094E+01+
*       -1.344722732E+01               0
GRID*               3398               09.2727271034E+022.5566491777E+01+
*       -3.519311050E+01               0
GRID*               3399               09.0000001852E+02-2.556668253E+01+
*       -3.519296416E+01               0
GRID*               3400               08.9999999853E+02-4.136930674E+01+
*       -1.344720479E+01               0
GRID*               3401               09.0000000147E+02-4.136930674E+01+
*       1.3447204791E+01               0
GRID*               3402               08.9999998148E+02-2.556668253E+01+
*       3.5192964164E+01               0
GRID*               3403               09.0000000000E+021.9234722141E-14+
*       4.3500000000E+01               0
GRID*               3404               09.0000001852E+022.5566682529E+01+
*       3.5192964164E+01               0
GRID*               3405               08.9999999853E+024.1369306740E+01+
*       1.3447204791E+01               0
GRID*               3406               09.0000000147E+024.1369306740E+01+
*       -1.344720479E+01               0
GRID*               3407               08.9999998148E+022.5566682529E+01+
*       -3.519296416E+01               0
GRID*               3408               08.7272728966E+02-2.556649178E+01+
*       -3.519311050E+01               0
GRID*               3409               08.7272727108E+02-4.136929909E+01+
*       -1.344722732E+01               0
GRID*               3410               08.7272727401E+02-4.136931654E+01+
*       1.3447175920E+01               0
GRID*               3411               08.7272725295E+02-2.556683101E+01+
*       3.5192850251E+01               0
GRID*               3412               08.7272727273E+02-1.300541176E-14+
*       4.3500000000E+01               0
GRID*               3413               08.7272728966E+022.5566491777E+01+
*       3.5193110504E+01               0
GRID*               3414               08.7272727108E+024.1369299094E+01+
*       1.3447227323E+01               0
GRID*               3415               08.7272727401E+024.1369316536E+01+
*       -1.344717592E+01               0
GRID*               3416               08.7272725295E+022.5566831014E+01+
*       -3.519285025E+01               0
GRID*               3417               08.4545456044E+02-2.556625435E+01+
*       -3.519329265E+01               0
GRID*               3418               08.4545454364E+02-4.136929340E+01+
*       -1.344724412E+01               0
GRID*               3419               08.4545454654E+02-4.136932871E+01+
*       1.3447140049E+01               0
GRID*               3420               08.4545452472E+02-2.556694123E+01+
*       3.5192765694E+01               0
GRID*               3421               08.4545454545E+026.8543162230E-14+
*       4.3500000000E+01               0
GRID*               3422               08.4545456044E+022.5566254354E+01+
*       3.5193292649E+01               0
GRID*               3423               08.4545454364E+024.1369293397E+01+
*       1.3447244115E+01               0
GRID*               3424               08.4545454654E+024.1369328708E+01+
*       -1.344714005E+01               0
GRID*               3425               08.4545452472E+022.5566941232E+01+
*       -3.519276569E+01               0
GRID*               3426               08.1818183081E+02-2.556596538E+01+
*       -3.519351434E+01               0
GRID*               3427               08.1818181621E+02-4.136928946E+01+
*       -1.344725571E+01               0
GRID*               3428               08.1818181906E+02-4.136934350E+01+
*       1.3447096448E+01               0
GRID*               3429               08.1818179676E+02-2.556701684E+01+
*       3.5192707693E+01               0
GRID*               3430               08.1818181818E+027.2236918634E-15+
*       4.3500000000E+01               0
GRID*               3431               08.1818183081E+022.5565965383E+01+
*       3.5193514340E+01               0
GRID*               3432               08.1818181621E+024.1369289461E+01+
*       1.3447255714E+01               0
GRID*               3433               08.1818181906E+024.1369343502E+01+
*       -1.344709645E+01               0
GRID*               3434               08.1818179676E+022.5567016835E+01+
*       -3.519270769E+01               0
GRID*               3435               07.9090910074E+02-2.556561943E+01+
*       -3.519377974E+01               0
GRID*               3436               07.9090908878E+02-4.136928712E+01+
*       -1.344726262E+01               0
GRID*               3437               07.9090909156E+02-4.136936120E+01+
*       1.3447044304E+01               0
GRID*               3438               07.9090906904E+02-2.556706117E+01+
*       3.5192673677E+01               0
GRID*               3439               07.9090909091E+02-2.501644204E-14+
*       4.3500000000E+01               0
GRID*               3440               07.9090910074E+022.5565619435E+01+
*       3.5193779743E+01               0
GRID*               3441               07.9090908878E+024.1369287117E+01+
*       1.3447262621E+01               0
GRID*               3442               07.9090909156E+024.1369361195E+01+
*       -1.344704430E+01               0
GRID*               3443               07.9090906904E+022.5567061174E+01+
*       -3.519267368E+01               0
GRID*               3444               07.6363637018E+02-2.556521043E+01+
*       -3.519409352E+01               0
GRID*               3445               07.6363636137E+02-4.136928621E+01+
*       -1.344726530E+01               0
GRID*               3446               07.6363636405E+02-4.136938210E+01+
*       1.3446982706E+01               0
GRID*               3447               07.6363634155E+02-2.556707734E+01+
*       3.5192661277E+01               0
GRID*               3448               07.6363636364E+020.0000000000E+00+
*       4.3500000000E+01               0
GRID*               3449               07.6363637018E+022.5565210427E+01+
*       3.5194093523E+01               0
GRID*               3450               07.6363636137E+024.1369286209E+01+
*       1.3447265299E+01               0
GRID*               3451               07.6363636405E+024.1369382096E+01+
*       -1.344698271E+01               0
GRID*               3452               07.6363634155E+022.5567077338E+01+
*       -3.519266128E+01               0
GRID*               3453               07.3636363908E+02-2.556473151E+01+
*       -3.519446094E+01               0
GRID*               3454               07.3636363396E+02-4.136928659E+01+
*       -1.344726418E+01               0
GRID*               3455               07.3636363651E+02-4.136940655E+01+
*       1.3446910626E+01               0
GRID*               3456               07.3636361425E+02-2.556706819E+01+
*       3.5192668298E+01               0
GRID*               3457               07.3636363636E+02-3.323451539E-14+
*       4.3500000000E+01               0
GRID*               3458               07.3636363908E+022.5564731506E+01+
*       3.5194460939E+01               0
GRID*               3459               07.3636363396E+024.1369286589E+01+
*       1.3447264178E+01               0
GRID*               3460               07.3636363651E+024.1369406554E+01+
*       -1.344691063E+01               0
GRID*               3461               07.3636361425E+022.5567068187E+01+
*       -3.519266830E+01               0
GRID*               3462               07.0909090746E+02-2.556418736E+01+
*       -3.519487839E+01               0
GRID*               3463               07.0909090657E+02-4.136928812E+01+
*       -1.344725965E+01               0
GRID*               3464               07.0909090896E+02-4.136943402E+01+
*       1.3446829692E+01               0
GRID*               3465               07.0909088713E+02-2.556703638E+01+
*       3.5192692697E+01               0
GRID*               3466               07.0909090909E+024.9578377580E-14+
*       4.3500000000E+01               0
GRID*               3467               07.0909090746E+022.5564187364E+01+
*       3.5194878391E+01               0
GRID*               3468               07.0909090657E+024.1369288124E+01+
*       1.3447259655E+01               0
GRID*               3469               07.0909090896E+024.1369434016E+01+
*       -1.344682969E+01               0
GRID*               3470               07.0909088713E+022.5567036382E+01+
*       -3.519269270E+01               0
GRID*               3471               06.8181817630E+02-2.556370200E+01+
*       -3.519525075E+01               0
GRID*               3472               06.8181817918E+02-4.136929069E+01+
*       -1.344725210E+01               0
GRID*               3473               06.8181818142E+02-4.136945811E+01+
*       1.3446758694E+01               0
GRID*               3474               06.8181816017E+02-2.556698441E+01+
*       3.5192732568E+01               0
GRID*               3475               06.8181818182E+02-1.174109279E-14+
*       4.3500000000E+01               0
GRID*               3476               06.8181817630E+022.5563702003E+01+
*       3.5195250748E+01               0
GRID*               3477               06.8181817918E+024.1369290686E+01+
*       1.3447252103E+01               0
GRID*               3478               06.8181818143E+024.1369458107E+01+
*       -1.344675869E+01               0
GRID*               3479               06.8181816017E+022.5566984411E+01+
*       -3.519273257E+01               0
GRID*               3480               06.5454544580E+02-2.556330311E+01+
*       -3.519555677E+01               0
GRID*               3481               06.5454545180E+02-4.136929416E+01+
*       -1.344724187E+01               0
GRID*               3482               06.5454545390E+02-4.136947788E+01+
*       1.3446700417E+01               0
GRID*               3483               06.5454543335E+02-2.556691460E+01+
*       3.5192786122E+01               0
GRID*               3484               06.5454545455E+02-4.398122669E-14+
*       4.3500000000E+01               0
GRID*               3485               06.5454544580E+022.5563303109E+01+
*       3.5195556768E+01               0
GRID*               3486               06.5454545180E+024.1369294158E+01+
*       1.3447241870E+01               0
GRID*               3487               06.5454545390E+024.1369477881E+01+
*       -1.344670042E+01               0
GRID*               3488               06.5454543335E+022.5566914604E+01+
*       -3.519278612E+01               0
GRID*               3489               06.2727271592E+02-2.556298323E+01+
*       -3.519580217E+01               0
GRID*               3490               06.2727272443E+02-4.136929843E+01+
*       -1.344722929E+01               0
GRID*               3491               06.2727272639E+02-4.136949371E+01+
*       1.3446653764E+01               0
GRID*               3492               06.2727270666E+02-2.556682916E+01+
*       3.5192851675E+01               0
GRID*               3493               06.2727272727E+023.8831666279E-14+
*       4.3500000000E+01               0
GRID*               3494               06.2727271592E+022.5562983235E+01+
*       3.5195802168E+01               0
GRID*               3495               06.2727272443E+024.1369298428E+01+
*       1.3447229287E+01               0
GRID*               3496               06.2727272639E+024.1369493711E+01+
*       -1.344665376E+01               0
GRID*               3497               06.2727270666E+022.5566829157E+01+
*       -3.519285168E+01               0
GRID*               3498               05.9999998659E+02-2.556273534E+01+
*       -3.519599235E+01               0
GRID*               3499               05.9999999707E+02-4.136930339E+01+
*       -1.344721466E+01               0
GRID*               3500               05.9999999890E+02-4.136950595E+01+
*       1.3446617697E+01               0
GRID*               3501               05.9999998008E+02-2.556673014E+01+
*       3.5192927635E+01               0
GRID*               3502               06.0000000000E+025.3272133985E-15+
*       4.3500000000E+01               0
GRID*               3503               05.9999998659E+022.5562735340E+01+
*       3.5195992346E+01               0
GRID*               3504               05.9999999707E+024.1369303390E+01+
*       1.3447214664E+01               0
GRID*               3505               05.9999999890E+024.1369505949E+01+
*       -1.344661770E+01               0
GRID*               3506               05.9999998008E+022.5566730144E+01+
*       -3.519292764E+01               0
GRID*               3507               05.7272725777E+02-2.556255275E+01+
*       -3.519613242E+01               0
GRID*               3508               05.7272726972E+02-4.136930894E+01+
*       -1.344719829E+01               0
GRID*               3509               05.7272727141E+02-4.136951493E+01+
*       1.3446591233E+01               0
GRID*               3510               05.7272725359E+02-2.556661953E+01+
*       3.5193012494E+01               0
GRID*               3511               05.7272727273E+02-2.691292051E-14+
*       4.3500000000E+01               0
GRID*               3512               05.7272725777E+022.5562552751E+01+
*       3.5196132424E+01               0
GRID*               3513               05.7272726972E+024.1369308944E+01+
*       1.3447198294E+01               0
GRID*               3514               05.7272727141E+024.1369514928E+01+
*       -1.344659123E+01               0
GRID*               3515               05.7272725359E+022.5566619532E+01+
*       -3.519301249E+01               0
GRID*               3516               05.4545452941E+02-2.556242912E+01+
*       -3.519622727E+01               0
GRID*               3517               05.4545454238E+02-4.136931500E+01+
*       -1.344718046E+01               0
GRID*               3518               05.4545454395E+02-4.136952097E+01+
*       1.3446573436E+01               0
GRID*               3519               05.4545452719E+02-2.556649919E+01+
*       3.5193104815E+01               0
GRID*               3520               05.4545454545E+02-2.258700461E-15+
*       4.3500000000E+01               0
GRID*               3521               05.4545452941E+022.5562429119E+01+
*       3.5196227271E+01               0
GRID*               3522               05.4545454238E+024.1369314996E+01+
*       1.3447180459E+01               0
GRID*               3523               05.4545454395E+024.1369520967E+01+
*       -1.344657344E+01               0
GRID*               3524               05.4545452719E+022.5566499193E+01+
*       -3.519310481E+01               0
GRID*               3525               05.1818180147E+02-2.556235839E+01+
*       -3.519628154E+01               0
GRID*               3526               05.1818181505E+02-4.136932145E+01+
*       -1.344716143E+01               0
GRID*               3527               05.1818181650E+02-4.136952437E+01+
*       1.3446563413E+01               0
GRID*               3528               05.1818180085E+02-2.556637091E+01+
*       3.5193203229E+01               0
GRID*               3529               05.1818181818E+022.1763360095E-14+
*       4.3500000000E+01               0
GRID*               3530               05.1818180147E+022.5562358386E+01+
*       3.5196281536E+01               0
GRID*               3531               05.1818181505E+024.1369321454E+01+
*       1.3447161426E+01               0
GRID*               3532               05.1818181650E+024.1369524368E+01+
*       -1.344656341E+01               0
GRID*               3533               05.1818180085E+022.5566370912E+01+
*       -3.519320323E+01               0
GRID*               3534               04.9090907389E+02-2.556233475E+01+
*       -3.519629967E+01               0
GRID*               3535               04.9090908774E+02-4.136932823E+01+
*       -1.344714145E+01               0
GRID*               3536               04.9090908906E+02-4.136952542E+01+
*       1.3446560309E+01               0
GRID*               3537               04.9090907457E+02-2.556623640E+01+
*       3.5193306425E+01               0
GRID*               3538               04.9090909091E+02-9.844614321E-15+
*       4.3500000000E+01               0
GRID*               3539               04.9090907389E+022.5562334751E+01+
*       3.5196299668E+01               0
GRID*               3540               04.9090908774E+024.1369328232E+01+
*       1.3447141450E+01               0
GRID*               3541               04.9090908906E+024.1369525421E+01+
*       -1.344656031E+01               0
GRID*               3542               04.9090907457E+022.5566236397E+01+
*       -3.519330643E+01               0
GRID*               3543               04.6363634664E+02-2.556235265E+01+
*       -3.519628593E+01               0
GRID*               3544               04.6363636044E+02-4.136933525E+01+
*       -1.344712078E+01               0
GRID*               3545               04.6363636164E+02-4.136952440E+01+
*       1.3446563305E+01               0
GRID*               3546               04.6363634833E+02-2.556609729E+01+
*       3.5193413145E+01               0
GRID*               3547               04.6363636364E+021.4809605723E-14+
*       4.3500000000E+01               0
GRID*               3548               04.6363634664E+022.5562352652E+01+
*       3.5196285935E+01               0
GRID*               3549               04.6363636044E+024.1369335247E+01+
*       1.3447120778E+01               0
GRID*               3550               04.6363636164E+024.1369524405E+01+
*       -1.344656331E+01               0
GRID*               3551               04.6363634833E+022.5566097290E+01+
*       -3.519341315E+01               0
GRID*               3552               04.3636361968E+02-2.556240673E+01+
*       -3.519624445E+01               0
GRID*               3553               04.3636363315E+02-4.136934242E+01+
*       -1.344709965E+01               0
GRID*               3554               04.3636363424E+02-4.136952159E+01+
*       1.3446571612E+01               0
GRID*               3555               04.3636362213E+02-2.556595517E+01+
*       3.5193522178E+01               0
GRID*               3556               04.3636363636E+02-1.711444844E-14+
*       4.3500000000E+01               0
GRID*               3557               04.3636361968E+022.5562406733E+01+
*       3.5196244445E+01               0
GRID*               3558               04.3636363315E+024.1369342417E+01+
*       1.3447099646E+01               0
GRID*               3559               04.3636363424E+024.1369521586E+01+
*       -1.344657161E+01               0
GRID*               3560               04.3636362213E+022.5565955167E+01+
*       -3.519352218E+01               0
GRID*               3561               04.0909089297E+02-2.556249183E+01+
*       -3.519617916E+01               0
GRID*               3562               04.0909090588E+02-4.136934967E+01+
*       -1.344707828E+01               0
GRID*               3563               04.0909090686E+02-4.136951722E+01+
*       1.3446584468E+01               0
GRID*               3564               04.0909089595E+02-2.556581155E+01+
*       3.5193632357E+01               0
GRID*               3565               04.0909090909E+026.3169806579E-14+
*       4.3500000000E+01               0
GRID*               3566               04.0909089297E+022.5562491830E+01+
*       3.5196179161E+01               0
GRID*               3567               04.0909090588E+024.1369349667E+01+
*       1.3447078280E+01               0
GRID*               3568               04.0909090686E+024.1369517224E+01+
*       -1.344658447E+01               0
GRID*               3569               04.0909089595E+022.5565811551E+01+
*       -3.519363236E+01               0
GRID*               3570               03.8181816648E+02-2.556260295E+01+
*       -3.519609391E+01               0
GRID*               3571               03.8181817863E+02-4.136935692E+01+
*       -1.344705690E+01               0
GRID*               3572               03.8181817949E+02-4.136951157E+01+
*       1.3446601138E+01               0
GRID*               3573               03.8181816978E+02-2.556566791E+01+
*       3.5193742551E+01               0
GRID*               3574               03.8181818182E+023.0929672675E-14+
*       4.3500000000E+01               0
GRID*               3575               03.8181816648E+022.5562602949E+01+
*       3.5196093913E+01               0
GRID*               3576               03.8181817863E+024.1369356920E+01+
*       1.3447056903E+01               0
GRID*               3577               03.8181817949E+024.1369511568E+01+
*       -1.344660114E+01               0
GRID*               3578               03.8181816978E+022.5565667913E+01+
*       -3.519374255E+01               0
GRID*               3579               03.5454544016E+02-2.556273525E+01+
*       -3.519599241E+01               0
GRID*               3580               03.5454545139E+02-4.136936411E+01+
*       -1.344703573E+01               0
GRID*               3581               03.5454545216E+02-4.136950486E+01+
*       1.3446620908E+01               0
GRID*               3582               03.5454544362E+02-2.556552568E+01+
*       3.5193851669E+01               0
GRID*               3583               03.5454545455E+020.0000000000E+00+
*       4.3500000000E+01               0
GRID*               3584               03.5454544016E+022.5562735252E+01+
*       3.5195992414E+01               0
GRID*               3585               03.5454545139E+024.1369364105E+01+
*       1.3447035728E+01               0
GRID*               3586               03.5454545216E+024.1369504859E+01+
*       -1.344662091E+01               0
GRID*               3587               03.5454544362E+022.5565525680E+01+
*       -3.519385167E+01               0
GRID*               3588               03.2727271399E+02-2.556288404E+01+
*       -3.519587827E+01               0
GRID*               3589               03.2727272418E+02-4.136937115E+01+
*       -1.344701496E+01               0
GRID*               3590               03.2727272484E+02-4.136949733E+01+
*       1.3446643087E+01               0
GRID*               3591               03.2727271745E+02-2.556538624E+01+
*       3.5193958647E+01               0
GRID*               3592               03.2727272727E+02-3.355059513E-14+
*       4.3500000000E+01               0
GRID*               3593               03.2727271399E+022.5562884042E+01+
*       3.5195878266E+01               0
GRID*               3594               03.2727272418E+024.1369371152E+01+
*       1.3447014960E+01               0
GRID*               3595               03.2727272484E+024.1369497334E+01+
*       -1.344664309E+01               0
GRID*               3596               03.2727271745E+022.5565386236E+01+
*       -3.519395865E+01               0
GRID*               3597               02.9999998792E+02-2.556304475E+01+
*       -3.519575498E+01               0
GRID*               3598               02.9999999698E+02-4.136937799E+01+
*       -1.344699480E+01               0
GRID*               3599               02.9999999755E+02-4.136948922E+01+
*       1.3446667001E+01               0
GRID*               3600               02.9999999126E+02-2.556525093E+01+
*       3.5194062453E+01               0
GRID*               3601               03.0000000000E+021.9866881630E-14+
*       4.3500000000E+01               0
GRID*               3602               02.9999998792E+022.5563044749E+01+
*       3.5195754975E+01               0
GRID*               3603               02.9999999698E+024.1369377991E+01+
*       1.3446994804E+01               0
GRID*               3604               02.9999999755E+024.1369489219E+01+
*       -1.344666700E+01               0
GRID*               3605               02.9999999126E+022.5565250927E+01+
*       -3.519406245E+01               0
GRID*               3606               02.7272726194E+02-2.556321292E+01+
*       -3.519562596E+01               0
GRID*               3607               02.7272726981E+02-4.136938456E+01+
*       -1.344697545E+01               0
GRID*               3608               02.7272727029E+02-4.136948074E+01+
*       1.3446691995E+01               0
GRID*               3609               02.7272726505E+02-2.556512107E+01+
*       3.5194162079E+01               0
GRID*               3610               02.7272727273E+02-1.205717253E-14+
*       4.3500000000E+01               0
GRID*               3611               02.7272726194E+022.5563212922E+01+
*       3.5195625958E+01               0
GRID*               3612               02.7272726981E+024.1369384557E+01+
*       1.3446975454E+01               0
GRID*               3613               02.7272727029E+024.1369480738E+01+
*       -1.344669199E+01               0
GRID*               3614               02.7272726505E+022.5565121066E+01+
*       -3.519416208E+01               0
GRID*               3615               02.4545453600E+02-2.556338421E+01+
*       -3.519549455E+01               0
GRID*               3616               02.4545454267E+02-4.136939078E+01+
*       -1.344695710E+01               0
GRID*               3617               02.4545454306E+02-4.136947211E+01+
*       1.3446717427E+01               0
GRID*               3618               02.4545453880E+02-2.556499793E+01+
*       3.5194256543E+01               0
GRID*               3619               02.4545454545E+02-1.553404972E-14+
*       4.3500000000E+01               0
GRID*               3620               02.4545453600E+022.5563384214E+01+
*       3.5195494547E+01               0
GRID*               3621               02.4545454267E+024.1369390784E+01+
*       1.3446957102E+01               0
GRID*               3622               02.4545454306E+024.1369472109E+01+
*       -1.344671743E+01               0
GRID*               3623               02.4545453880E+022.5564997933E+01+
*       -3.519425654E+01               0
GRID*               3624               02.1818181008E+02-2.556355438E+01+
*       -3.519536400E+01               0
GRID*               3625               02.1818181555E+02-4.136939661E+01+
*       -1.344693994E+01               0
GRID*               3626               02.1818181587E+02-4.136946354E+01+
*       1.3446742673E+01               0
GRID*               3627               02.1818181252E+02-2.556488278E+01+
*       3.5194344885E+01               0
GRID*               3628               02.1818181818E+02-2.011720601E-14+
*       4.3500000000E+01               0
GRID*               3629               02.1818181008E+022.5563554376E+01+
*       3.5195364003E+01               0
GRID*               3630               02.1818181555E+024.1369396609E+01+
*       1.3446939937E+01               0
GRID*               3631               02.1818181587E+024.1369463543E+01+
*       -1.344674267E+01               0
GRID*               3632               02.1818181252E+022.5564882780E+01+
*       -3.519434489E+01               0
GRID*               3633               01.9090908415E+02-2.556371925E+01+
*       -3.519523752E+01               0
GRID*               3634               01.9090908847E+02-4.136940197E+01+
*       -1.344692414E+01               0
GRID*               3635               01.9090908871E+02-4.136945525E+01+
*       1.3446767118E+01               0
GRID*               3636               01.9090908618E+02-2.556477683E+01+
*       3.5194426165E+01               0
GRID*               3637               01.9090909091E+023.3774390373E-14+
*       4.3500000000E+01               0
GRID*               3638               01.9090908415E+022.5563719248E+01+
*       3.5195237518E+01               0
GRID*               3639               01.9090908847E+024.1369401968E+01+
*       1.3446924141E+01               0
GRID*               3640               01.9090908871E+024.1369455248E+01+
*       -1.344676712E+01               0
GRID*               3641               01.9090908618E+022.5564776834E+01+
*       -3.519442616E+01               0
GRID*               3642               01.6363635818E+02-2.556387475E+01+
*       -3.519511822E+01               0
GRID*               3643               01.6363636142E+02-4.136940680E+01+
*       -1.344690989E+01               0
GRID*               3644               01.6363636160E+02-4.136944743E+01+
*       1.3446790162E+01               0
GRID*               3645               01.6363635980E+02-2.556468130E+01+
*       3.5194499459E+01               0
GRID*               3646               01.6363636364E+025.7322331312E-14+
*       4.3500000000E+01               0
GRID*               3647               01.6363635818E+022.5563874752E+01+
*       3.5195118219E+01               0
GRID*               3648               01.6363636142E+024.1369406802E+01+
*       1.3446909894E+01               0
GRID*               3649               01.6363636160E+024.1369447429E+01+
*       -1.344679016E+01               0
GRID*               3650               01.6363635980E+022.5564681297E+01+
*       -3.519449946E+01               0
GRID*               3651               01.3636363214E+02-2.556401688E+01+
*       -3.519500918E+01               0
GRID*               3652               01.3636363440E+02-4.136941105E+01+
*       -1.344689737E+01               0
GRID*               3653               01.3636363453E+02-4.136944029E+01+
*       1.3446811216E+01               0
GRID*               3654               01.3636363335E+02-2.556459735E+01+
*       3.5194563862E+01               0
GRID*               3655               01.3636363636E+02-3.839099182E-15+
*       4.3500000000E+01               0
GRID*               3656               01.3636363214E+022.5564016884E+01+
*       3.5195009179E+01               0
GRID*               3657               01.3636363440E+024.1369411050E+01+
*       1.3446897374E+01               0
GRID*               3658               01.3636363453E+024.1369440285E+01+
*       -1.344681122E+01               0
GRID*               3659               01.3636363335E+022.5564597347E+01+
*       -3.519456386E+01               0
GRID*               3660               01.0909090601E+02-2.556414171E+01+
*       -3.519491341E+01               0
GRID*               3661               01.0909090742E+02-4.136941465E+01+
*       -1.344688675E+01               0
GRID*               3662               01.0909090751E+02-4.136943401E+01+
*       1.3446829700E+01               0
GRID*               3663               01.0909090683E+02-2.556452615E+01+
*       3.5194618486E+01               0
GRID*               3664               01.0909090909E+02-3.623727296E-14+
*       4.3500000000E+01               0
GRID*               3665               01.0909090601E+022.5564141711E+01+
*       3.5194913415E+01               0
GRID*               3666               01.0909090742E+024.1369414654E+01+
*       1.3446886754E+01               0
GRID*               3667               01.0909090751E+024.1369434013E+01+
*       -1.344682970E+01               0
GRID*               3668               01.0909090683E+022.5564526146E+01+
*       -3.519461849E+01               0
GRID*               3669               08.1818179751E+01-2.556424536E+01+
*       -3.519483390E+01               0
GRID*               3670               08.1818180490E+01-4.136941756E+01+
*       -1.344687820E+01               0
GRID*               3671               08.1818180537E+01-4.136942881E+01+
*       1.3446845042E+01               0
GRID*               3672               08.1818180247E+01-2.556446883E+01+
*       3.5194662455E+01               0
GRID*               3673               08.1818181818E+01-1.150403298E-14+
*       4.3500000000E+01               0
GRID*               3674               08.1818179751E+012.5564245360E+01+
*       3.5194833898E+01               0
GRID*               3675               08.1818180490E+014.1369417555E+01+
*       1.3446878204E+01               0
GRID*               3676               08.1818180537E+014.1369428807E+01+
*       -1.344684504E+01               0
GRID*               3677               08.1818180247E+012.5564468833E+01+
*       -3.519466246E+01               0
GRID*               3678               05.4545453347E+01-2.556432402E+01+
*       -3.519477355E+01               0
GRID*               3679               05.4545453605E+01-4.136941970E+01+
*       -1.344687189E+01               0
GRID*               3680               05.4545453626E+01-4.136942486E+01+
*       1.3446856683E+01               0
GRID*               3681               05.4545453581E+01-2.556442653E+01+
*       3.5194694907E+01               0
GRID*               3682               05.4545454545E+014.1952953753E-14+
*       4.3500000000E+01               0
GRID*               3683               05.4545453347E+012.5564324020E+01+
*       3.5194773552E+01               0
GRID*               3684               05.4545453605E+014.1369419697E+01+
*       1.3446871893E+01               0
GRID*               3685               05.4545453626E+014.1369424858E+01+
*       -1.344685668E+01               0
GRID*               3686               05.4545453581E+012.5564426532E+01+
*       -3.519469491E+01               0
GRID*               3687               02.7272726772E+01-2.556437393E+01+
*       -3.519473526E+01               0
GRID*               3688               02.7272726773E+01-4.136942102E+01+
*       -1.344686799E+01               0
GRID*               3689               02.7272726779E+01-4.136942235E+01+
*       1.3446864067E+01               0
GRID*               3690               02.7272726833E+01-2.556440035E+01+
*       3.5194714992E+01               0
GRID*               3691               02.7272727273E+019.6337999126E-15+
*       4.3500000000E+01               0
GRID*               3692               02.7272726772E+012.5564373931E+01+
*       3.5194735262E+01               0
GRID*               3693               02.7272726773E+014.1369421022E+01+
*       1.3446867987E+01               0
GRID*               3694               02.7272726779E+014.1369422352E+01+
*       -1.344686407E+01               0
GRID*               3695               02.7272726833E+012.5564400352E+01+
*       -3.519471499E+01               0
GRID*               3696               01.7590909098E+03-2.556441136E+01+
*       -3.519470655E+01               0
GRID*               3697               01.7454545467E+03-3.519477355E+01+
*       -2.556432402E+01               0
GRID*               3698               01.7590909098E+03-3.389887232E+01+
*       -2.463167758E+01               0
GRID*               3699               01.7590909098E+03-4.136942356E+01+
*       -1.344686052E+01               0
GRID*               3700               01.7727272732E+03-3.389886733E+01+
*       -2.463168563E+01               0
GRID*               3701               01.7454545455E+03-4.350000000E+01+
*       1.5880390405E-13               0
GRID*               3702               01.7590909091E+03-4.350000000E+01+
*       3.1810809510E-13               0
GRID*               3703               01.7590909098E+03-4.136942046E+01+
*       1.3446869629E+01               0
GRID*               3704               01.7727272727E+03-4.350000000E+01+
*       2.3503839065E-13               0
GRID*               3705               01.7454545464E+03-3.519469491E+01+
*       2.5564426532E+01               0
GRID*               3706               01.7590909098E+03-3.519470655E+01+
*       2.5564411358E+01               0
GRID*               3707               01.7590909099E+03-2.556435280E+01+
*       3.5194751471E+01               0
GRID*               3708               01.7727272732E+03-3.519471499E+01+
*       2.5564400352E+01               0
GRID*               3709               01.7454545464E+03-1.344685668E+01+
*       4.1369424858E+01               0
GRID*               3710               01.7590909098E+03-1.344686094E+01+
*       4.1369423413E+01               0
GRID*               3711               01.7590909091E+031.4177446235E-14+
*       4.3500000000E+01               0
GRID*               3712               01.7727272732E+03-1.344686407E+01+
*       4.1369422352E+01               0
GRID*               3713               01.7454545462E+031.3114542580E+01+
*       4.0358383575E+01               0
GRID*               3714               01.7590909098E+031.3446869629E+01+
*       4.1369420465E+01               0
GRID*               3715               01.7590909098E+032.5564411358E+01+
*       3.5194706548E+01               0
GRID*               3716               01.7727272732E+031.3446867987E+01+
*       4.1369421022E+01               0
GRID*               3717               01.7454545467E+033.5194773552E+01+
*       2.5564324020E+01               0
GRID*               3718               01.7590909099E+033.5194751471E+01+
*       2.5564352802E+01               0
GRID*               3719               01.7590909098E+034.1369423413E+01+
*       1.3446860941E+01               0
GRID*               3720               01.7727272732E+033.5194735262E+01+
*       2.5564373931E+01               0
GRID*               3721               01.7454545457E+034.2967355569E+01+
*       -1.901304489E-06               0
GRID*               3722               01.7590909091E+034.3500000000E+01+
*       -1.492382138E-12               0
GRID*               3723               01.7590909098E+034.1369420465E+01+
*       -1.344686963E+01               0
GRID*               3724               01.7727272727E+034.3500000000E+01+
*       -1.920828235E-12               0
GRID*               3725               01.7454545464E+033.5194694907E+01+
*       -2.556442653E+01               0
GRID*               3726               01.7590909098E+033.5194706548E+01+
*       -2.556441136E+01               0
GRID*               3727               01.7590909099E+032.5564352802E+01+
*       -3.519475147E+01               0
GRID*               3728               01.7727272732E+033.5194714992E+01+
*       -2.556440035E+01               0
GRID*               3729               01.7318181831E+03-2.556444622E+01+
*       -3.519467980E+01               0
GRID*               3730               01.7181818202E+03-3.519483390E+01+
*       -2.556424536E+01               0
GRID*               3731               01.7318181834E+03-3.519480115E+01+
*       -2.556428805E+01               0
GRID*               3732               01.7318181829E+03-4.136942666E+01+
*       -1.344685136E+01               0
GRID*               3733               01.7181818182E+03-4.350000000E+01+
*       1.2593161066E-13               0
GRID*               3734               01.7318181818E+03-4.350000000E+01+
*       2.7006397399E-13               0
GRID*               3735               01.7318181830E+03-4.136941870E+01+
*       1.3446874831E+01               0
GRID*               3736               01.7181818198E+03-3.476270471E+01+
*       2.5253565637E+01               0
GRID*               3737               01.7318181831E+03-3.476271826E+01+
*       2.5253547526E+01               0
GRID*               3738               01.7318181834E+03-2.556428805E+01+
*       3.5194801147E+01               0
GRID*               3739               01.7181818195E+03-1.344684504E+01+
*       4.1369428807E+01               0
GRID*               3740               01.7318181829E+03-1.344685136E+01+
*       4.1369426664E+01               0
GRID*               3741               01.7318181818E+031.0226449433E-14+
*       4.3500000000E+01               0
GRID*               3742               01.7181818193E+031.3156096547E+01+
*       4.0484754787E+01               0
GRID*               3743               01.7318181827E+031.3031474545E+01+
*       4.0105614039E+01               0
GRID*               3744               01.7318181831E+032.5564446709E+01+
*       3.5194679428E+01               0
GRID*               3745               01.7181818202E+033.5194833898E+01+
*       2.5564245360E+01               0
GRID*               3746               01.7318181834E+033.5194801147E+01+
*       2.5564288050E+01               0
GRID*               3747               01.7318181829E+034.1369426706E+01+
*       1.3446851236E+01               0
GRID*               3748               01.7181818188E+034.2567872642E+01+
*       -7.254141338E-06               0
GRID*               3749               01.7318181823E+034.2567871778E+01+
*       -4.707816726E-06               0
GRID*               3750               01.7318181830E+034.1369418700E+01+
*       -1.344687483E+01               0
GRID*               3751               01.7181818198E+033.5194662455E+01+
*       -2.556446883E+01               0
GRID*               3752               01.7318181831E+033.5194680174E+01+
*       -2.556444574E+01               0
GRID*               3753               01.7318181834E+032.5564287210E+01+
*       -3.519480179E+01               0
GRID*               3754               01.7045454565E+03-2.556449568E+01+
*       -3.519464186E+01               0
GRID*               3755               01.6909090940E+03-3.519491341E+01+
*       -2.556414171E+01               0
GRID*               3756               01.7045454571E+03-3.519487144E+01+
*       -2.556419642E+01               0
GRID*               3757               01.7045454560E+03-4.136943127E+01+
*       -1.344683780E+01               0
GRID*               3758               01.6909090909E+03-4.350000000E+01+
*       6.3979980805E-14               0
GRID*               3759               01.7045454545E+03-4.350000000E+01+
*       2.2328417186E-13               0
GRID*               3760               01.7045454560E+03-4.136941615E+01+
*       1.3446882344E+01               0
GRID*               3761               01.6909090932E+03-3.433069833E+01+
*       2.4942713115E+01               0
GRID*               3762               01.7045454566E+03-3.433071074E+01+
*       2.4942695746E+01               0
GRID*               3763               01.7045454571E+03-2.556419642E+01+
*       3.5194871442E+01               0
GRID*               3764               01.6909090925E+03-1.344682970E+01+
*       4.1369434013E+01               0
GRID*               3765               01.7045454560E+03-1.344683780E+01+
*       4.1369431265E+01               0
GRID*               3766               01.7045454545E+035.3272133985E-15+
*       4.3500000000E+01               0
GRID*               3767               01.6909090926E+031.3446886754E+01+
*       4.1369414654E+01               0
GRID*               3768               01.7045454560E+031.3446882210E+01+
*       4.1369416196E+01               0
GRID*               3769               01.7045454565E+032.5564495682E+01+
*       3.5194641857E+01               0
GRID*               3770               01.6909090940E+033.5194913415E+01+
*       2.5564141711E+01               0
GRID*               3771               01.7045454571E+033.5194871442E+01+
*       2.5564196422E+01               0
GRID*               3772               01.7045454560E+034.1369431265E+01+
*       1.3446837799E+01               0
GRID*               3773               01.6909090909E+034.3500000000E+01+
*       -1.836276900E-12               0
GRID*               3774               01.7045454549E+034.2967355433E+01+
*       -5.213949776E-06               0
GRID*               3775               01.7045454560E+034.1369416173E+01+
*       -1.344688228E+01               0
GRID*               3776               01.6909090932E+033.5194618486E+01+
*       -2.556452615E+01               0
GRID*               3777               01.7045454565E+033.5194641857E+01+
*       -2.556449568E+01               0
GRID*               3778               01.7045454571E+032.5564196422E+01+
*       -3.519487144E+01               0
GRID*               3779               01.6772727299E+03-2.556456008E+01+
*       -3.519459245E+01               0
GRID*               3780               01.6636363679E+03-3.519500918E+01+
*       -2.556401688E+01               0
GRID*               3781               01.6772727309E+03-3.519495945E+01+
*       -2.556408170E+01               0
GRID*               3782               01.6772727290E+03-4.136943703E+01+
*       -1.344682082E+01               0
GRID*               3783               01.6636363636E+03-4.350000000E+01+
*       1.5935859694E-14               0
GRID*               3784               01.6772727273E+03-4.350000000E+01+
*       1.6133254200E-13               0
GRID*               3785               01.6772727291E+03-4.136941294E+01+
*       1.3446891816E+01               0
GRID*               3786               01.6636363667E+03-3.519456386E+01+
*       2.5564597347E+01               0
GRID*               3787               01.6772727299E+03-3.519459245E+01+
*       2.5564560081E+01               0
GRID*               3788               01.6772727309E+03-2.556408170E+01+
*       3.5194959450E+01               0
GRID*               3789               01.6636363655E+03-1.344681122E+01+
*       4.1369440285E+01               0
GRID*               3790               01.6772727290E+03-1.344682082E+01+
*       4.1369437028E+01               0
GRID*               3791               01.6772727273E+033.0613592931E-14+
*       4.3500000000E+01               0
GRID*               3792               01.6636363656E+031.3446897374E+01+
*       4.1369411050E+01               0
GRID*               3793               01.6772727291E+031.3446891816E+01+
*       4.1369412937E+01               0
GRID*               3794               01.6772727299E+032.5564560081E+01+
*       3.5194592452E+01               0
GRID*               3795               01.6636363679E+033.5195009179E+01+
*       2.5564016884E+01               0
GRID*               3796               01.6772727309E+033.5194959450E+01+
*       2.5564081704E+01               0
GRID*               3797               01.6772727290E+034.1369437028E+01+
*       1.3446820815E+01               0
GRID*               3798               01.6636363636E+034.3500000000E+01+
*       -1.837541219E-12               0
GRID*               3799               01.6772727273E+034.3500000000E+01+
*       -1.438016422E-12               0
GRID*               3800               01.6772727291E+034.1369412937E+01+
*       -1.344689182E+01               0
GRID*               3801               01.6636363667E+033.5194563862E+01+
*       -2.556459735E+01               0
GRID*               3802               01.6772727299E+033.5194592452E+01+
*       -2.556456008E+01               0
GRID*               3803               01.6772727309E+032.5564081704E+01+
*       -3.519495945E+01               0
GRID*               3804               01.6500000034E+03-2.556463780E+01+
*       -3.519453283E+01               0
GRID*               3805               01.6363636418E+03-3.519511822E+01+
*       -2.556387475E+01               0
GRID*               3806               01.6500000048E+03-3.519506223E+01+
*       -2.556394774E+01               0
GRID*               3807               01.6500000019E+03-4.136944376E+01+
*       -1.344680097E+01               0
GRID*               3808               01.6363636364E+03-4.350000000E+01+
*       -5.992327890E-14               0
GRID*               3809               01.6500000000E+03-4.350000000E+01+
*       9.9380912151E-14               0
GRID*               3810               01.6500000021E+03-4.136940900E+01+
*       1.3446903408E+01               0
GRID*               3811               01.6363636402E+03-3.519449946E+01+
*       2.5564681297E+01               0
GRID*               3812               01.6500000034E+03-3.519453283E+01+
*       2.5564637800E+01               0
GRID*               3813               01.6500000048E+03-2.556394774E+01+
*       3.5195062227E+01               0
GRID*               3814               01.6363636384E+03-1.344679016E+01+
*       4.1369447429E+01               0
GRID*               3815               01.6500000019E+03-1.344680097E+01+
*       4.1369443760E+01               0
GRID*               3816               01.6500000000E+03-2.258700461E-15+
*       4.3500000000E+01               0
GRID*               3817               01.6363636386E+031.3446909894E+01+
*       4.1369406802E+01               0
GRID*               3818               01.6500000021E+031.3446903408E+01+
*       4.1369409003E+01               0
GRID*               3819               01.6500000034E+032.5564637800E+01+
*       3.5194532828E+01               0
GRID*               3820               01.6363636418E+033.5195118219E+01+
*       2.5563874752E+01               0
GRID*               3821               01.6500000048E+033.5195062227E+01+
*       2.5563947737E+01               0
GRID*               3822               01.6500000019E+034.1369443760E+01+
*       1.3446800975E+01               0
GRID*               3823               01.6363636369E+034.2967356779E+01+
*       -1.496650540E-05               0
GRID*               3824               01.6500000000E+034.3500000000E+01+
*       -1.353307051E-12               0
GRID*               3825               01.6500000021E+034.1369409003E+01+
*       -1.344690341E+01               0
GRID*               3826               01.6363636402E+033.5194499459E+01+
*       -2.556468130E+01               0
GRID*               3827               01.6500000034E+033.5194532828E+01+
*       -2.556463780E+01               0
GRID*               3828               01.6500000048E+032.5563947737E+01+
*       -3.519506223E+01               0
GRID*               3829               01.6227272770E+03-2.556472769E+01+
*       -3.519446387E+01               0
GRID*               3830               01.6090909158E+03-3.519523752E+01+
*       -2.556371925E+01               0
GRID*               3831               01.6227272788E+03-3.519517678E+01+
*       -2.556379842E+01               0
GRID*               3832               01.6227272748E+03-4.136945127E+01+
*       -1.344677885E+01               0
GRID*               3833               01.6090909091E+03-4.350000000E+01+
*       -1.079674000E-13               0
GRID*               3834               01.6227272727E+03-4.350000000E+01+
*       5.1336791040E-14               0
GRID*               3835               01.6227272751E+03-4.136940445E+01+
*       1.3446916813E+01               0
GRID*               3836               01.6090909138E+03-3.519442616E+01+
*       2.5564776834E+01               0
GRID*               3837               01.6227272770E+03-3.519446387E+01+
*       2.5564727690E+01               0
GRID*               3838               01.6227272788E+03-2.556379842E+01+
*       3.5195176777E+01               0
GRID*               3839               01.6090909113E+03-1.344676712E+01+
*       4.1369455248E+01               0
GRID*               3840               01.6227272748E+03-1.344677885E+01+
*       4.1369451267E+01               0
GRID*               3841               01.6227272727E+03-3.386667488E-14+
*       4.3500000000E+01               0
GRID*               3842               01.6090909115E+031.3446924141E+01+
*       4.1369401968E+01               0
GRID*               3843               01.6227272751E+031.3446916813E+01+
*       4.1369404455E+01               0
GRID*               3844               01.6227272770E+032.5564728034E+01+
*       3.5194463603E+01               0
GRID*               3845               01.6090909150E+033.4763207149E+01+
*       2.5252938596E+01               0
GRID*               3846               01.6227272781E+033.4763149651E+01+
*       2.5253007139E+01               0
GRID*               3847               01.6227272748E+034.1369451285E+01+
*       1.3446778799E+01               0
GRID*               3848               01.6090909097E+034.2967357152E+01+
*       -1.962785450E-05               0
GRID*               3849               01.6227272737E+034.2567873306E+01+
*       -2.930776551E-05               0
GRID*               3850               01.6227272751E+034.1369404437E+01+
*       -1.344691686E+01               0
GRID*               3851               01.6090909138E+033.4762459775E+01+
*       -2.525385283E+01               0
GRID*               3852               01.6227272770E+033.5194463867E+01+
*       -2.556472769E+01               0
GRID*               3853               01.6227272788E+032.5563798423E+01+
*       -3.519517678E+01               0
GRID*               3854               01.5954545506E+03-2.556482889E+01+
*       -3.519438623E+01               0
GRID*               3855               01.5818181899E+03-3.519536400E+01+
*       -2.556355438E+01               0
GRID*               3856               01.5954545529E+03-3.519530006E+01+
*       -2.556363773E+01               0
GRID*               3857               01.5954545477E+03-4.136945935E+01+
*       -1.344675503E+01               0
GRID*               3858               01.5818181818E+03-4.350000000E+01+
*       -1.560115211E-13               0
GRID*               3859               01.5954545455E+03-4.350000000E+01+
*       3.2926699291E-15               0
GRID*               3860               01.5954545480E+03-4.136939935E+01+
*       1.3446931856E+01               0
GRID*               3861               01.5818181875E+03-3.519434489E+01+
*       2.5564882780E+01               0
GRID*               3862               01.5954545506E+03-3.519438647E+01+
*       2.5564828581E+01               0
GRID*               3863               01.5954545529E+03-2.556363773E+01+
*       3.5195300056E+01               0
GRID*               3864               01.5818181841E+03-1.344674267E+01+
*       4.1369463543E+01               0
GRID*               3865               01.5954545477E+03-1.344675503E+01+
*       4.1369459349E+01               0
GRID*               3866               01.5954545455E+03-9.844614321E-15+
*       4.3500000000E+01               0
GRID*               3867               01.5818181845E+031.3114690663E+01+
*       4.0358284526E+01               0
GRID*               3868               01.5954545480E+031.3446931856E+01+
*       4.1369399350E+01               0
GRID*               3869               01.5954545506E+032.5564828581E+01+
*       3.5194386466E+01               0
GRID*               3870               01.5818181899E+033.5195364003E+01+
*       2.5563554376E+01               0
GRID*               3871               01.5954545529E+033.5195300056E+01+
*       2.5563637730E+01               0
GRID*               3872               01.5954545477E+034.1369459360E+01+
*       1.3446754999E+01               0
GRID*               3873               01.5818181834E+034.2168393797E+01+
*       -6.164500812E-05               0
GRID*               3874               01.5954545461E+034.2967356482E+01+
*       -2.160233591E-05               0
GRID*               3875               01.5954545480E+034.1369399350E+01+
*       -1.344693186E+01               0
GRID*               3876               01.5818181873E+033.4330410189E+01+
*       -2.494301738E+01               0
GRID*               3877               01.5954545507E+033.4438426587E+01+
*       -2.502071661E+01               0
GRID*               3878               01.5954545529E+032.5563637500E+01+
*       -3.519530023E+01               0
GRID*               3879               01.5681818243E+03-2.556493928E+01+
*       -3.519430154E+01               0
GRID*               3880               01.5545454640E+03-3.519549455E+01+
*       -2.556338421E+01               0
GRID*               3881               01.5681818270E+03-3.519542897E+01+
*       -2.556346970E+01               0
GRID*               3882               01.5681818205E+03-4.136946780E+01+
*       -1.344673011E+01               0
GRID*               3883               01.5545454545E+03-4.350000000E+01+
*       -2.179631510E-13               0
GRID*               3884               01.5681818182E+03-4.350000000E+01+
*       -7.256646867E-14               0
GRID*               3885               01.5681818209E+03-4.136939375E+01+
*       1.3446948360E+01               0
GRID*               3886               01.5545454611E+03-3.476228928E+01+
*       2.5254054906E+01               0
GRID*               3887               01.5681818243E+03-3.519430154E+01+
*       2.5564939282E+01               0
GRID*               3888               01.5681818270E+03-2.556346970E+01+
*       3.5195428966E+01               0
GRID*               3889               01.5545454569E+03-1.344671743E+01+
*       4.1369472109E+01               0
GRID*               3890               01.5681818205E+03-1.344673011E+01+
*       4.1369467805E+01               0
GRID*               3891               01.5681818182E+034.3414822569E-14+
*       4.3500000000E+01               0
GRID*               3892               01.5545454575E+031.3280842568E+01+
*       4.0863825156E+01               0
GRID*               3893               01.5681818213E+031.3031667489E+01+
*       4.0105477826E+01               0
GRID*               3894               01.5681818243E+032.5564939819E+01+
*       3.5194301127E+01               0
GRID*               3895               01.5545454640E+033.5195494547E+01+
*       2.5563384214E+01               0
GRID*               3896               01.5681818270E+033.5195428966E+01+
*       2.5563469698E+01               0
GRID*               3897               01.5681818205E+034.1369467815E+01+
*       1.3446730081E+01               0
GRID*               3898               01.5545454558E+034.2434715723E+01+
*       -5.991870413E-05               0
GRID*               3899               01.5681818201E+034.1902070373E+01+
*       -8.041104935E-05               0
GRID*               3900               01.5681818209E+034.1369393710E+01+
*       -1.344694848E+01               0
GRID*               3901               01.5545454608E+033.3898354760E+01+
*       -2.463216885E+01               0
GRID*               3902               01.5681818242E+033.3898368193E+01+
*       -2.463214775E+01               0
GRID*               3903               01.5681818270E+032.5563469496E+01+
*       -3.519542912E+01               0
GRID*               3904               01.5409090981E+03-2.556505858E+01+
*       -3.519421002E+01               0
GRID*               3905               01.5272727381E+03-3.519562596E+01+
*       -2.556321292E+01               0
GRID*               3906               01.5409091010E+03-3.519556035E+01+
*       -2.556329845E+01               0
GRID*               3907               01.5409090933E+03-4.136947643E+01+
*       -1.344670470E+01               0
GRID*               3908               01.5272727273E+03-4.350000000E+01+
*       -2.799147808E-13               0
GRID*               3909               01.5409090909E+03-4.350000000E+01+
*       -1.206105898E-13               0
GRID*               3910               01.5409090938E+03-4.136938769E+01+
*       1.3446966209E+01               0
GRID*               3911               01.5272727345E+03-3.433023041E+01+
*       2.4943210886E+01               0
GRID*               3912               01.5409090978E+03-3.411426741E+01+
*       2.4787704173E+01               0
GRID*               3913               01.5409091010E+03-2.556329848E+01+
*       3.5195560323E+01               0
GRID*               3914               01.5272727297E+03-1.344669199E+01+
*       4.1369480738E+01               0
GRID*               3915               01.5409090933E+03-1.344670470E+01+
*       4.1369476429E+01               0
GRID*               3916               01.5409090909E+033.9463825767E-14+
*       4.3500000000E+01               0
GRID*               3917               01.5272727302E+031.3446975454E+01+
*       4.1369384557E+01               0
GRID*               3918               01.5409090938E+031.3446966141E+01+
*       4.1369387717E+01               0
GRID*               3919               01.5409090981E+032.5565058579E+01+
*       3.5194210017E+01               0
GRID*               3920               01.5272727381E+033.5195625958E+01+
*       2.5563212922E+01               0
GRID*               3921               01.5409091010E+033.5195560346E+01+
*       2.5563298446E+01               0
GRID*               3922               01.5409090933E+034.1369476429E+01+
*       1.3446704696E+01               0
GRID*               3923               01.5272727273E+034.3500000000E+01+
*       -1.641571778E-12               0
GRID*               3924               01.5409090909E+034.3500000000E+01+
*       -1.242046981E-12               0
GRID*               3925               01.5409090938E+034.1369387694E+01+
*       -1.344696621E+01               0
GRID*               3926               01.5272727345E+033.4330230409E+01+
*       -2.494321089E+01               0
GRID*               3927               01.5409090978E+033.3898278894E+01+
*       -2.463223329E+01               0
GRID*               3928               01.5409091010E+032.5563298507E+01+
*       -3.519556030E+01               0
GRID*               3929               01.5136363718E+03-2.556518523E+01+
*       -3.519411285E+01               0
GRID*               3930               01.5000000121E+03-3.519575498E+01+
*       -2.556304475E+01               0
GRID*               3931               01.5136363751E+03-3.519569097E+01+
*       -2.556312818E+01               0
GRID*               3932               01.5136363661E+03-4.136948501E+01+
*       -1.344667940E+01               0
GRID*               3933               01.5000000000E+03-4.350000000E+01+
*       -3.266945830E-13               0
GRID*               3934               01.5136363636E+03-4.350000000E+01+
*       -1.686547109E-13               0
GRID*               3935               01.5136363666E+03-4.136938131E+01+
*       1.3446985016E+01               0
GRID*               3936               01.5000000087E+03-3.519406245E+01+
*       2.5565250927E+01               0
GRID*               3937               01.5136363718E+03-3.519411285E+01+
*       2.5565185235E+01               0
GRID*               3938               01.5136363751E+03-2.556312818E+01+
*       3.5195690972E+01               0
GRID*               3939               01.5000000024E+03-1.344666700E+01+
*       4.1369489219E+01               0
GRID*               3940               01.5136363661E+03-1.344667940E+01+
*       4.1369485011E+01               0
GRID*               3941               01.5136363636E+037.8558513517E-15+
*       4.3500000000E+01               0
GRID*               3942               01.5000000030E+031.3446994804E+01+
*       4.1369377991E+01               0
GRID*               3943               01.5136363666E+031.3446985016E+01+
*       4.1369381313E+01               0
GRID*               3944               01.5136363718E+032.5565185235E+01+
*       3.5194112850E+01               0
GRID*               3945               01.5000000121E+033.5195754975E+01+
*       2.5563044749E+01               0
GRID*               3946               01.5136363751E+033.5195690972E+01+
*       2.5563128177E+01               0
GRID*               3947               01.5136363661E+034.1369485011E+01+
*       1.3446679403E+01               0
GRID*               3948               01.5000000000E+034.3500000000E+01+
*       -1.613756760E-12               0
GRID*               3949               01.5136363636E+034.3500000000E+01+
*       -1.214231963E-12               0
GRID*               3950               01.5136363666E+034.1369381313E+01+
*       -1.344698502E+01               0
GRID*               3951               01.5000000087E+033.5194062453E+01+
*       -2.556525093E+01               0
GRID*               3952               01.5136363718E+033.5194112850E+01+
*       -2.556518523E+01               0
GRID*               3953               01.5136363751E+032.5563128177E+01+
*       -3.519569097E+01               0
GRID*               3954               01.4863636456E+03-2.556531813E+01+
*       -3.519401089E+01               0
GRID*               3955               01.4727272860E+03-3.519587827E+01+
*       -2.556288404E+01               0
GRID*               3956               01.4863636491E+03-3.519581755E+01+
*       -2.556296319E+01               0
GRID*               3957               01.4863636388E+03-4.136949334E+01+
*       -1.344665487E+01               0
GRID*               3958               01.4727272727E+03-4.350000000E+01+
*       -3.747387041E-13               0
GRID*               3959               01.4863636364E+03-4.350000000E+01+
*       -2.306063407E-13               0
GRID*               3960               01.4863636394E+03-4.136937460E+01+
*       1.3447004793E+01               0
GRID*               3961               01.4727272826E+03-3.519395865E+01+
*       2.5565386236E+01               0
GRID*               3962               01.4863636456E+03-3.519401101E+01+
*       2.5565317982E+01               0
GRID*               3963               01.4863636491E+03-2.556296319E+01+
*       3.5195817548E+01               0
GRID*               3964               01.4727272752E+03-1.344664309E+01+
*       4.1369497334E+01               0
GRID*               3965               01.4863636388E+03-1.344665487E+01+
*       4.1369493336E+01               0
GRID*               3966               01.4863636364E+034.0628944218E-15+
*       4.3500000000E+01               0
GRID*               3967               01.4727272758E+031.3447014960E+01+
*       4.1369371152E+01               0
GRID*               3968               01.4863636394E+031.3447004793E+01+
*       4.1369374602E+01               0
GRID*               3969               01.4863636456E+032.5565317982E+01+
*       3.5194011010E+01               0
GRID*               3970               01.4727272860E+033.5195878266E+01+
*       2.5562884042E+01               0
GRID*               3971               01.4863636491E+033.5195817548E+01+
*       2.5562963187E+01               0
GRID*               3972               01.4863636388E+034.1369493336E+01+
*       1.3446654869E+01               0
GRID*               3973               01.4727272727E+034.3500000000E+01+
*       -1.558126725E-12               0
GRID*               3974               01.4863636364E+034.3500000000E+01+
*       -1.158601928E-12               0
GRID*               3975               01.4863636394E+034.1369374602E+01+
*       -1.344700479E+01               0
GRID*               3976               01.4727272826E+033.5193958647E+01+
*       -2.556538624E+01               0
GRID*               3977               01.4863636456E+033.5194011010E+01+
*       -2.556531798E+01               0
GRID*               3978               01.4863636491E+032.5562963187E+01+
*       -3.519581755E+01               0
GRID*               3979               01.4590909195E+03-2.556545552E+01+
*       -3.519390549E+01               0
GRID*               3980               01.4454545598E+03-3.519599241E+01+
*       -2.556273525E+01               0
GRID*               3981               01.4590909229E+03-3.519593670E+01+
*       -2.556280787E+01               0
GRID*               3982               01.4590909115E+03-4.136950118E+01+
*       -1.344663174E+01               0
GRID*               3983               01.4454545455E+03-4.350000000E+01+
*       -4.366903339E-13               0
GRID*               3984               01.4590909091E+03-4.350000000E+01+
*       -2.773861429E-13               0
GRID*               3985               01.4590909122E+03-4.136936765E+01+
*       1.3447025280E+01               0
GRID*               3986               01.4454545564E+03-3.519385167E+01+
*       2.5565525680E+01               0
GRID*               3987               01.4590909195E+03-3.519390549E+01+
*       2.5565455525E+01               0
GRID*               3988               01.4590909229E+03-2.556280787E+01+
*       3.5195936700E+01               0
GRID*               3989               01.4454545478E+03-1.344662091E+01+
*       4.1369504859E+01               0
GRID*               3990               01.4590909115E+03-1.344663174E+01+
*       4.1369501184E+01               0
GRID*               3991               01.4590909091E+030.0000000000E+00+
*       4.3500000000E+01               0
GRID*               3992               01.4454545486E+031.3447035728E+01+
*       4.1369364105E+01               0
GRID*               3993               01.4590909122E+031.3447025280E+01+
*       4.1369367650E+01               0
GRID*               3994               01.4590909195E+032.5565455525E+01+
*       3.5193905491E+01               0
GRID*               3995               01.4454545598E+033.5195992414E+01+
*       2.5562735252E+01               0
GRID*               3996               01.4590909229E+033.5195936700E+01+
*       2.5562807875E+01               0
GRID*               3997               01.4590909115E+034.1369501184E+01+
*       1.3446631739E+01               0
GRID*               3998               01.4454545455E+034.3500000000E+01+
*       -1.502496690E-12               0
GRID*               3999               01.4590909091E+034.3500000000E+01+
*       -1.102971894E-12               0
GRID*               4000               01.4590909122E+034.1369367650E+01+
*       -1.344702528E+01               0
GRID*               4001               01.4454545564E+033.5193851669E+01+
*       -2.556552568E+01               0
GRID*               4002               01.4590909195E+033.5193905491E+01+
*       -2.556545552E+01               0
GRID*               4003               01.4590909229E+032.5562807875E+01+
*       -3.519593670E+01               0
GRID*               4004               01.4318181933E+03-2.556559660E+01+
*       -3.519379726E+01               0
GRID*               4005               01.4181818335E+03-3.519609391E+01+
*       -2.556260295E+01               0
GRID*               4006               01.4318181967E+03-3.519604497E+01+
*       -2.556266675E+01               0
GRID*               4007               01.4318181842E+03-4.136950833E+01+
*       -1.344661068E+01               0
GRID*               4008               01.4181818182E+03-4.350000000E+01+
*       -4.986419638E-13               0
GRID*               4009               01.4318181818E+03-4.350000000E+01+
*       -3.545096004E-13               0
GRID*               4010               01.4318181850E+03-4.136936053E+01+
*       1.3447046277E+01               0
GRID*               4011               01.4181818302E+03-3.519374255E+01+
*       2.5565667913E+01               0
GRID*               4012               01.4318181933E+03-3.519379731E+01+
*       2.5565596534E+01               0
GRID*               4013               01.4318181967E+03-2.556266675E+01+
*       3.5196044967E+01               0
GRID*               4014               01.4181818205E+03-1.344660114E+01+
*       4.1369511568E+01               0
GRID*               4015               01.4318181842E+03-1.344661068E+01+
*       4.1369508330E+01               0
GRID*               4016               01.4318181818E+03-4.787338415E-15+
*       4.3500000000E+01               0
GRID*               4017               01.4181818214E+031.3447056903E+01+
*       4.1369356920E+01               0
GRID*               4018               01.4318181850E+031.3447046277E+01+
*       4.1369360526E+01               0
GRID*               4019               01.4318181933E+032.5565596534E+01+
*       3.5193797312E+01               0
GRID*               4020               01.4181818335E+033.5196093913E+01+
*       2.5562602949E+01               0
GRID*               4021               01.4318181967E+033.5196044967E+01+
*       2.5562666749E+01               0
GRID*               4022               01.4318181842E+034.1369508330E+01+
*       1.3446610679E+01               0
GRID*               4023               01.4181818182E+034.3500000000E+01+
*       -1.445602336E-12               0
GRID*               4024               01.4318181818E+034.3500000000E+01+
*       -1.046077540E-12               0
GRID*               4025               01.4318181850E+034.1369360526E+01+
*       -1.344704628E+01               0
GRID*               4026               01.4181818302E+033.5193742551E+01+
*       -2.556566791E+01               0
GRID*               4027               01.4318181933E+033.5193797312E+01+
*       -2.556559653E+01               0
GRID*               4028               01.4318181967E+032.5562666749E+01+
*       -3.519604497E+01               0
GRID*               4029               01.4045454671E+03-2.556573964E+01+
*       -3.519368752E+01               0
GRID*               4030               01.3909091070E+03-3.519617916E+01+
*       -2.556249183E+01               0
GRID*               4031               01.4045454703E+03-3.519613880E+01+
*       -2.556254444E+01               0
GRID*               4032               01.4045454568E+03-4.136951454E+01+
*       -1.344659237E+01               0
GRID*               4033               01.3909090909E+03-4.350000000E+01+
*       -5.327785762E-13               0
GRID*               4034               01.4045454545E+03-4.350000000E+01+
*       -3.734743851E-13               0
GRID*               4035               01.4045454577E+03-4.136935330E+01+
*       1.3447067580E+01               0
GRID*               4036               01.3909091040E+03-3.519363236E+01+
*       2.5565811551E+01               0
GRID*               4037               01.4045454671E+03-3.519368752E+01+
*       2.5565739645E+01               0
GRID*               4038               01.4045454703E+03-2.556254444E+01+
*       3.5196138798E+01               0
GRID*               4039               01.3909090931E+03-1.344658447E+01+
*       4.1369517224E+01               0
GRID*               4040               01.4045454568E+03-1.344659237E+01+
*       4.1369514542E+01               0
GRID*               4041               01.4045454545E+03-8.580295344E-15+
*       4.3500000000E+01               0
GRID*               4042               01.3909090941E+031.3447078280E+01+
*       4.1369349667E+01               0
GRID*               4043               01.4045454577E+031.3447067580E+01+
*       4.1369353297E+01               0
GRID*               4044               01.4045454671E+032.5565739645E+01+
*       3.5193687521E+01               0
GRID*               4045               01.3909091070E+033.5196179161E+01+
*       2.5562491830E+01               0
GRID*               4046               01.4045454703E+033.5196138798E+01+
*       2.5562544443E+01               0
GRID*               4047               01.4045454568E+034.1369514542E+01+
*       1.3446592371E+01               0
GRID*               4048               01.3909090909E+034.3500000000E+01+
*       -1.446866655E-12               0
GRID*               4049               01.4045454545E+034.3500000000E+01+
*       -1.018262522E-12               0
GRID*               4050               01.4045454577E+034.1369353297E+01+
*       -1.344706758E+01               0
GRID*               4051               01.3909091040E+033.5193632357E+01+
*       -2.556581155E+01               0
GRID*               4052               01.4045454671E+033.5193687521E+01+
*       -2.556573964E+01               0
GRID*               4053               01.4045454703E+032.5562544443E+01+
*       -3.519613880E+01               0
GRID*               4054               01.3772727410E+03-2.556588345E+01+
*       -3.519357720E+01               0
GRID*               4055               01.3636363803E+03-3.519624445E+01+
*       -2.556240673E+01               0
GRID*               4056               01.3772727437E+03-3.519621453E+01+
*       -2.556244572E+01               0
GRID*               4057               01.3772727295E+03-4.136951958E+01+
*       -1.344657752E+01               0
GRID*               4058               01.3636363636E+03-4.350000000E+01+
*       -5.947302060E-13               0
GRID*               4059               01.3772727273E+03-4.350000000E+01+
*       -4.493335237E-13               0
GRID*               4060               01.3772727305E+03-4.136934604E+01+
*       1.3447088978E+01               0
GRID*               4061               01.3636363779E+03-3.519352218E+01+
*       2.5565955167E+01               0
GRID*               4062               01.3772727410E+03-3.519357720E+01+
*       2.5565883452E+01               0
GRID*               4063               01.3772727437E+03-2.556244572E+01+
*       3.5196214535E+01               0
GRID*               4064               01.3636363658E+03-1.344657161E+01+
*       4.1369521586E+01               0
GRID*               4065               01.3772727295E+03-1.344657752E+01+
*       4.1369519582E+01               0
GRID*               4066               01.3772727273E+031.6706084188E-14+
*       4.3500000000E+01               0
GRID*               4067               01.3636363668E+031.3447099646E+01+
*       4.1369342417E+01               0
GRID*               4068               01.3772727305E+031.3447088978E+01+
*       4.1369346037E+01               0
GRID*               4069               01.3772727410E+032.5565883452E+01+
*       3.5193577196E+01               0
GRID*               4070               01.3636363803E+033.5196244445E+01+
*       2.5562406733E+01               0
GRID*               4071               01.3772727437E+033.5196214535E+01+
*       2.5562445721E+01               0
GRID*               4072               01.3772727295E+034.1369519582E+01+
*       1.3446577518E+01               0
GRID*               4073               01.3636363636E+034.3500000000E+01+
*       -1.448130974E-12               0
GRID*               4074               01.3772727273E+034.3500000000E+01+
*       -1.047341859E-12               0
GRID*               4075               01.3772727305E+034.1369346037E+01+
*       -1.344708898E+01               0
GRID*               4076               01.3636363779E+033.5193522178E+01+
*       -2.556595517E+01               0
GRID*               4077               01.3772727410E+033.5193577196E+01+
*       -2.556588345E+01               0
GRID*               4078               01.3772727437E+032.5562445721E+01+
*       -3.519621453E+01               0
GRID*               4079               01.3500000148E+03-2.556602651E+01+
*       -3.519346745E+01               0
GRID*               4080               01.3363636534E+03-3.519628593E+01+
*       -2.556235265E+01               0
GRID*               4081               01.3500000169E+03-3.519626841E+01+
*       -2.556237550E+01               0
GRID*               4082               01.3500000021E+03-4.136952320E+01+
*       -1.344656684E+01               0
GRID*               4083               01.3363636364E+03-4.350000000E+01+
*       -6.705893446E-13               0
GRID*               4084               01.3500000000E+03-4.350000000E+01+
*       -4.973776448E-13               0
GRID*               4085               01.3500000032E+03-4.136933882E+01+
*       1.3447110255E+01               0
GRID*               4086               01.3363636517E+03-3.519341315E+01+
*       2.5566097290E+01               0
GRID*               4087               01.3500000148E+03-3.519346745E+01+
*       2.5566026509E+01               0
GRID*               4088               01.3500000169E+03-2.556237550E+01+
*       3.5196268409E+01               0
GRID*               4089               01.3363636384E+03-1.344656331E+01+
*       4.1369524405E+01               0
GRID*               4090               01.3500000021E+03-1.344656684E+01+
*       4.1369523204E+01               0
GRID*               4091               01.3500000000E+031.2913127258E-14+
*       4.3500000000E+01               0
GRID*               4092               01.3363636396E+031.3447120778E+01+
*       4.1369335247E+01               0
GRID*               4093               01.3500000032E+031.3447110255E+01+
*       4.1369338817E+01               0
GRID*               4094               01.3500000148E+032.5566026509E+01+
*       3.5193467446E+01               0
GRID*               4095               01.3363636534E+033.5196285935E+01+
*       2.5562352652E+01               0
GRID*               4096               01.3500000169E+033.5196268409E+01+
*       2.5562375497E+01               0
GRID*               4097               01.3500000021E+034.1369523204E+01+
*       1.3446566843E+01               0
GRID*               4098               01.3363636364E+034.3500000000E+01+
*       -1.420315957E-12               0
GRID*               4099               01.3500000000E+034.3500000000E+01+
*       -1.020791160E-12               0
GRID*               4100               01.3500000032E+034.1369338817E+01+
*       -1.344711026E+01               0
GRID*               4101               01.3363636517E+033.5193413145E+01+
*       -2.556609729E+01               0
GRID*               4102               01.3500000148E+033.5193467446E+01+
*       -2.556602651E+01               0
GRID*               4103               01.3500000169E+032.5562375497E+01+
*       -3.519626841E+01               0
GRID*               4104               01.3227272886E+03-2.556616732E+01+
*       -3.519335942E+01               0
GRID*               4105               01.3090909261E+03-3.519629967E+01+
*       -2.556233475E+01               0
GRID*               4106               01.3227272898E+03-3.519629652E+01+
*       -2.556233885E+01               0
GRID*               4107               01.3227272747E+03-4.136952515E+01+
*       -1.344656109E+01               0
GRID*               4108               01.3090909091E+03-4.350000000E+01+
*       -6.895541292E-13               0
GRID*               4109               01.3227272727E+03-4.350000000E+01+
*       -5.441574469E-13               0
GRID*               4110               01.3227272759E+03-4.136933171E+01+
*       1.3447131186E+01               0
GRID*               4111               01.3090909254E+03-3.519330643E+01+
*       2.5566236397E+01               0
GRID*               4112               01.3227272886E+03-3.519335942E+01+
*       2.5566167318E+01               0
GRID*               4113               01.3227272898E+03-2.556233885E+01+
*       3.5196296524E+01               0
GRID*               4114               01.3090909109E+03-1.344656031E+01+
*       4.1369525421E+01               0
GRID*               4115               01.3227272747E+03-1.344656109E+01+
*       4.1369525155E+01               0
GRID*               4116               01.3227272727E+037.8558513517E-15+
*       4.3500000000E+01               0
GRID*               4117               01.3090909123E+031.3447141450E+01+
*       4.1369328232E+01               0
GRID*               4118               01.3227272759E+031.3447131186E+01+
*       4.1369331715E+01               0
GRID*               4119               01.3227272886E+032.5566167318E+01+
*       3.5193359421E+01               0
GRID*               4120               01.3090909261E+033.5196299668E+01+
*       2.5562334751E+01               0
GRID*               4121               01.3227272898E+033.5196296524E+01+
*       2.5562338849E+01               0
GRID*               4122               01.3227272747E+034.1369525155E+01+
*       1.3446561095E+01               0
GRID*               4123               01.3090909091E+034.3500000000E+01+
*       -1.363421603E-12               0
GRID*               4124               01.3227272727E+034.3500000000E+01+
*       -9.360817886E-13               0
GRID*               4125               01.3227272759E+034.1369331715E+01+
*       -1.344713119E+01               0
GRID*               4126               01.3090909254E+033.5193306425E+01+
*       -2.556623640E+01               0
GRID*               4127               01.3227272886E+033.5193359421E+01+
*       -2.556616732E+01               0
GRID*               4128               01.3227272898E+032.5562338849E+01+
*       -3.519629652E+01               0
GRID*               4129               01.2954545623E+03-2.556630433E+01+
*       -3.519325431E+01               0
GRID*               4130               01.2818181985E+03-3.519628154E+01+
*       -2.556235839E+01               0
GRID*               4131               01.2954545624E+03-3.519629485E+01+
*       -2.556234103E+01               0
GRID*               4132               01.2954545472E+03-4.136952517E+01+
*       -1.344656105E+01               0
GRID*               4133               01.2818181818E+03-4.350000000E+01+
*       -7.515057591E-13               0
GRID*               4134               01.2954545455E+03-4.350000000E+01+
*       -5.934658870E-13               0
GRID*               4135               01.2954545486E+03-4.136932481E+01+
*       1.3447151540E+01               0
GRID*               4136               01.2818181991E+03-3.519320323E+01+
*       2.5566370912E+01               0
GRID*               4137               01.2954545623E+03-3.519325431E+01+
*       2.5566304330E+01               0
GRID*               4138               01.2954545624E+03-2.556234103E+01+
*       3.5196294848E+01               0
GRID*               4139               01.2818181835E+03-1.344656341E+01+
*       4.1369524368E+01               0
GRID*               4140               01.2954545472E+03-1.344656105E+01+
*       4.1369525171E+01               0
GRID*               4141               01.2954545455E+035.3272133985E-15+
*       4.3500000000E+01               0
GRID*               4142               01.2818181849E+031.3447161426E+01+
*       4.1369321454E+01               0
GRID*               4143               01.2954545486E+031.3447151540E+01+
*       4.1369324809E+01               0
GRID*               4144               01.2954545623E+032.5566304330E+01+
*       3.5193254309E+01               0
GRID*               4145               01.2818181985E+033.5196281536E+01+
*       2.5562358386E+01               0
GRID*               4146               01.2954545624E+033.5196294848E+01+
*       2.5562341034E+01               0
GRID*               4147               01.2954545472E+034.1369525171E+01+
*       1.3446561048E+01               0
GRID*               4148               01.2818181818E+034.3500000000E+01+
*       -1.307791568E-12               0
GRID*               4149               01.2954545455E+034.3500000000E+01+
*       -9.373461076E-13               0
GRID*               4150               01.2954545486E+034.1369324809E+01+
*       -1.344715154E+01               0
GRID*               4151               01.2818181991E+033.5193203229E+01+
*       -2.556637091E+01               0
GRID*               4152               01.2954545623E+033.5193254309E+01+
*       -2.556630433E+01               0
GRID*               4153               01.2954545624E+032.5562341034E+01+
*       -3.519629485E+01               0
GRID*               4154               01.2681818360E+03-2.556643594E+01+
*       -3.519315334E+01               0
GRID*               4155               01.2545454706E+03-3.519622727E+01+
*       -2.556242912E+01               0
GRID*               4156               01.2681818346E+03-3.519625919E+01+
*       -2.556238751E+01               0
GRID*               4157               01.2681818198E+03-4.136952298E+01+
*       -1.344656751E+01               0
GRID*               4158               01.2545454545E+03-4.350000000E+01+
*       -8.147217079E-13               0
GRID*               4159               01.2681818182E+03-4.350000000E+01+
*       -6.680607066E-13               0
GRID*               4160               01.2681818213E+03-4.136931818E+01+
*       1.3447171076E+01               0
GRID*               4161               01.2545454728E+03-3.519310481E+01+
*       2.5566499193E+01               0
GRID*               4162               01.2681818360E+03-3.519315334E+01+
*       2.5566435937E+01               0
GRID*               4163               01.2681818346E+03-2.556238751E+01+
*       3.5196259194E+01               0
GRID*               4164               01.2545454561E+03-1.344657344E+01+
*       4.1369520967E+01               0
GRID*               4165               01.2681818198E+03-1.344656751E+01+
*       4.1369522979E+01               0
GRID*               4166               01.2681818182E+032.9349273954E-14+
*       4.3500000000E+01               0
GRID*               4167               01.2545454576E+031.3447180459E+01+
*       4.1369314996E+01               0
GRID*               4168               01.2681818213E+031.3447171076E+01+
*       4.1369318180E+01               0
GRID*               4169               01.2681818360E+032.5566435937E+01+
*       3.5193153344E+01               0
GRID*               4170               01.2545454706E+033.5196227271E+01+
*       2.5562429119E+01               0
GRID*               4171               01.2681818346E+033.5196259194E+01+
*       2.5562387508E+01               0
GRID*               4172               01.2681818198E+034.1369522979E+01+
*       1.3446567507E+01               0
GRID*               4173               01.2545454545E+034.3500000000E+01+
*       -1.336870904E-12               0
GRID*               4174               01.2681818182E+034.3500000000E+01+
*       -8.804517536E-13               0
GRID*               4175               01.2681818213E+034.1369318180E+01+
*       -1.344717108E+01               0
GRID*               4176               01.2545454728E+033.5193104815E+01+
*       -2.556649919E+01               0
GRID*               4177               01.2681818360E+033.5193153344E+01+
*       -2.556643594E+01               0
GRID*               4178               01.2681818346E+032.5562387508E+01+
*       -3.519625919E+01               0
GRID*               4179               01.2409091096E+03-2.556656019E+01+
*       -3.519305802E+01               0
GRID*               4180               01.2272727422E+03-3.519613242E+01+
*       -2.556255275E+01               0
GRID*               4181               01.2409091065E+03-3.519618521E+01+
*       -2.556248395E+01               0
GRID*               4182               01.2409090923E+03-4.136951830E+01+
*       -1.344658131E+01               0
GRID*               4183               01.2272727273E+03-4.350000000E+01+
*       -8.615015101E-13               0
GRID*               4184               01.2409090909E+03-4.350000000E+01+
*       -7.021973190E-13               0
GRID*               4185               01.2409090939E+03-4.136931191E+01+
*       1.3447189543E+01               0
GRID*               4186               01.2272727464E+03-3.519301249E+01+
*       2.5566619532E+01               0
GRID*               4187               01.2409091096E+03-3.519305781E+01+
*       2.5566560465E+01               0
GRID*               4188               01.2409091065E+03-2.556248395E+01+
*       3.5196185206E+01               0
GRID*               4189               01.2272727286E+03-1.344659123E+01+
*       4.1369514928E+01               0
GRID*               4190               01.2409090923E+03-1.344658131E+01+
*       4.1369518296E+01               0
GRID*               4191               01.2409090909E+032.5556317024E-14+
*       4.3500000000E+01               0
GRID*               4192               01.2272727303E+031.3447198294E+01+
*       4.1369308944E+01               0
GRID*               4193               01.2409090939E+031.3447189543E+01+
*       4.1369311914E+01               0
GRID*               4194               01.2409091096E+032.5566560465E+01+
*       3.5193057809E+01               0
GRID*               4195               01.2272727422E+033.5196132424E+01+
*       2.5562552751E+01               0
GRID*               4196               01.2409091065E+033.5196185206E+01+
*       2.5562483951E+01               0
GRID*               4197               01.2409090923E+034.1369518296E+01+
*       1.3446581307E+01               0
GRID*               4198               01.2272727273E+034.3500000000E+01+
*       -1.281240869E-12               0
GRID*               4199               01.2409090909E+034.3500000000E+01+
*       -8.817160726E-13               0
GRID*               4200               01.2409090939E+034.1369311914E+01+
*       -1.344718954E+01               0
GRID*               4201               01.2272727464E+033.5193012494E+01+
*       -2.556661953E+01               0
GRID*               4202               01.2409091096E+033.5193057809E+01+
*       -2.556656047E+01               0
GRID*               4203               01.2409091065E+032.5562483951E+01+
*       -3.519618521E+01               0
GRID*               4204               01.2136363832E+03-2.556667617E+01+
*       -3.519296904E+01               0
GRID*               4205               01.2000000134E+03-3.519599235E+01+
*       -2.556273534E+01               0
GRID*               4206               01.2136363779E+03-3.519606834E+01+
*       -2.556263629E+01               0
GRID*               4207               01.2136363648E+03-4.136951083E+01+
*       -1.344660332E+01               0
GRID*               4208               01.2000000000E+03-4.350000000E+01+
*       -9.386249676E-13               0
GRID*               4209               01.2136363636E+03-4.350000000E+01+
*       -7.793207766E-13               0
GRID*               4210               01.2136363666E+03-4.136930610E+01+
*       1.3447206679E+01               0
GRID*               4211               01.2000000199E+03-3.519292764E+01+
*       2.5566730144E+01               0
GRID*               4212               01.2136363832E+03-3.519296904E+01+
*       2.5566676169E+01               0
GRID*               4213               01.2136363779E+03-2.556263629E+01+
*       3.5196068338E+01               0
GRID*               4214               01.2000000011E+03-1.344661770E+01+
*       4.1369505949E+01               0
GRID*               4215               01.2136363648E+03-1.344660332E+01+
*       4.1369510826E+01               0
GRID*               4216               01.2136363636E+03-6.051657391E-15+
*       4.3500000000E+01               0
GRID*               4217               01.2000000029E+031.3447214664E+01+
*       4.1369303390E+01               0
GRID*               4218               01.2136363666E+031.3447206679E+01+
*       4.1369306099E+01               0
GRID*               4219               01.2136363832E+032.5566676169E+01+
*       3.5192969044E+01               0
GRID*               4220               01.2000000134E+033.5195992346E+01+
*       2.5562735340E+01               0
GRID*               4221               01.2136363779E+033.5196068338E+01+
*       2.5562636287E+01               0
GRID*               4222               01.2136363648E+034.1369510826E+01+
*       1.3446603324E+01               0
GRID*               4223               01.2000000000E+034.3500000000E+01+
*       -1.225610834E-12               0
GRID*               4224               01.2136363636E+034.3500000000E+01+
*       -8.248217187E-13               0
GRID*               4225               01.2136363666E+034.1369306099E+01+
*       -1.344720668E+01               0
GRID*               4226               01.2000000199E+033.5192927635E+01+
*       -2.556673014E+01               0
GRID*               4227               01.2136363832E+033.5192969044E+01+
*       -2.556667617E+01               0
GRID*               4228               01.2136363779E+032.5562636287E+01+
*       -3.519606834E+01               0
GRID*               4229               01.1863636566E+03-2.556678122E+01+
*       -3.519288845E+01               0
GRID*               4230               01.1727272841E+03-3.519580217E+01+
*       -2.556298323E+01               0
GRID*               4231               01.1863636488E+03-3.519590383E+01+
*       -2.556285072E+01               0
GRID*               4232               01.1863636374E+03-4.136950026E+01+
*       -1.344663447E+01               0
GRID*               4233               01.1727272727E+03-4.350000000E+01+
*       -9.714972610E-13               0
GRID*               4234               01.1863636364E+03-4.350000000E+01+
*       -8.261005787E-13               0
GRID*               4235               01.1863636393E+03-4.136930083E+01+
*       1.3447222212E+01               0
GRID*               4236               01.1727272933E+03-3.519285168E+01+
*       2.5566829157E+01               0
GRID*               4237               01.1863636566E+03-3.519288845E+01+
*       2.5566781221E+01               0
GRID*               4238               01.1863636488E+03-2.556285072E+01+
*       3.5195903834E+01               0
GRID*               4239               01.1727272736E+03-1.344665376E+01+
*       4.1369493711E+01               0
GRID*               4240               01.1863636374E+03-1.344663447E+01+
*       4.1369500258E+01               0
GRID*               4241               01.1863636364E+03-1.110893330E-14+
*       4.3500000000E+01               0
GRID*               4242               01.1727272756E+031.3447229287E+01+
*       4.1369298428E+01               0
GRID*               4243               01.1863636393E+031.3447222212E+01+
*       4.1369300829E+01               0
GRID*               4244               01.1863636566E+032.5566781221E+01+
*       3.5192888451E+01               0
GRID*               4245               01.1727272841E+033.5195802168E+01+
*       2.5562983235E+01               0
GRID*               4246               01.1863636488E+033.5195903834E+01+
*       2.5562850715E+01               0
GRID*               4247               01.1863636374E+034.1369500258E+01+
*       1.3446634470E+01               0
GRID*               4248               01.1727272727E+034.3500000000E+01+
*       -1.168716480E-12               0
GRID*               4249               01.1863636364E+034.3500000000E+01+
*       -7.691916837E-13               0
GRID*               4250               01.1863636393E+034.1369300829E+01+
*       -1.344722221E+01               0
GRID*               4251               01.1727272933E+033.5192851675E+01+
*       -2.556682916E+01               0
GRID*               4252               01.1863636566E+033.5192888451E+01+
*       -2.556678122E+01               0
GRID*               4253               01.1863636488E+032.5562850715E+01+
*       -3.519590383E+01               0
GRID*               4254               01.1590909300E+03-2.556687370E+01+
*       -3.519281750E+01               0
GRID*               4255               01.1454545542E+03-3.519555677E+01+
*       -2.556330311E+01               0
GRID*               4256               01.1590909192E+03-3.519568670E+01+
*       -2.556313374E+01               0
GRID*               4257               01.1590909099E+03-4.136948627E+01+
*       -1.344667570E+01               0
GRID*               4258               01.1454545455E+03-4.350000000E+01+
*       -1.018277063E-12               0
GRID*               4259               01.1590909091E+03-4.350000000E+01+
*       -8.602371911E-13               0
GRID*               4260               01.1590909119E+03-4.136929620E+01+
*       1.3447235853E+01               0
GRID*               4261               01.1454545666E+03-3.519278612E+01+
*       2.5566914604E+01               0
GRID*               4262               01.1590909300E+03-3.519281750E+01+
*       2.5566873703E+01               0
GRID*               4263               01.1590909192E+03-2.556313374E+01+
*       3.5195686701E+01               0
GRID*               4264               01.1454545461E+03-1.344670042E+01+
*       4.1369477881E+01               0
GRID*               4265               01.1590909099E+03-1.344667570E+01+
*       4.1369486266E+01               0
GRID*               4266               01.1590909091E+03-1.490189023E-14+
*       4.3500000000E+01               0
GRID*               4267               01.1454545482E+031.3447241870E+01+
*       4.1369294158E+01               0
GRID*               4268               01.1590909119E+031.3447235853E+01+
*       4.1369296200E+01               0
GRID*               4269               01.1590909300E+032.5566873703E+01+
*       3.5192817501E+01               0
GRID*               4270               01.1454545542E+033.5195556768E+01+
*       2.5563303109E+01               0
GRID*               4271               01.1590909192E+033.5195686701E+01+
*       2.5563133744E+01               0
GRID*               4272               01.1590909099E+034.1369486266E+01+
*       1.3446675703E+01               0
GRID*               4273               01.1454545455E+034.3500000000E+01+
*       -1.169980799E-12               0
GRID*               4274               01.1590909091E+034.3500000000E+01+
*       -7.691916837E-13               0
GRID*               4275               01.1590909119E+034.1369296200E+01+
*       -1.344723585E+01               0
GRID*               4276               01.1454545666E+033.5192786122E+01+
*       -2.556691460E+01               0
GRID*               4277               01.1590909300E+033.5192817501E+01+
*       -2.556687370E+01               0
GRID*               4278               01.1590909192E+032.5563133744E+01+
*       -3.519568670E+01               0
GRID*               4279               01.1318182033E+03-2.556695160E+01+
*       -3.519275774E+01               0
GRID*               4280               01.1181818237E+03-3.519525075E+01+
*       -2.556370200E+01               0
GRID*               4281               01.1318181890E+03-3.519541169E+01+
*       -2.556349222E+01               0
GRID*               4282               01.1318181823E+03-4.136946851E+01+
*       -1.344672804E+01               0
GRID*               4283               01.1181818182E+03-4.350000000E+01+
*       -1.067585503E-12               0
GRID*               4284               01.1318181818E+03-4.350000000E+01+
*       -9.209245020E-13               0
GRID*               4285               01.1318181845E+03-4.136929232E+01+
*       1.3447247300E+01               0
GRID*               4286               01.1181818398E+03-3.519273257E+01+
*       2.5566984411E+01               0
GRID*               4287               01.1318182033E+03-3.519275774E+01+
*       2.5566951597E+01               0
GRID*               4288               01.1318181890E+03-2.556349222E+01+
*       3.5195411685E+01               0
GRID*               4289               01.1181818186E+03-1.344675869E+01+
*       4.1369458107E+01               0
GRID*               4290               01.1318181823E+03-1.344672804E+01+
*       4.1369468510E+01               0
GRID*               4291               01.1318181818E+039.1201703283E-15+
*       4.3500000000E+01               0
GRID*               4292               01.1181818208E+031.3447252103E+01+
*       4.1369290686E+01               0
GRID*               4293               01.1318181845E+031.3447247300E+01+
*       4.1369292316E+01               0
GRID*               4294               01.1318182033E+032.5566951597E+01+
*       3.5192757743E+01               0
GRID*               4295               01.1181818237E+033.5195250748E+01+
*       2.5563702003E+01               0
GRID*               4296               01.1318181890E+033.5195411685E+01+
*       2.5563492223E+01               0
GRID*               4297               01.1318181823E+034.1369468510E+01+
*       1.3446728035E+01               0
GRID*               4298               01.1181818182E+034.3500000000E+01+
*       -1.169980799E-12               0
GRID*               4299               01.1318181818E+034.3500000000E+01+
*       -7.135616487E-13               0
GRID*               4300               01.1318181845E+034.1369292316E+01+
*       -1.344724730E+01               0
GRID*               4301               01.1181818398E+033.5192732568E+01+
*       -2.556698441E+01               0
GRID*               4302               01.1318182033E+033.5192757743E+01+
*       -2.556695160E+01               0
GRID*               4303               01.1318181890E+032.5563492223E+01+
*       -3.519541169E+01               0
GRID*               4304               01.1045454764E+03-2.556701277E+01+
*       -3.519271081E+01               0
GRID*               4305               01.0909090925E+03-3.519487839E+01+
*       -2.556418736E+01               0
GRID*               4306               01.1045454582E+03-3.519507323E+01+
*       -2.556393339E+01               0
GRID*               4307               01.1045454548E+03-4.136944663E+01+
*       -1.344679253E+01               0
GRID*               4308               01.0909090909E+03-4.350000000E+01+
*       -1.129537133E-12               0
GRID*               4309               01.1045454545E+03-4.350000000E+01+
*       -9.689686231E-13               0
GRID*               4310               01.1045454571E+03-4.136928928E+01+
*       1.3447256235E+01               0
GRID*               4311               01.0909091129E+03-3.519269270E+01+
*       2.5567036382E+01               0
GRID*               4312               01.1045454764E+03-3.519271081E+01+
*       2.5567012768E+01               0
GRID*               4313               01.1045454582E+03-2.556393339E+01+
*       3.5195073232E+01               0
GRID*               4314               01.0909090910E+03-1.344682969E+01+
*       4.1369434016E+01               0
GRID*               4315               01.1045454548E+03-1.344679253E+01+
*       4.1369446625E+01               0
GRID*               4316               01.1045454545E+03-2.248780409E-14+
*       4.3500000000E+01               0
GRID*               4317               01.0909090934E+031.3447259655E+01+
*       4.1369288124E+01               0
GRID*               4318               01.1045454571E+031.3447256235E+01+
*       4.1369289284E+01               0
GRID*               4319               01.1045454764E+032.5567012768E+01+
*       3.5192710813E+01               0
GRID*               4320               01.0909090925E+033.5194878391E+01+
*       2.5564187364E+01               0
GRID*               4321               01.1045454582E+033.5195073232E+01+
*       2.5563933392E+01               0
GRID*               4322               01.1045454548E+034.1369446625E+01+
*       1.3446792531E+01               0
GRID*               4323               01.0909090909E+034.3500000000E+01+
*       -1.028377074E-12               0
GRID*               4324               01.1045454545E+034.3500000000E+01+
*       -6.288522773E-13               0
GRID*               4325               01.1045454571E+034.1369289284E+01+
*       -1.344725623E+01               0
GRID*               4326               01.0909091129E+033.5192692697E+01+
*       -2.556703638E+01               0
GRID*               4327               01.1045454764E+033.5192710813E+01+
*       -2.556701277E+01               0
GRID*               4328               01.1045454582E+032.5563933392E+01+
*       -3.519507323E+01               0
GRID*               4329               01.0772727493E+03-2.556705496E+01+
*       -3.519267845E+01               0
GRID*               4330               01.0636363609E+03-3.519446094E+01+
*       -2.556473151E+01               0
GRID*               4331               01.0772727267E+03-3.519466659E+01+
*       -2.556446344E+01               0
GRID*               4332               01.0772727273E+03-4.136942024E+01+
*       -1.344687030E+01               0
GRID*               4333               01.0636363636E+03-4.350000000E+01+
*       -1.176316935E-12               0
GRID*               4334               01.0772727273E+03-4.350000000E+01+
*       -1.017012744E-12               0
GRID*               4335               01.0772727297E+03-4.136928722E+01+
*       1.3447262318E+01               0
GRID*               4336               01.0636363857E+03-3.519266830E+01+
*       2.5567068187E+01               0
GRID*               4337               01.0772727493E+03-3.519267845E+01+
*       2.5567054957E+01               0
GRID*               4338               01.0772727267E+03-2.556446344E+01+
*       3.5194666594E+01               0
GRID*               4339               01.0636363635E+03-1.344691063E+01+
*       4.1369406554E+01               0
GRID*               4340               01.0772727273E+03-1.344687030E+01+
*       4.1369420238E+01               0
GRID*               4341               01.0772727273E+031.5342564686E-15+
*       4.3500000000E+01               0
GRID*               4342               01.0636363660E+031.3447264178E+01+
*       4.1369286589E+01               0
GRID*               4343               01.0772727297E+031.3447262318E+01+
*       4.1369287220E+01               0
GRID*               4344               01.0772727493E+032.5567054957E+01+
*       3.5192678447E+01               0
GRID*               4345               01.0636363609E+033.5194460939E+01+
*       2.5564731506E+01               0
GRID*               4346               01.0772727267E+033.5194666594E+01+
*       2.5564463438E+01               0
GRID*               4347               01.0772727273E+034.1369420238E+01+
*       1.3446870298E+01               0
GRID*               4348               01.0636363636E+034.3500000000E+01+
*       -1.058720729E-12               0
GRID*               4349               01.0772727273E+034.3500000000E+01+
*       -6.301165963E-13               0
GRID*               4350               01.0772727297E+034.1369287220E+01+
*       -1.344726232E+01               0
GRID*               4351               01.0636363857E+033.5192668298E+01+
*       -2.556706819E+01               0
GRID*               4352               01.0772727493E+033.5192678447E+01+
*       -2.556705496E+01               0
GRID*               4353               01.0772727267E+032.5564463438E+01+
*       -3.519466659E+01               0
GRID*               4354               01.0500000221E+03-2.556707576E+01+
*       -3.519266249E+01               0
GRID*               4355               01.0363636298E+03-3.519409352E+01+
*       -2.556521043E+01               0
GRID*               4356               01.0499999953E+03-3.519427017E+01+
*       -2.556498017E+01               0
GRID*               4357               01.0499999997E+03-4.136939386E+01+
*       -1.344694805E+01               0
GRID*               4358               01.0363636364E+03-4.350000000E+01+
*       -1.252176074E-12               0
GRID*               4359               01.0500000000E+03-4.350000000E+01+
*       -1.106779392E-12               0
GRID*               4360               01.0500000023E+03-4.136928625E+01+
*       1.3447265188E+01               0
GRID*               4361               01.0363636585E+03-3.519266128E+01+
*       2.5567077338E+01               0
GRID*               4362               01.0500000221E+03-3.519266249E+01+
*       2.5567075756E+01               0
GRID*               4363               01.0499999953E+03-2.556498017E+01+
*       3.5194270172E+01               0
GRID*               4364               01.0363636360E+03-1.344698271E+01+
*       4.1369382096E+01               0
GRID*               4365               01.0499999997E+03-1.344694805E+01+
*       4.1369393857E+01               0
GRID*               4366               01.0500000000E+030.0000000000E+00+
*       4.3500000000E+01               0
GRID*               4367               01.0363636386E+031.3447265299E+01+
*       4.1369286209E+01               0
GRID*               4368               01.0500000023E+031.3447265188E+01+
*       4.1369286246E+01               0
GRID*               4369               01.0500000221E+032.5567075756E+01+
*       3.5192662491E+01               0
GRID*               4370               01.0363636298E+033.5194093523E+01+
*       2.5565210427E+01               0
GRID*               4371               01.0499999953E+033.5194270172E+01+
*       2.5564980168E+01               0
GRID*               4372               01.0499999997E+034.1369393857E+01+
*       1.3446948046E+01               0
GRID*               4373               01.0363636364E+034.3500000000E+01+
*       -1.001826375E-12               0
GRID*               4374               01.0500000000E+034.3500000000E+01+
*       -6.023015788E-13               0
GRID*               4375               01.0500000023E+034.1369286246E+01+
*       -1.344726519E+01               0
GRID*               4376               01.0363636585E+033.5192661277E+01+
*       -2.556707734E+01               0
GRID*               4377               01.0500000221E+033.5192662491E+01+
*       -2.556707576E+01               0
GRID*               4378               01.0499999953E+032.5564980168E+01+
*       -3.519427017E+01               0
GRID*               4379               01.0227272947E+03-2.556707259E+01+
*       -3.519266492E+01               0
GRID*               4380               01.0090908993E+03-3.519377974E+01+
*       -2.556561943E+01               0
GRID*               4381               01.0227272645E+03-3.519393027E+01+
*       -2.556542322E+01               0
GRID*               4382               01.0227272722E+03-4.136937122E+01+
*       -1.344701475E+01               0
GRID*               4383               01.0090909091E+03-4.350000000E+01+
*       -1.300220195E-12               0
GRID*               4384               01.0227272727E+03-4.350000000E+01+
*       -1.140916004E-12               0
GRID*               4385               01.0227272749E+03-4.136928649E+01+
*       1.3447264461E+01               0
GRID*               4386               01.0090909310E+03-3.519267368E+01+
*       2.5567061174E+01               0
GRID*               4387               01.0227272947E+03-3.519266492E+01+
*       2.5567072594E+01               0
GRID*               4388               01.0227272645E+03-2.556542322E+01+
*       3.5193930272E+01               0
GRID*               4389               01.0090909084E+03-1.344704430E+01+
*       4.1369361195E+01               0
GRID*               4390               01.0227272722E+03-1.344701475E+01+
*       4.1369371224E+01               0
GRID*               4391               01.0227272727E+03-3.513099385E-14+
*       4.3500000000E+01               0
GRID*               4392               01.0090909112E+031.3447262621E+01+
*       4.1369287117E+01               0
GRID*               4393               01.0227272749E+031.3447264461E+01+
*       4.1369286493E+01               0
GRID*               4394               01.0227272947E+032.5567072594E+01+
*       3.5192664916E+01               0
GRID*               4395               01.0090908993E+033.5193779743E+01+
*       2.5565619435E+01               0
GRID*               4396               01.0227272645E+033.5193930272E+01+
*       2.5565423222E+01               0
GRID*               4397               01.0227272722E+034.1369371224E+01+
*       1.3447014748E+01               0
GRID*               4398               01.0090909091E+034.3500000000E+01+
*       -9.740113579E-13               0
GRID*               4399               01.0227272727E+034.3500000000E+01+
*       -6.035658977E-13               0
GRID*               4400               01.0227272749E+034.1369286493E+01+
*       -1.344726446E+01               0
GRID*               4401               01.0090909310E+033.5192673677E+01+
*       -2.556706117E+01               0
GRID*               4402               01.0227272947E+033.5192664916E+01+
*       -2.556707259E+01               0
GRID*               4403               01.0227272645E+032.5565423222E+01+
*       -3.519393027E+01               0
GRID*               4404               09.9545456713E+02-2.556704271E+01+
*       -3.519268784E+01               0
GRID*               4405               09.8181816919E+02-3.519351434E+01+
*       -2.556596538E+01               0
GRID*               4406               09.9545453416E+02-3.519364130E+01+
*       -2.556579989E+01               0
GRID*               4407               09.9545454469E+02-4.136935197E+01+
*       -1.344707150E+01               0
GRID*               4408               09.8181818182E+02-4.350000000E+01+
*       -1.348264316E-12               0
GRID*               4409               09.9545454545E+02-4.350000000E+01+
*       -1.202867634E-12               0
GRID*               4410               09.9545454751E+02-4.136928810E+01+
*       1.3447259724E+01               0
GRID*               4411               09.8181820324E+02-3.519270769E+01+
*       2.5567016835E+01               0
GRID*               4412               09.9545456713E+02-3.519268784E+01+
*       2.5567042714E+01               0
GRID*               4413               09.9545453416E+02-2.556579989E+01+
*       3.5193641299E+01               0
GRID*               4414               09.8181818094E+02-1.344709645E+01+
*       4.1369343502E+01               0
GRID*               4415               09.9545454469E+02-1.344707150E+01+
*       4.1369351968E+01               0
GRID*               4416               09.9545454545E+02-9.844614321E-15+
*       4.3500000000E+01               0
GRID*               4417               09.8181818379E+021.3447255714E+01+
*       4.1369289461E+01               0
GRID*               4418               09.9545454751E+021.3447259724E+01+
*       4.1369288100E+01               0
GRID*               4419               09.9545456713E+022.5567042714E+01+
*       3.5192687839E+01               0
GRID*               4420               09.8181816919E+023.5193514340E+01+
*       2.5565965383E+01               0
GRID*               4421               09.9545453416E+023.5193641299E+01+
*       2.5565799895E+01               0
GRID*               4422               09.9545454469E+024.1369351968E+01+
*       1.3447071499E+01               0
GRID*               4423               09.8181818182E+024.3500000000E+01+
*       -9.461963404E-13               0
GRID*               4424               09.9545454545E+024.3500000000E+01+
*       -5.466715438E-13               0
GRID*               4425               09.9545454751E+024.1369288100E+01+
*       -1.344725972E+01               0
GRID*               4426               09.8181820324E+023.5192707693E+01+
*       -2.556701684E+01               0
GRID*               4427               09.9545456713E+023.5192687839E+01+
*       -2.556704271E+01               0
GRID*               4428               09.9545453416E+022.5565799895E+01+
*       -3.519364130E+01               0
GRID*               4429               09.6818183929E+02-2.556698314E+01+
*       -3.519273354E+01               0
GRID*               4430               09.5454543956E+02-3.519329265E+01+
*       -2.556625435E+01               0
GRID*               4431               09.6818180432E+02-3.519339830E+01+
*       -2.556611664E+01               0
GRID*               4432               09.6818181720E+02-4.136933576E+01+
*       -1.344711926E+01               0
GRID*               4433               09.5454545455E+02-4.350000000E+01+
*       -1.410215946E-12               0
GRID*               4434               09.6818181818E+02-4.350000000E+01+
*       -1.264819264E-12               0
GRID*               4435               09.6818182008E+02-4.136929122E+01+
*       1.3447250531E+01               0
GRID*               4436               09.5454547528E+02-3.519276569E+01+
*       2.5566941232E+01               0
GRID*               4437               09.6818183929E+02-3.519273354E+01+
*       2.5566983145E+01               0
GRID*               4438               09.6818180432E+02-2.556611664E+01+
*       3.5193398302E+01               0
GRID*               4439               09.5454545346E+02-1.344714005E+01+
*       4.1369328708E+01               0
GRID*               4440               09.6818181720E+02-1.344711926E+01+
*       4.1369335760E+01               0
GRID*               4441               09.6818181818E+02-1.363757125E-14+
*       4.3500000000E+01               0
GRID*               4442               09.5454545636E+021.3447244115E+01+
*       4.1369293397E+01               0
GRID*               4443               09.6818182008E+021.3447250531E+01+
*       4.1369291220E+01               0
GRID*               4444               09.6818183929E+022.5566983145E+01+
*       3.5192733540E+01               0
GRID*               4445               09.5454543956E+023.5193292649E+01+
*       2.5566254354E+01               0
GRID*               4446               09.6818180432E+023.5193398302E+01+
*       2.5566116637E+01               0
GRID*               4447               09.6818181720E+024.1369335760E+01+
*       1.3447119264E+01               0
GRID*               4448               09.5454545455E+024.3500000000E+01+
*       -8.905663054E-13               0
GRID*               4449               09.6818181818E+024.3500000000E+01+
*       -4.910415088E-13               0
GRID*               4450               09.6818182008E+024.1369291220E+01+
*       -1.344725053E+01               0
GRID*               4451               09.5454547528E+023.5192765694E+01+
*       -2.556694123E+01               0
GRID*               4452               09.6818183929E+023.5192733540E+01+
*       -2.556698314E+01               0
GRID*               4453               09.6818180432E+022.5566116637E+01+
*       -3.519339830E+01               0
GRID*               4454               09.4090911120E+02-2.556689067E+01+
*       -3.519280448E+01               0
GRID*               4455               09.2727271034E+02-3.519311050E+01+
*       -2.556649178E+01               0
GRID*               4456               09.4090907491E+02-3.519319688E+01+
*       -2.556637919E+01               0
GRID*               4457               09.4090908972E+02-4.136932231E+01+
*       -1.344715890E+01               0
GRID*               4458               09.2727272727E+02-4.350000000E+01+
*       -1.472167576E-12               0
GRID*               4459               09.4090909091E+02-4.350000000E+01+
*       -1.312863385E-12               0
GRID*               4460               09.4090909264E+02-4.136929601E+01+
*       1.3447236401E+01               0
GRID*               4461               09.2727274705E+02-3.519285025E+01+
*       2.5566831014E+01               0
GRID*               4462               09.4090911120E+02-3.519280448E+01+
*       2.5566890670E+01               0
GRID*               4463               09.4090907491E+02-2.556637919E+01+
*       3.5193196877E+01               0
GRID*               4464               09.2727272599E+02-1.344717592E+01+
*       4.1369316536E+01               0
GRID*               4465               09.4090908972E+02-1.344715890E+01+
*       4.1369322310E+01               0
GRID*               4466               09.4090909091E+021.0384489305E-14+
*       4.3500000000E+01               0
GRID*               4467               09.2727272892E+021.3447227323E+01+
*       4.1369299094E+01               0
GRID*               4468               09.4090909264E+021.3447236401E+01+
*       4.1369296014E+01               0
GRID*               4469               09.4090911120E+022.5566890670E+01+
*       3.5192804484E+01               0
GRID*               4470               09.2727271034E+023.5193110504E+01+
*       2.5566491777E+01               0
GRID*               4471               09.4090907491E+023.5193196877E+01+
*       2.5566379192E+01               0
GRID*               4472               09.4090908972E+024.1369322310E+01+
*       1.3447158903E+01               0
GRID*               4473               09.2727272727E+024.3500000000E+01+
*       -8.905663054E-13               0
GRID*               4474               09.4090909091E+024.3500000000E+01+
*       -4.341471549E-13               0
GRID*               4475               09.4090909264E+024.1369296014E+01+
*       -1.344723640E+01               0
GRID*               4476               09.2727274705E+023.5192850251E+01+
*       -2.556683101E+01               0
GRID*               4477               09.4090911120E+023.5192804484E+01+
*       -2.556689067E+01               0
GRID*               4478               09.4090907491E+022.5566379192E+01+
*       -3.519319688E+01               0
GRID*               4479               09.1363638282E+02-2.556676180E+01+
*       -3.519290335E+01               0
GRID*               4480               08.9999998148E+02-3.519296416E+01+
*       -2.556668253E+01               0
GRID*               4481               09.1363634587E+02-3.519303308E+01+
*       -2.556659270E+01               0
GRID*               4482               09.1363636226E+02-4.136931136E+01+
*       -1.344719119E+01               0
GRID*               4483               09.0000000000E+02-4.350000000E+01+
*       -1.505039869E-12               0
GRID*               4484               09.1363636364E+02-4.350000000E+01+
*       -1.360907506E-12               0
GRID*               4485               09.1363636520E+02-4.136930266E+01+
*       1.3447216811E+01               0
GRID*               4486               09.0000001852E+02-3.519296416E+01+
*       2.5566682529E+01               0
GRID*               4487               09.1363638282E+02-3.519290335E+01+
*       2.5566761796E+01               0
GRID*               4488               09.1363634587E+02-2.556659270E+01+
*       3.5193033078E+01               0
GRID*               4489               08.9999999853E+02-1.344720479E+01+
*       4.1369306740E+01               0
GRID*               4490               09.1363636226E+02-1.344719119E+01+
*       4.1369311356E+01               0
GRID*               4491               09.1363636364E+023.5670868838E-14+
*       4.3500000000E+01               0
GRID*               4492               09.0000000147E+021.3447204791E+01+
*       4.1369306740E+01               0
GRID*               4493               09.1363636520E+021.3447216811E+01+
*       4.1369302661E+01               0
GRID*               4494               09.1363638282E+022.5566761796E+01+
*       3.5192903353E+01               0
GRID*               4495               08.9999998148E+023.5192964164E+01+
*       2.5566682529E+01               0
GRID*               4496               09.1363634587E+023.5193033078E+01+
*       2.5566592701E+01               0
GRID*               4497               09.1363636226E+024.1369311356E+01+
*       1.3447191188E+01               0
GRID*               4498               09.0000000000E+024.3500000000E+01+
*       -8.918306244E-13               0
GRID*               4499               09.1363636364E+024.3500000000E+01+
*       -4.354114739E-13               0
GRID*               4500               09.1363636520E+024.1369302661E+01+
*       -1.344721681E+01               0
GRID*               4501               09.0000001852E+023.5192964164E+01+
*       -2.556668253E+01               0
GRID*               4502               09.1363638282E+023.5192903353E+01+
*       -2.556676180E+01               0
GRID*               4503               09.1363634587E+022.5566592701E+01+
*       -3.519303308E+01               0
GRID*               4504               08.8636365413E+02-2.556659270E+01+
*       -3.519303308E+01               0
GRID*               4505               08.7272725295E+02-3.519285025E+01+
*       -2.556683101E+01               0
GRID*               4506               08.8636361718E+02-3.519290335E+01+
*       -2.556676180E+01               0
GRID*               4507               08.8636363480E+02-4.136930266E+01+
*       -1.344721681E+01               0
GRID*               4508               08.7272727273E+02-4.350000000E+01+
*       -1.539176482E-12               0
GRID*               4509               08.8636363636E+02-4.350000000E+01+
*       -1.393779799E-12               0
GRID*               4510               08.8636363774E+02-4.136931136E+01+
*       1.3447191188E+01               0
GRID*               4511               08.7272728966E+02-3.519311050E+01+
*       2.5566491777E+01               0
GRID*               4512               08.8636365413E+02-3.519303308E+01+
*       2.5566592701E+01               0
GRID*               4513               08.8636361718E+02-2.556676180E+01+
*       3.5192903353E+01               0
GRID*               4514               08.7272727108E+02-1.344722732E+01+
*       4.1369299094E+01               0
GRID*               4515               08.8636363480E+02-1.344721681E+01+
*       4.1369302661E+01               0
GRID*               4516               08.8636363636E+022.7985754452E-15+
*       4.3500000000E+01               0
GRID*               4517               08.7272727401E+021.3447175920E+01+
*       4.1369316536E+01               0
GRID*               4518               08.8636363774E+021.3447191188E+01+
*       4.1369311356E+01               0
GRID*               4519               08.8636365413E+022.5566592701E+01+
*       3.5193033078E+01               0
GRID*               4520               08.7272725295E+023.5192850251E+01+
*       2.5566831014E+01               0
GRID*               4521               08.8636361718E+023.5192903353E+01+
*       2.5566761796E+01               0
GRID*               4522               08.8636363480E+024.1369302661E+01+
*       1.3447216811E+01               0
GRID*               4523               08.7272727273E+024.3500000000E+01+
*       -8.071212530E-13               0
GRID*               4524               08.8636363636E+024.3500000000E+01+
*       -4.373079523E-13               0
GRID*               4525               08.8636363774E+024.1369311356E+01+
*       -1.344719119E+01               0
GRID*               4526               08.7272728966E+023.5193110504E+01+
*       -2.556649178E+01               0
GRID*               4527               08.8636365413E+023.5193033078E+01+
*       -2.556659270E+01               0
GRID*               4528               08.8636361718E+022.5566761796E+01+
*       -3.519290335E+01               0
GRID*               4529               08.5909092509E+02-2.556637919E+01+
*       -3.519319688E+01               0
GRID*               4530               08.4545452472E+02-3.519276569E+01+
*       -2.556694123E+01               0
GRID*               4531               08.5909088880E+02-3.519280448E+01+
*       -2.556689067E+01               0
GRID*               4532               08.5909090736E+02-4.136929601E+01+
*       -1.344723640E+01               0
GRID*               4533               08.4545454545E+02-4.350000000E+01+
*       -1.628943129E-12               0
GRID*               4534               08.5909090909E+02-4.350000000E+01+
*       -1.455731429E-12               0
GRID*               4535               08.5909091028E+02-4.136932231E+01+
*       1.3447158903E+01               0
GRID*               4536               08.4545456044E+02-3.519329265E+01+
*       2.5566254354E+01               0
GRID*               4537               08.5909092509E+02-3.519319688E+01+
*       2.5566379192E+01               0
GRID*               4538               08.5909088880E+02-2.556689067E+01+
*       3.5192804484E+01               0
GRID*               4539               08.4545454364E+02-1.344724412E+01+
*       4.1369293397E+01               0
GRID*               4540               08.5909090736E+02-1.344723640E+01+
*       4.1369296014E+01               0
GRID*               4541               08.5909090909E+022.8084954978E-14+
*       4.3500000000E+01               0
GRID*               4542               08.4545454654E+021.3447140049E+01+
*       4.1369328708E+01               0
GRID*               4543               08.5909091028E+021.3447158903E+01+
*       4.1369322310E+01               0
GRID*               4544               08.5909092509E+022.5566379192E+01+
*       3.5193196877E+01               0
GRID*               4545               08.4545452472E+023.5192765694E+01+
*       2.5566941232E+01               0
GRID*               4546               08.5909088880E+023.5192804484E+01+
*       2.5566890670E+01               0
GRID*               4547               08.5909090736E+024.1369296014E+01+
*       1.3447236401E+01               0
GRID*               4548               08.4545454545E+024.3500000000E+01+
*       -7.793062355E-13               0
GRID*               4549               08.5909090909E+024.3500000000E+01+
*       -3.797814389E-13               0
GRID*               4550               08.5909091028E+024.1369322310E+01+
*       -1.344715890E+01               0
GRID*               4551               08.4545456044E+023.5193292649E+01+
*       -2.556625435E+01               0
GRID*               4552               08.5909092509E+023.5193196877E+01+
*       -2.556637919E+01               0
GRID*               4553               08.5909088880E+022.5566890670E+01+
*       -3.519280448E+01               0
GRID*               4554               08.3181819568E+02-2.556611664E+01+
*       -3.519339830E+01               0
GRID*               4555               08.1818179676E+02-3.519270769E+01+
*       -2.556701684E+01               0
GRID*               4556               08.3181816071E+02-3.519273354E+01+
*       -2.556698314E+01               0
GRID*               4557               08.3181817992E+02-4.136929122E+01+
*       -1.344725053E+01               0
GRID*               4558               08.1818181818E+02-4.350000000E+01+
*       -1.676987250E-12               0
GRID*               4559               08.3181818182E+02-4.350000000E+01+
*       -1.517683059E-12               0
GRID*               4560               08.3181818280E+02-4.136933576E+01+
*       1.3447119264E+01               0
GRID*               4561               08.1818183081E+02-3.519351434E+01+
*       2.5565965383E+01               0
GRID*               4562               08.3181819568E+02-3.519339830E+01+
*       2.5566116637E+01               0
GRID*               4563               08.3181816071E+02-2.556698314E+01+
*       3.5192733540E+01               0
GRID*               4564               08.1818181621E+02-1.344725571E+01+
*       4.1369289461E+01               0
GRID*               4565               08.3181817992E+02-1.344725053E+01+
*       4.1369291220E+01               0
GRID*               4566               08.3181818182E+025.1474856045E-14+
*       4.3500000000E+01               0
GRID*               4567               08.1818181906E+021.3447096448E+01+
*       4.1369343502E+01               0
GRID*               4568               08.3181818280E+021.3447119264E+01+
*       4.1369335760E+01               0
GRID*               4569               08.3181819568E+022.5566116637E+01+
*       3.5193398302E+01               0
GRID*               4570               08.1818179676E+023.5192707693E+01+
*       2.5567016835E+01               0
GRID*               4571               08.3181816071E+023.5192733540E+01+
*       2.5566983145E+01               0
GRID*               4572               08.3181817992E+024.1369291220E+01+
*       1.3447250531E+01               0
GRID*               4573               08.1818181818E+024.3500000000E+01+
*       -7.230440410E-13               0
GRID*               4574               08.3181818182E+024.3500000000E+01+
*       -3.241514039E-13               0
GRID*               4575               08.3181818280E+024.1369335760E+01+
*       -1.344711926E+01               0
GRID*               4576               08.1818183081E+023.5193514340E+01+
*       -2.556596538E+01               0
GRID*               4577               08.3181819568E+023.5193398302E+01+
*       -2.556611664E+01               0
GRID*               4578               08.3181816071E+022.5566983145E+01+
*       -3.519273354E+01               0
GRID*               4579               08.0454546584E+02-2.556579989E+01+
*       -3.519364130E+01               0
GRID*               4580               07.9090906904E+02-3.519267368E+01+
*       -2.556706117E+01               0
GRID*               4581               08.0454543287E+02-3.519268784E+01+
*       -2.556704271E+01               0
GRID*               4582               08.0454545249E+02-4.136928810E+01+
*       -1.344725972E+01               0
GRID*               4583               07.9090909091E+02-4.350000000E+01+
*       -1.752846389E-12               0
GRID*               4584               08.0454545455E+02-4.350000000E+01+
*       -1.608714025E-12               0
GRID*               4585               08.0454545531E+02-4.136935197E+01+
*       1.3447071499E+01               0
GRID*               4586               07.9090910074E+02-3.519377974E+01+
*       2.5565619435E+01               0
GRID*               4587               08.0454546584E+02-3.519364130E+01+
*       2.5565799895E+01               0
GRID*               4588               08.0454543287E+02-2.556704271E+01+
*       3.5192687839E+01               0
GRID*               4589               07.9090908878E+02-1.344726262E+01+
*       4.1369287117E+01               0
GRID*               4590               08.0454545249E+02-1.344725972E+01+
*       4.1369288100E+01               0
GRID*               4591               08.0454545455E+02-8.659315280E-15+
*       4.3500000000E+01               0
GRID*               4592               07.9090909263E+021.3280985658E+01+
*       4.0863743364E+01               0
GRID*               4593               08.0454545635E+021.3281006053E+01+
*       4.0863736444E+01               0
GRID*               4594               08.0454546584E+022.5565799895E+01+
*       3.5193641299E+01               0
GRID*               4595               07.9090906904E+023.5192673677E+01+
*       2.5567061174E+01               0
GRID*               4596               08.0454543287E+023.5192687839E+01+
*       2.5567042714E+01               0
GRID*               4597               08.0454545249E+024.1369288100E+01+
*       1.3447259724E+01               0
GRID*               4598               07.9090909091E+024.3500000000E+01+
*       -6.964933425E-13               0
GRID*               4599               08.0454545455E+024.3500000000E+01+
*       -2.691535284E-13               0
GRID*               4600               08.0454545531E+024.1369351968E+01+
*       -1.344707150E+01               0
GRID*               4601               07.9090910074E+023.5193779743E+01+
*       -2.556561943E+01               0
GRID*               4602               08.0454546584E+023.5193641299E+01+
*       -2.556579989E+01               0
GRID*               4603               08.0454543287E+022.5567042714E+01+
*       -3.519268784E+01               0
GRID*               4604               07.7727273553E+02-2.556542322E+01+
*       -3.519393027E+01               0
GRID*               4605               07.6363634155E+02-3.519266128E+01+
*       -2.556707734E+01               0
GRID*               4606               07.7727270527E+02-3.519266492E+01+
*       -2.556707259E+01               0
GRID*               4607               07.7727272508E+02-4.136928649E+01+
*       -1.344726446E+01               0
GRID*               4608               07.6363636364E+02-4.350000000E+01+
*       -1.786350841E-12               0
GRID*               4609               07.7727272727E+02-4.350000000E+01+
*       -1.640954159E-12               0
GRID*               4610               07.7727272780E+02-4.136937122E+01+
*       1.3447014748E+01               0
GRID*               4611               07.6363637018E+02-3.519409352E+01+
*       2.5565210427E+01               0
GRID*               4612               07.7727273553E+02-3.519393027E+01+
*       2.5565423222E+01               0
GRID*               4613               07.7727270527E+02-2.556707259E+01+
*       3.5192664916E+01               0
GRID*               4614               07.6363635918E+02-1.328133364E+01+
*       4.0863547316E+01               0
GRID*               4615               07.7727272508E+02-1.344726446E+01+
*       4.1369286493E+01               0
GRID*               4616               07.7727272727E+02-1.284737189E-14+
*       4.3500000000E+01               0
GRID*               4617               07.6363636476E+021.3280888333E+01+
*       4.0863798263E+01               0
GRID*               4618               07.7727272849E+021.3280912365E+01+
*       4.0863790108E+01               0
GRID*               4619               07.7727273553E+022.5565423222E+01+
*       3.5193930272E+01               0
GRID*               4620               07.6363634155E+023.5192661277E+01+
*       2.5567077338E+01               0
GRID*               4621               07.7727270527E+023.5192664916E+01+
*       2.5567072594E+01               0
GRID*               4622               07.7727272508E+024.1369286493E+01+
*       1.3447264461E+01               0
GRID*               4623               07.6363636364E+024.3500000000E+01+
*       -6.686783251E-13               0
GRID*               4624               07.7727272727E+024.3500000000E+01+
*       -2.413385109E-13               0
GRID*               4625               07.7727272780E+024.1369371224E+01+
*       -1.344701475E+01               0
GRID*               4626               07.6363637018E+023.5194093523E+01+
*       -2.556521043E+01               0
GRID*               4627               07.7727273553E+023.5193930272E+01+
*       -2.556542322E+01               0
GRID*               4628               07.7727270527E+022.5567072594E+01+
*       -3.519266492E+01               0
GRID*               4629               07.5000000470E+02-2.556498017E+01+
*       -3.519427017E+01               0
GRID*               4630               07.3636361425E+02-3.519266830E+01+
*       -2.556706819E+01               0
GRID*               4631               07.4999997788E+02-3.519266249E+01+
*       -2.556707576E+01               0
GRID*               4632               07.4999999767E+02-4.136928625E+01+
*       -1.344726519E+01               0
GRID*               4633               07.3636363636E+02-4.350000000E+01+
*       -1.849566790E-12               0
GRID*               4634               07.5000000000E+02-4.350000000E+01+
*       -1.690262599E-12               0
GRID*               4635               07.5000000028E+02-4.136939386E+01+
*       1.3446948046E+01               0
GRID*               4636               07.3636363908E+02-3.519446094E+01+
*       2.5564731506E+01               0
GRID*               4637               07.5000000470E+02-3.519427017E+01+
*       2.5564980168E+01               0
GRID*               4638               07.4999997788E+02-2.556707576E+01+
*       3.5192662491E+01               0
GRID*               4639               07.3636363180E+02-1.328133166E+01+
*       4.0863548479E+01               0
GRID*               4640               07.4999999549E+02-1.328133356E+01+
*       4.0863547344E+01               0
GRID*               4641               07.5000000000E+02-1.630449409E-14+
*       4.3500000000E+01               0
GRID*               4642               07.3636363682E+021.3280774408E+01+
*       4.0863862533E+01               0
GRID*               4643               07.5000000055E+021.3280802472E+01+
*       4.0863853010E+01               0
GRID*               4644               07.5000000470E+022.5564980168E+01+
*       3.5194270172E+01               0
GRID*               4645               07.3636361425E+023.5192668298E+01+
*       2.5567068187E+01               0
GRID*               4646               07.4999997788E+023.5192662491E+01+
*       2.5567075756E+01               0
GRID*               4647               07.4999999767E+024.1369286246E+01+
*       1.3447265188E+01               0
GRID*               4648               07.3636363636E+024.3500000000E+01+
*       -6.130482901E-13               0
GRID*               4649               07.5000000000E+024.3500000000E+01+
*       -2.122591745E-13               0
GRID*               4650               07.5000000028E+024.1369393857E+01+
*       -1.344694805E+01               0
GRID*               4651               07.3636363908E+023.5194460939E+01+
*       -2.556473151E+01               0
GRID*               4652               07.5000000470E+023.5194270172E+01+
*       -2.556498017E+01               0
GRID*               4653               07.4999997788E+022.5567075756E+01+
*       -3.519266249E+01               0
GRID*               4654               07.2272727330E+02-2.556446344E+01+
*       -3.519466659E+01               0
GRID*               4655               07.0909088713E+02-3.519269270E+01+
*       -2.556703638E+01               0
GRID*               4656               07.2272725067E+02-3.519267845E+01+
*       -2.556705496E+01               0
GRID*               4657               07.2272727027E+02-4.136928722E+01+
*       -1.344726232E+01               0
GRID*               4658               07.0909090909E+02-4.350000000E+01+
*       -1.911518420E-12               0
GRID*               4659               07.2272727273E+02-4.350000000E+01+
*       -1.752214229E-12               0
GRID*               4660               07.2272727274E+02-4.136942024E+01+
*       1.3446870298E+01               0
GRID*               4661               07.0909090746E+02-3.519487839E+01+
*       2.5564187364E+01               0
GRID*               4662               07.2272727330E+02-3.519466659E+01+
*       2.5564463438E+01               0
GRID*               4663               07.2272725067E+02-2.556705496E+01+
*       3.5192678447E+01               0
GRID*               4664               07.0909090445E+02-1.328132429E+01+
*       4.0863552680E+01               0
GRID*               4665               07.2272726812E+02-1.328133026E+01+
*       4.0863548952E+01               0
GRID*               4666               07.2272727273E+028.3497259520E-15+
*       4.3500000000E+01               0
GRID*               4667               07.0909090879E+021.3280645690E+01+
*       4.0863935311E+01               0
GRID*               4668               07.2272727253E+021.3280676144E+01+
*       4.0863924977E+01               0
GRID*               4669               07.2272727330E+022.5564463438E+01+
*       3.5194666594E+01               0
GRID*               4670               07.0909088713E+023.5192692697E+01+
*       2.5567036382E+01               0
GRID*               4671               07.2272725067E+023.5192678447E+01+
*       2.5567054957E+01               0
GRID*               4672               07.2272727027E+024.1369287220E+01+
*       1.3447262318E+01               0
GRID*               4673               07.0909090909E+024.3500000000E+01+
*       -6.136804496E-13               0
GRID*               4674               07.2272727273E+024.3500000000E+01+
*       -2.141556529E-13               0
GRID*               4675               07.2272727274E+024.1369420238E+01+
*       -1.344687030E+01               0
GRID*               4676               07.0909090746E+023.5194878391E+01+
*       -2.556418736E+01               0
GRID*               4677               07.2272727330E+023.5194666594E+01+
*       -2.556446344E+01               0
GRID*               4678               07.2272725067E+022.5567054957E+01+
*       -3.519267845E+01               0
GRID*               4679               06.9545454179E+02-2.556393339E+01+
*       -3.519507323E+01               0
GRID*               4680               06.8181816017E+02-3.519273257E+01+
*       -2.556698441E+01               0
GRID*               4681               06.9545452363E+02-3.519271081E+01+
*       -2.556701277E+01               0
GRID*               4682               06.9545454287E+02-4.136928928E+01+
*       -1.344725623E+01               0
GRID*               4683               06.8181818182E+02-4.350000000E+01+
*       -1.959562541E-12               0
GRID*               4684               06.9545454545E+02-4.350000000E+01+
*       -1.798994031E-12               0
GRID*               4685               06.9545454519E+02-4.136944663E+01+
*       1.3446792531E+01               0
GRID*               4686               06.8181817630E+02-3.519525075E+01+
*       2.5563702003E+01               0
GRID*               4687               06.9545454179E+02-3.519507323E+01+
*       2.5563933392E+01               0
GRID*               4688               06.9545452363E+02-2.556701277E+01+
*       3.5192710813E+01               0
GRID*               4689               06.8181817713E+02-1.328131213E+01+
*       4.0863559586E+01               0
GRID*               4690               06.9545454077E+02-1.328132172E+01+
*       4.0863553550E+01               0
GRID*               4691               06.9545454545E+021.0562284161E-14+
*       4.3500000000E+01               0
GRID*               4692               06.8181818083E+021.3280531771E+01+
*       4.0863999923E+01               0
GRID*               4693               06.9545454457E+021.3280557149E+01+
*       4.0863991312E+01               0
GRID*               4694               06.9545454179E+022.5563933392E+01+
*       3.5195073232E+01               0
GRID*               4695               06.8181816017E+023.5192732568E+01+
*       2.5566984411E+01               0
GRID*               4696               06.9545452363E+023.5192710813E+01+
*       2.5567012768E+01               0
GRID*               4697               06.9545454287E+024.1369289284E+01+
*       1.3447256235E+01               0
GRID*               4698               06.8181818182E+024.3500000000E+01+
*       -5.567860956E-13               0
GRID*               4699               06.9545454545E+024.3500000000E+01+
*       -1.572612990E-13               0
GRID*               4700               06.9545454519E+024.1369446625E+01+
*       -1.344679253E+01               0
GRID*               4701               06.8181817630E+023.5195250748E+01+
*       -2.556370200E+01               0
GRID*               4702               06.9545454179E+023.5195073232E+01+
*       -2.556393339E+01               0
GRID*               4703               06.9545452363E+022.5567012768E+01+
*       -3.519271081E+01               0
GRID*               4704               06.6818181097E+02-2.556349222E+01+
*       -3.519541169E+01               0
GRID*               4705               06.5454543335E+02-3.519278612E+01+
*       -2.556691460E+01               0
GRID*               4706               06.6818179675E+02-3.519275774E+01+
*       -2.556695160E+01               0
GRID*               4707               06.6818181549E+02-4.136929232E+01+
*       -1.344724730E+01               0
GRID*               4708               06.5454545455E+02-4.350000000E+01+
*       -2.021514171E-12               0
GRID*               4709               06.6818181818E+02-4.350000000E+01+
*       -1.860945661E-12               0
GRID*               4710               06.6818181766E+02-4.136946851E+01+
*       1.3446728035E+01               0
GRID*               4711               06.5454544580E+02-3.519555677E+01+
*       2.5563303109E+01               0
GRID*               4712               06.6818181097E+02-3.519541169E+01+
*       2.5563492223E+01               0
GRID*               4713               06.6818179675E+02-2.556695160E+01+
*       3.5192757743E+01               0
GRID*               4714               06.5454544984E+02-1.328129573E+01+
*       4.0863568884E+01               0
GRID*               4715               06.6818181346E+02-1.328130853E+01+
*       4.0863560808E+01               0
GRID*               4716               06.6818181818E+02-2.768336488E-14+
*       4.3500000000E+01               0
GRID*               4717               06.5454545297E+021.3280438201E+01+
*       4.0864053007E+01               0
GRID*               4718               06.6818181670E+021.3280458915E+01+
*       4.0864045978E+01               0
GRID*               4719               06.6818181097E+022.5563492223E+01+
*       3.5195411685E+01               0
GRID*               4720               06.5454543335E+023.5192786122E+01+
*       2.5566914604E+01               0
GRID*               4721               06.6818179675E+023.5192757743E+01+
*       2.5566951597E+01               0
GRID*               4722               06.6818181549E+024.1369292316E+01+
*       1.3447247300E+01               0
GRID*               4723               06.5454545455E+024.3500000000E+01+
*       -5.011560606E-13               0
GRID*               4724               06.6818181818E+024.3500000000E+01+
*       -1.300784410E-13               0
GRID*               4725               06.6818181766E+024.1369468510E+01+
*       -1.344672804E+01               0
GRID*               4726               06.5454544580E+023.5195556768E+01+
*       -2.556330311E+01               0
GRID*               4727               06.6818181097E+023.5195411685E+01+
*       -2.556349222E+01               0
GRID*               4728               06.6818179675E+022.5566951597E+01+
*       -3.519275774E+01               0
GRID*               4729               06.4090908079E+02-2.556313374E+01+
*       -3.519568670E+01               0
GRID*               4730               06.2727270666E+02-3.519285168E+01+
*       -2.556682916E+01               0
GRID*               4731               06.4090906999E+02-3.519281750E+01+
*       -2.556687370E+01               0
GRID*               4732               06.4090908811E+02-4.136929620E+01+
*       -1.344723585E+01               0
GRID*               4733               06.2727272727E+02-4.350000000E+01+
*       -2.068293973E-12               0
GRID*               4734               06.4090909091E+02-4.350000000E+01+
*       -1.922897291E-12               0
GRID*               4735               06.4090909014E+02-4.136948627E+01+
*       1.3446675703E+01               0
GRID*               4736               06.2727271592E+02-3.519580217E+01+
*       2.5562983235E+01               0
GRID*               4737               06.4090908079E+02-3.519568670E+01+
*       2.5563133744E+01               0
GRID*               4738               06.4090906999E+02-2.556687370E+01+
*       3.5192817501E+01               0
GRID*               4739               06.2727272443E+02-1.344722929E+01+
*       4.1369298428E+01               0
GRID*               4740               06.4090908616E+02-1.328129122E+01+
*       4.0863570415E+01               0
GRID*               4741               06.4090909091E+02-3.108164774E-15+
*       4.3500000000E+01               0
GRID*               4742               06.2727272519E+021.3280363227E+01+
*       4.0864095554E+01               0
GRID*               4743               06.4090908892E+021.3280379682E+01+
*       4.0864089971E+01               0
GRID*               4744               06.4090908079E+022.5563133744E+01+
*       3.5195686701E+01               0
GRID*               4745               06.2727270666E+023.5192851675E+01+
*       2.5566829157E+01               0
GRID*               4746               06.4090906999E+023.5192817501E+01+
*       2.5566873703E+01               0
GRID*               4747               06.4090908811E+024.1369296200E+01+
*       1.3447235853E+01               0
GRID*               4748               06.2727272727E+024.3500000000E+01+
*       -5.586825741E-13               0
GRID*               4749               06.4090909091E+024.3500000000E+01+
*       -1.035277425E-13               0
GRID*               4750               06.4090909014E+024.1369486266E+01+
*       -1.344667570E+01               0
GRID*               4751               06.2727271592E+023.5195802168E+01+
*       -2.556298323E+01               0
GRID*               4752               06.4090908079E+023.5195686701E+01+
*       -2.556313374E+01               0
GRID*               4753               06.4090906999E+022.5566873703E+01+
*       -3.519281750E+01               0
GRID*               4754               06.1363635119E+02-2.556285072E+01+
*       -3.519590383E+01               0
GRID*               4755               05.9999998008E+02-3.519292764E+01+
*       -2.556673014E+01               0
GRID*               4756               06.1363634336E+02-3.519288845E+01+
*       -2.556678122E+01               0
GRID*               4757               06.1363636075E+02-4.136930083E+01+
*       -1.344722221E+01               0
GRID*               4758               06.0000000000E+02-4.350000000E+01+
*       -2.115073775E-12               0
GRID*               4759               06.1363636364E+02-4.350000000E+01+
*       -1.957033903E-12               0
GRID*               4760               06.1363636264E+02-4.136950026E+01+
*       1.3446634470E+01               0
GRID*               4761               05.9999998659E+02-3.519599235E+01+
*       2.5562735340E+01               0
GRID*               4762               06.1363635119E+02-3.519590383E+01+
*       2.5562850715E+01               0
GRID*               4763               06.1363634336E+02-2.556678122E+01+
*       3.5192888451E+01               0
GRID*               4764               05.9999999707E+02-1.344721466E+01+
*       4.1369303390E+01               0
GRID*               4765               06.1363636075E+02-1.344722221E+01+
*       4.1369300829E+01               0
GRID*               4766               06.1363636364E+022.2316499647E-14+
*       4.3500000000E+01               0
GRID*               4767               05.9999999750E+021.3280305190E+01+
*       4.0864128505E+01               0
GRID*               4768               06.1363636121E+021.3280317770E+01+
*       4.0864124236E+01               0
GRID*               4769               06.1363635119E+022.5562850715E+01+
*       3.5195903834E+01               0
GRID*               4770               05.9999998008E+023.5192927635E+01+
*       2.5566730144E+01               0
GRID*               4771               06.1363634336E+023.5192888451E+01+
*       2.5566781221E+01               0
GRID*               4772               06.1363636075E+024.1369300829E+01+
*       1.3447222212E+01               0
GRID*               4773               06.0000000000E+024.3500000000E+01+
*       -4.461581852E-13               0
GRID*               4774               06.1363636364E+024.3500000000E+01+
*       -1.035277425E-13               0
GRID*               4775               06.1363636264E+024.1369500258E+01+
*       -1.344663447E+01               0
GRID*               4776               05.9999998659E+023.5195992346E+01+
*       -2.556273534E+01               0
GRID*               4777               06.1363635119E+023.5195903834E+01+
*       -2.556285072E+01               0
GRID*               4778               06.1363634336E+022.5566781221E+01+
*       -3.519288845E+01               0
GRID*               4779               05.8636362212E+02-2.556263629E+01+
*       -3.519606834E+01               0
GRID*               4780               05.7272725359E+02-3.519301249E+01+
*       -2.556661953E+01               0
GRID*               4781               05.8636361682E+02-3.519296904E+01+
*       -2.556667617E+01               0
GRID*               4782               05.8636363339E+02-4.136930610E+01+
*       -1.344720668E+01               0
GRID*               4783               05.7272727273E+02-4.350000000E+01+
*       -2.164382215E-12               0
GRID*               4784               05.8636363636E+02-4.350000000E+01+
*       -2.017721214E-12               0
GRID*               4785               05.8636363515E+02-4.136951083E+01+
*       1.3446603324E+01               0
GRID*               4786               05.7272725777E+02-3.519613242E+01+
*       2.5562552751E+01               0
GRID*               4787               05.8636362212E+02-3.519606834E+01+
*       2.5562636287E+01               0
GRID*               4788               05.8636361682E+02-2.556667617E+01+
*       3.5192969044E+01               0
GRID*               4789               05.7272726808E+02-1.328122616E+01+
*       4.0863608270E+01               0
GRID*               4790               05.8636363339E+02-1.344720668E+01+
*       4.1369306099E+01               0
GRID*               4791               05.8636363636E+02-1.102991336E-14+
*       4.3500000000E+01               0
GRID*               4792               05.7272726987E+021.3280262518E+01+
*       4.0864152749E+01               0
GRID*               4793               05.8636363359E+021.3280271587E+01+
*       4.0864149672E+01               0
GRID*               4794               05.8636362212E+022.5562636287E+01+
*       3.5196068338E+01               0
GRID*               4795               05.7272725359E+023.5193012494E+01+
*       2.5566619532E+01               0
GRID*               4796               05.8636361682E+023.5192969044E+01+
*       2.5566676169E+01               0
GRID*               4797               05.8636363339E+024.1369306099E+01+
*       1.3447206679E+01               0
GRID*               4798               05.7272727273E+024.3500000000E+01+
*       -3.898959907E-13               0
GRID*               4799               05.8636363636E+024.3500000000E+01+
*       8.9966464276E-15               0
GRID*               4800               05.8636363515E+024.1369510826E+01+
*       -1.344660332E+01               0
GRID*               4801               05.7272725777E+023.5196132424E+01+
*       -2.556255275E+01               0
GRID*               4802               05.8636362212E+023.5196068338E+01+
*       -2.556263629E+01               0
GRID*               4803               05.8636361682E+022.5566676169E+01+
*       -3.519296904E+01               0
GRID*               4804               05.5909089354E+02-2.556248395E+01+
*       -3.519618521E+01               0
GRID*               4805               05.4545452719E+02-3.519310481E+01+
*       -2.556649919E+01               0
GRID*               4806               05.5909089038E+02-3.519305781E+01+
*       -2.556656047E+01               0
GRID*               4807               05.5909090605E+02-4.136931191E+01+
*       -1.344718954E+01               0
GRID*               4808               05.4545454545E+02-4.350000000E+01+
*       -2.225701686E-12               0
GRID*               4809               05.5909090909E+02-4.350000000E+01+
*       -2.079672844E-12               0
GRID*               4810               05.5909090768E+02-4.136951830E+01+
*       1.3446581307E+01               0
GRID*               4811               05.4545452941E+02-3.519622727E+01+
*       2.5562429119E+01               0
GRID*               4812               05.5909089354E+02-3.519618521E+01+
*       2.5562483951E+01               0
GRID*               4813               05.5909089038E+02-2.556656047E+01+
*       3.5193057809E+01               0
GRID*               4814               05.4545454238E+02-1.344718046E+01+
*       4.1369314996E+01               0
GRID*               4815               05.5909090442E+02-1.328121960E+01+
*       4.0863610497E+01               0
GRID*               4816               05.5909090909E+02-1.440801563E-14+
*       4.3500000000E+01               0
GRID*               4817               05.4545454232E+021.3280233717E+01+
*       4.0864169134E+01               0
GRID*               4818               05.5909090603E+021.3280239621E+01+
*       4.0864167131E+01               0
GRID*               4819               05.5909089354E+022.5562483951E+01+
*       3.5196185206E+01               0
GRID*               4820               05.4545452719E+023.5193104815E+01+
*       2.5566499193E+01               0
GRID*               4821               05.5909089038E+023.5193057809E+01+
*       2.5566560465E+01               0
GRID*               4822               05.5909090605E+024.1369311914E+01+
*       1.3447189543E+01               0
GRID*               4823               05.4545454545E+024.3500000000E+01+
*       -4.765018406E-13               0
GRID*               4824               05.5909090909E+024.3500000000E+01+
*       9.6288059155E-15               0
GRID*               4825               05.5909090768E+024.1369518296E+01+
*       -1.344658131E+01               0
GRID*               4826               05.4545452941E+023.5196227271E+01+
*       -2.556242912E+01               0
GRID*               4827               05.5909089354E+023.5196185206E+01+
*       -2.556248395E+01               0
GRID*               4828               05.5909089038E+022.5566560465E+01+
*       -3.519305781E+01               0
GRID*               4829               05.3181816539E+02-2.556238751E+01+
*       -3.519625919E+01               0
GRID*               4830               05.1818180085E+02-3.519320323E+01+
*       -2.556637091E+01               0
GRID*               4831               05.3181816401E+02-3.519315334E+01+
*       -2.556643594E+01               0
GRID*               4832               05.3181817872E+02-4.136931818E+01+
*       -1.344717108E+01               0
GRID*               4833               05.1818181818E+02-4.350000000E+01+
*       -2.287653316E-12               0
GRID*               4834               05.3181818182E+02-4.350000000E+01+
*       -2.114441616E-12               0
GRID*               4835               05.3181818022E+02-4.136952298E+01+
*       1.3446567506E+01               0
GRID*               4836               05.1818180147E+02-3.519628154E+01+
*       2.5562358386E+01               0
GRID*               4837               05.3181816539E+02-3.519625919E+01+
*       2.5562387508E+01               0
GRID*               4838               05.3181816401E+02-2.556643594E+01+
*       3.5193153344E+01               0
GRID*               4839               05.1818181367E+02-1.328116743E+01+
*       4.0863641494E+01               0
GRID*               4840               05.3181817872E+02-1.344717108E+01+
*       4.1369318180E+01               0
GRID*               4841               05.3181818182E+021.0226449433E-14+
*       4.3500000000E+01               0
GRID*               4842               05.1818181483E+021.3280217358E+01+
*       4.0864178468E+01               0
GRID*               4843               05.3181817853E+021.3280220428E+01+
*       4.0864177426E+01               0
GRID*               4844               05.3181816539E+022.5562387508E+01+
*       3.5196259194E+01               0
GRID*               4845               05.1818180085E+023.5193203229E+01+
*       2.5566370912E+01               0
GRID*               4846               05.3181816401E+023.5193153344E+01+
*       2.5566435937E+01               0
GRID*               4847               05.3181817872E+024.1369318180E+01+
*       1.3447171076E+01               0
GRID*               4848               05.1818181818E+024.3500000000E+01+
*       -3.917924692E-13               0
GRID*               4849               05.3181818182E+024.3500000000E+01+
*       -2.008269004E-14               0
GRID*               4850               05.3181818022E+024.1369522979E+01+
*       -1.344656751E+01               0
GRID*               4851               05.1818180147E+023.5196281536E+01+
*       -2.556235839E+01               0
GRID*               4852               05.3181816539E+023.5196259194E+01+
*       -2.556238751E+01               0
GRID*               4853               05.3181816401E+022.5566435937E+01+
*       -3.519315334E+01               0
GRID*               4854               05.0454543763E+02-2.556234103E+01+
*       -3.519629485E+01               0
GRID*               4855               04.9090907457E+02-3.519330643E+01+
*       -2.556623640E+01               0
GRID*               4856               05.0454543770E+02-3.519325431E+01+
*       -2.556630433E+01               0
GRID*               4857               05.0454545140E+02-4.136932481E+01+
*       -1.344715154E+01               0
GRID*               4858               04.9090909091E+02-4.350000000E+01+
*       -2.320525609E-12               0
GRID*               4859               05.0454545455E+02-4.350000000E+01+
*       -2.175761086E-12               0
GRID*               4860               05.0454545278E+02-4.136952517E+01+
*       1.3446561048E+01               0
GRID*               4861               04.9090907389E+02-3.519629967E+01+
*       2.5562334751E+01               0
GRID*               4862               05.0454543763E+02-3.519629485E+01+
*       2.5562341034E+01               0
GRID*               4863               05.0454543770E+02-2.556630433E+01+
*       3.5193254309E+01               0
GRID*               4864               04.9090908649E+02-1.328113564E+01+
*       4.0863659477E+01               0
GRID*               4865               05.0454545002E+02-1.328116002E+01+
*       4.0863644010E+01               0
GRID*               4866               05.0454545455E+026.3149625990E-15+
*       4.3500000000E+01               0
GRID*               4867               04.9090908739E+021.3280212076E+01+
*       4.0864181524E+01               0
GRID*               4868               05.0454545109E+021.3280212630E+01+
*       4.0864181336E+01               0
GRID*               4869               05.0454543763E+022.5562341034E+01+
*       3.5196294848E+01               0
GRID*               4870               04.9090907457E+023.5193306425E+01+
*       2.5566236397E+01               0
GRID*               4871               05.0454543770E+023.5193254309E+01+
*       2.5566304330E+01               0
GRID*               4872               05.0454545140E+024.1369324809E+01+
*       1.3447151540E+01               0
GRID*               4873               04.9090909091E+024.3500000000E+01+
*       -3.924246287E-13               0
GRID*               4874               05.0454545455E+024.3500000000E+01+
*       3.6179504424E-14               0
GRID*               4875               05.0454545278E+024.1369525171E+01+
*       -1.344656105E+01               0
GRID*               4876               04.9090907389E+023.5196299668E+01+
*       -2.556233475E+01               0
GRID*               4877               05.0454543763E+023.5196294848E+01+
*       -2.556234103E+01               0
GRID*               4878               05.0454543770E+022.5566304330E+01+
*       -3.519325431E+01               0
GRID*               4879               04.7727271023E+02-2.556233885E+01+
*       -3.519629652E+01               0
GRID*               4880               04.6363634833E+02-3.519341315E+01+
*       -2.556609729E+01               0
GRID*               4881               04.7727271145E+02-3.519335942E+01+
*       -2.556616732E+01               0
GRID*               4882               04.7727272409E+02-4.136933171E+01+
*       -1.344713119E+01               0
GRID*               4883               04.6363636364E+02-4.350000000E+01+
*       -2.411556575E-12               0
GRID*               4884               04.7727272727E+02-4.350000000E+01+
*       -2.252884544E-12               0
GRID*               4885               04.7727272535E+02-4.136952515E+01+
*       1.3446561095E+01               0
GRID*               4886               04.6363634664E+02-3.519628593E+01+
*       2.5562352652E+01               0
GRID*               4887               04.7727271023E+02-3.519629652E+01+
*       2.5562338849E+01               0
GRID*               4888               04.7727271145E+02-2.556616732E+01+
*       3.5193359421E+01               0
GRID*               4889               04.6363636044E+02-1.344712078E+01+
*       4.1369335247E+01               0
GRID*               4890               04.7727272284E+02-1.328112794E+01+
*       4.0863662089E+01               0
GRID*               4891               04.7727272727E+022.3047008450E-15+
*       4.3500000000E+01               0
GRID*               4892               04.6363636001E+021.3280216560E+01+
*       4.0864179045E+01               0
GRID*               4893               04.7727272370E+021.3280214903E+01+
*       4.0864179608E+01               0
GRID*               4894               04.7727271023E+022.5562338849E+01+
*       3.5196296524E+01               0
GRID*               4895               04.6363634833E+023.5193413145E+01+
*       2.5566097290E+01               0
GRID*               4896               04.7727271145E+023.5193359421E+01+
*       2.5566167318E+01               0
GRID*               4897               04.7727272409E+024.1369331715E+01+
*       1.3447131186E+01               0
GRID*               4898               04.6363636364E+024.3500000000E+01+
*       -2.786359208E-13               0
GRID*               4899               04.7727272727E+024.3500000000E+01+
*       6.3994521910E-14               0
GRID*               4900               04.7727272535E+024.1369525155E+01+
*       -1.344656109E+01               0
GRID*               4901               04.6363634664E+023.5196285935E+01+
*       -2.556235265E+01               0
GRID*               4902               04.7727271023E+023.5196296524E+01+
*       -2.556233885E+01               0
GRID*               4903               04.7727271145E+022.5566167318E+01+
*       -3.519335942E+01               0
GRID*               4904               04.4999998313E+02-2.556237550E+01+
*       -3.519626841E+01               0
GRID*               4905               04.3636362213E+02-3.519352218E+01+
*       -2.556595517E+01               0
GRID*               4906               04.4999998523E+02-3.519346745E+01+
*       -2.556602651E+01               0
GRID*               4907               04.4999999679E+02-4.136933882E+01+
*       -1.344711026E+01               0
GRID*               4908               04.3636363636E+02-4.350000000E+01+
*       -2.444428869E-12               0
GRID*               4909               04.5000000000E+02-4.350000000E+01+
*       -2.300296505E-12               0
GRID*               4910               04.4999999794E+02-4.136952320E+01+
*       1.3446566843E+01               0
GRID*               4911               04.3636361968E+02-3.519624445E+01+
*       2.5562406733E+01               0
GRID*               4912               04.4999998313E+02-3.519626841E+01+
*       2.5562375497E+01               0
GRID*               4913               04.4999998523E+02-2.556602651E+01+
*       3.5193467446E+01               0
GRID*               4914               04.3636363218E+02-1.328106913E+01+
*       4.0863697085E+01               0
GRID*               4915               04.4999999679E+02-1.344711026E+01+
*       4.1369338817E+01               0
GRID*               4916               04.5000000000E+02-1.745070877E-15+
*       4.3500000000E+01               0
GRID*               4917               04.3636363268E+021.3280229551E+01+
*       4.0864171745E+01               0
GRID*               4918               04.4999999637E+021.3280225974E+01+
*       4.0864172959E+01               0
GRID*               4919               04.4999998313E+022.5562375497E+01+
*       3.5196268409E+01               0
GRID*               4920               04.3636362213E+023.5193522178E+01+
*       2.5565955167E+01               0
GRID*               4921               04.4999998523E+023.5193467446E+01+
*       2.5566026509E+01               0
GRID*               4922               04.4999999679E+024.1369338817E+01+
*       1.3447110255E+01               0
GRID*               4923               04.3636363636E+024.3500000000E+01+
*       -3.083474167E-13               0
GRID*               4924               04.5000000000E+024.3500000000E+01+
*       1.1962455688E-13               0
GRID*               4925               04.4999999794E+024.1369523204E+01+
*       -1.344656684E+01               0
GRID*               4926               04.3636361968E+023.5196244445E+01+
*       -2.556240673E+01               0
GRID*               4927               04.4999998313E+023.5196268409E+01+
*       -2.556237550E+01               0
GRID*               4928               04.4999998523E+022.5566026509E+01+
*       -3.519346745E+01               0
GRID*               4929               04.2272725630E+02-2.556244572E+01+
*       -3.519621453E+01               0
GRID*               4930               04.0909089595E+02-3.519363236E+01+
*       -2.556581155E+01               0
GRID*               4931               04.2272725904E+02-3.519357720E+01+
*       -2.556588345E+01               0
GRID*               4932               04.2272726952E+02-4.136934604E+01+
*       -1.344708898E+01               0
GRID*               4933               04.0909090909E+02-4.350000000E+01+
*       -2.506380499E-12               0
GRID*               4934               04.2272727273E+02-4.350000000E+01+
*       -2.348024547E-12               0
GRID*               4935               04.2272727054E+02-4.136951958E+01+
*       1.3446577518E+01               0
GRID*               4936               04.0909089297E+02-3.519617916E+01+
*       2.5562491830E+01               0
GRID*               4937               04.2272725630E+02-3.519621453E+01+
*       2.5562445721E+01               0
GRID*               4938               04.2272725904E+02-2.556588345E+01+
*       3.5193577196E+01               0
GRID*               4939               04.0909090504E+02-1.328103515E+01+
*       4.0863716294E+01               0
GRID*               4940               04.2272726854E+02-1.328106113E+01+
*       4.0863699800E+01               0
GRID*               4941               04.2272727273E+022.2849884215E-14+
*       4.3500000000E+01               0
GRID*               4942               04.0909090540E+021.3280249830E+01+
*       4.0864160313E+01               0
GRID*               4943               04.2272726908E+021.3280244617E+01+
*       4.0864162082E+01               0
GRID*               4944               04.2272725630E+022.5562445721E+01+
*       3.5196214535E+01               0
GRID*               4945               04.0909089595E+023.5193632357E+01+
*       2.5565811551E+01               0
GRID*               4946               04.2272725904E+023.5193577196E+01+
*       2.5565883452E+01               0
GRID*               4947               04.2272726952E+024.1369346037E+01+
*       1.3447088978E+01               0
GRID*               4948               04.0909090909E+024.3500000000E+01+
*       -3.383749924E-13               0
GRID*               4949               04.2272727273E+024.3500000000E+01+
*       1.1867631765E-13               0
GRID*               4950               04.2272727054E+024.1369519582E+01+
*       -1.344657752E+01               0
GRID*               4951               04.0909089297E+023.5196179161E+01+
*       -2.556249183E+01               0
GRID*               4952               04.2272725630E+023.5196214535E+01+
*       -2.556244572E+01               0
GRID*               4953               04.2272725904E+022.5565883452E+01+
*       -3.519357720E+01               0
GRID*               4954               03.9545452970E+02-2.556254444E+01+
*       -3.519613880E+01               0
GRID*               4955               03.8181816978E+02-3.519374255E+01+
*       -2.556566791E+01               0
GRID*               4956               03.9545453287E+02-3.519368752E+01+
*       -2.556573964E+01               0
GRID*               4957               03.9545454225E+02-4.136935330E+01+
*       -1.344706758E+01               0
GRID*               4958               03.8181818182E+02-4.350000000E+01+
*       -2.540833191E-12               0
GRID*               4959               03.9545454545E+02-4.350000000E+01+
*       -2.395436508E-12               0
GRID*               4960               03.9545454317E+02-4.136951454E+01+
*       1.3446592371E+01               0
GRID*               4961               03.8181816648E+02-3.519609391E+01+
*       2.5562602949E+01               0
GRID*               4962               03.9545452970E+02-3.519613880E+01+
*       2.5562544443E+01               0
GRID*               4963               03.9545453287E+02-2.556573964E+01+
*       3.5193687521E+01               0
GRID*               4964               03.8181817863E+02-1.344705690E+01+
*       4.1369356920E+01               0
GRID*               4965               03.9545454141E+02-1.328102713E+01+
*       4.0863719018E+01               0
GRID*               4966               03.9545454545E+024.6871944771E-14+
*       4.3500000000E+01               0
GRID*               4967               03.8181817816E+021.3280276222E+01+
*       4.0864145415E+01               0
GRID*               4968               03.9545454183E+021.3280269647E+01+
*       4.0864147646E+01               0
GRID*               4969               03.9545452970E+022.5562544443E+01+
*       3.5196138798E+01               0
GRID*               4970               03.8181816978E+023.5193742551E+01+
*       2.5565667913E+01               0
GRID*               4971               03.9545453287E+023.5193687521E+01+
*       2.5565739645E+01               0
GRID*               4972               03.9545454225E+024.1369353297E+01+
*       1.3447067580E+01               0
GRID*               4973               03.8181818182E+024.3500000000E+01+
*       -2.242702048E-13               0
GRID*               4974               03.9545454545E+024.3500000000E+01+
*       1.7525459185E-13               0
GRID*               4975               03.9545454317E+024.1369514542E+01+
*       -1.344659237E+01               0
GRID*               4976               03.8181816648E+023.5196093913E+01+
*       -2.556260295E+01               0
GRID*               4977               03.9545452970E+023.5196138798E+01+
*       -2.556254444E+01               0
GRID*               4978               03.9545453287E+022.5565739645E+01+
*       -3.519368752E+01               0
GRID*               4979               03.6818180330E+02-2.556266675E+01+
*       -3.519604497E+01               0
GRID*               4980               03.5454544362E+02-3.519385167E+01+
*       -2.556552568E+01               0
GRID*               4981               03.6818180670E+02-3.519379731E+01+
*       -2.556559653E+01               0
GRID*               4982               03.6818181501E+02-4.136936053E+01+
*       -1.344704628E+01               0
GRID*               4983               03.5454545455E+02-4.350000000E+01+
*       -2.602468741E-12               0
GRID*               4984               03.6818181818E+02-4.350000000E+01+
*       -2.457072059E-12               0
GRID*               4985               03.6818181582E+02-4.136950833E+01+
*       1.3446610679E+01               0
GRID*               4986               03.5454544016E+02-3.519599241E+01+
*       2.5562735252E+01               0
GRID*               4987               03.6818180330E+02-3.519604497E+01+
*       2.5562666749E+01               0
GRID*               4988               03.6818180670E+02-2.556559653E+01+
*       3.5193797312E+01               0
GRID*               4989               03.5454545139E+02-1.344703573E+01+
*       4.1369364105E+01               0
GRID*               4990               03.6818181501E+02-1.344704628E+01+
*       4.1369360526E+01               0
GRID*               4991               03.6818181818E+021.5836864892E-14+
*       4.3500000000E+01               0
GRID*               4992               03.5454545095E+021.3280307588E+01+
*       4.0864127696E+01               0
GRID*               4993               03.6818181461E+021.3280299916E+01+
*       4.0864130299E+01               0
GRID*               4994               03.6818180330E+022.5562666749E+01+
*       3.5196044967E+01               0
GRID*               4995               03.5454544362E+023.5193851669E+01+
*       2.5565525680E+01               0
GRID*               4996               03.6818180670E+023.5193797312E+01+
*       2.5565596534E+01               0
GRID*               4997               03.6818181501E+024.1369360526E+01+
*       1.3447046277E+01               0
GRID*               4998               03.5454545455E+024.3500000000E+01+
*       -1.680080103E-13               0
GRID*               4999               03.6818181818E+024.3500000000E+01+
*       1.7367419313E-13               0
GRID*               5000               03.6818181582E+024.1369508330E+01+
*       -1.344661068E+01               0
GRID*               5001               03.5454544016E+023.5195992414E+01+
*       -2.556273525E+01               0
GRID*               5002               03.6818180330E+023.5196044967E+01+
*       -2.556266675E+01               0
GRID*               5003               03.6818180670E+022.5565596534E+01+
*       -3.519379731E+01               0
GRID*               5004               03.4090907706E+02-2.556280787E+01+
*       -3.519593670E+01               0
GRID*               5005               03.2727271745E+02-3.519395865E+01+
*       -2.556538624E+01               0
GRID*               5006               03.4090908053E+02-3.519390549E+01+
*       -2.556545552E+01               0
GRID*               5007               03.4090908778E+02-4.136936765E+01+
*       -1.344702528E+01               0
GRID*               5008               03.2727272727E+02-4.350000000E+01+
*       -2.664736450E-12               0
GRID*               5009               03.4090909091E+02-4.350000000E+01+
*       -2.491208671E-12               0
GRID*               5010               03.4090908849E+02-4.136950118E+01+
*       1.3446631739E+01               0
GRID*               5011               03.2727271399E+02-3.519587827E+01+
*       2.5562884042E+01               0
GRID*               5012               03.4090907706E+02-3.519593670E+01+
*       2.5562807875E+01               0
GRID*               5013               03.4090908053E+02-2.556545552E+01+
*       3.5193905491E+01               0
GRID*               5014               03.2727272418E+02-1.344701496E+01+
*       4.1369371152E+01               0
GRID*               5015               03.4090908778E+02-1.344702528E+01+
*       4.1369367650E+01               0
GRID*               5016               03.4090909091E+02-1.711444844E-14+
*       4.3500000000E+01               0
GRID*               5017               03.2727272379E+021.3280342820E+01+
*       4.0864107783E+01               0
GRID*               5018               03.4090908744E+021.3280334309E+01+
*       4.0864110671E+01               0
GRID*               5019               03.4090907706E+022.5562807875E+01+
*       3.5195936700E+01               0
GRID*               5020               03.2727271745E+023.5193958647E+01+
*       2.5565386236E+01               0
GRID*               5021               03.4090908053E+023.5193905491E+01+
*       2.5565455525E+01               0
GRID*               5022               03.4090908778E+024.1369367650E+01+
*       1.3447025280E+01               0
GRID*               5023               03.2727272727E+024.3500000000E+01+
*       -5.421930241E-14               0
GRID*               5024               03.4090909091E+024.3500000000E+01+
*       3.1496183877E-13               0
GRID*               5025               03.4090908849E+024.1369501184E+01+
*       -1.344663174E+01               0
GRID*               5026               03.2727271399E+023.5195878266E+01+
*       -2.556288404E+01               0
GRID*               5027               03.4090907706E+023.5195936700E+01+
*       -2.556280787E+01               0
GRID*               5028               03.4090908053E+022.5565455525E+01+
*       -3.519390549E+01               0
GRID*               5029               03.1363635094E+02-2.556296319E+01+
*       -3.519581755E+01               0
GRID*               5030               02.9999999126E+02-3.519406245E+01+
*       -2.556525093E+01               0
GRID*               5031               03.1363635436E+02-3.519401101E+01+
*       -2.556531798E+01               0
GRID*               5032               03.1363636058E+02-4.136937460E+01+
*       -1.344700479E+01               0
GRID*               5033               03.0000000000E+02-4.350000000E+01+
*       -2.726372001E-12               0
GRID*               5034               03.1363636364E+02-4.350000000E+01+
*       -2.567383889E-12               0
GRID*               5035               03.1363636119E+02-4.136949334E+01+
*       1.3446654869E+01               0
GRID*               5036               02.9999998792E+02-3.519575498E+01+
*       2.5563044749E+01               0
GRID*               5037               03.1363635094E+02-3.519581755E+01+
*       2.5562963187E+01               0
GRID*               5038               03.1363635436E+02-2.556531798E+01+
*       3.5194011010E+01               0
GRID*               5039               02.9999999698E+02-1.344699480E+01+
*       4.1369377991E+01               0
GRID*               5040               03.1363636058E+02-1.344700479E+01+
*       4.1369374602E+01               0
GRID*               5041               03.1363636364E+023.9443645178E-15+
*       4.3500000000E+01               0
GRID*               5042               02.9999999665E+021.3280380845E+01+
*       4.0864086286E+01               0
GRID*               5043               03.1363636029E+021.3280371745E+01+
*       4.0864089374E+01               0
GRID*               5044               03.1363635094E+022.5562963187E+01+
*       3.5195817548E+01               0
GRID*               5045               02.9999999126E+023.5194062453E+01+
*       2.5565250927E+01               0
GRID*               5046               03.1363635436E+023.5194011010E+01+
*       2.5565317982E+01               0
GRID*               5047               03.1363636058E+024.1369374602E+01+
*       1.3447004793E+01               0
GRID*               5048               03.0000000000E+024.3500000000E+01+
*       -1.130101348E-13               0
GRID*               5049               03.1363636364E+024.3500000000E+01+
*       3.4372509549E-13               0
GRID*               5050               03.1363636119E+024.1369493336E+01+
*       -1.344665487E+01               0
GRID*               5051               02.9999998792E+023.5195754975E+01+
*       -2.556304475E+01               0
GRID*               5052               03.1363635094E+023.5195817548E+01+
*       -2.556296319E+01               0
GRID*               5053               03.1363635436E+022.5565317982E+01+
*       -3.519401101E+01               0
GRID*               5054               02.8636362492E+02-2.556312818E+01+
*       -3.519569097E+01               0
GRID*               5055               02.7272726505E+02-3.519416208E+01+
*       -2.556512107E+01               0
GRID*               5056               02.8636362816E+02-3.519411285E+01+
*       -2.556518523E+01               0
GRID*               5057               02.8636363340E+02-4.136938131E+01+
*       -1.344698502E+01               0
GRID*               5058               02.7272727273E+02-4.350000000E+01+
*       -2.759560374E-12               0
GRID*               5059               02.8636363636E+02-4.350000000E+01+
*       -2.615111931E-12               0
GRID*               5060               02.8636363392E+02-4.136948501E+01+
*       1.3446679403E+01               0
GRID*               5061               02.7272726194E+02-3.519562596E+01+
*       2.5563212922E+01               0
GRID*               5062               02.8636362492E+02-3.519569097E+01+
*       2.5563128177E+01               0
GRID*               5063               02.8636362816E+02-2.556518523E+01+
*       3.5194112850E+01               0
GRID*               5064               02.7272726981E+02-1.344697545E+01+
*       4.1369384557E+01               0
GRID*               5065               02.8636363340E+02-1.344698502E+01+
*       4.1369381313E+01               0
GRID*               5066               02.8636363636E+023.3122050295E-15+
*       4.3500000000E+01               0
GRID*               5067               02.7272726955E+021.3280420611E+01+
*       4.0864063799E+01               0
GRID*               5068               02.8636363318E+021.3280411168E+01+
*       4.0864067003E+01               0
GRID*               5069               02.8636362492E+022.5563128177E+01+
*       3.5195690972E+01               0
GRID*               5070               02.7272726505E+023.5194162079E+01+
*       2.5565121066E+01               0
GRID*               5071               02.8636362816E+023.5194112850E+01+
*       2.5565185235E+01               0
GRID*               5072               02.8636363340E+024.1369381313E+01+
*       1.3446985016E+01               0
GRID*               5073               02.7272727273E+024.3500000000E+01+
*       -1.145905335E-13               0
GRID*               5074               02.8636363636E+024.3500000000E+01+
*       2.8525034282E-13               0
GRID*               5075               02.8636363392E+024.1369485011E+01+
*       -1.344667940E+01               0
GRID*               5076               02.7272726194E+023.5195625958E+01+
*       -2.556321292E+01               0
GRID*               5077               02.8636362492E+023.5195690972E+01+
*       -2.556312818E+01               0
GRID*               5078               02.8636362816E+022.5565185235E+01+
*       -3.519411285E+01               0
GRID*               5079               02.5909089897E+02-2.556329845E+01+
*       -3.519556035E+01               0
GRID*               5080               02.4545453880E+02-3.519425654E+01+
*       -2.556499793E+01               0
GRID*               5081               02.5909090193E+02-3.519421002E+01+
*       -2.556505858E+01               0
GRID*               5082               02.5909090624E+02-4.136938772E+01+
*       -1.344696614E+01               0
GRID*               5083               02.4545454545E+02-4.350000000E+01+
*       -2.835735592E-12               0
GRID*               5084               02.5909090909E+02-4.350000000E+01+
*       -2.677379640E-12               0
GRID*               5085               02.5909090667E+02-4.136947643E+01+
*       1.3446704696E+01               0
GRID*               5086               02.4545453600E+02-3.519549455E+01+
*       2.5563384214E+01               0
GRID*               5087               02.5909089897E+02-3.519556035E+01+
*       2.5563298446E+01               0
GRID*               5088               02.5909090193E+02-2.556505858E+01+
*       3.5194210017E+01               0
GRID*               5089               02.4545454267E+02-1.344695710E+01+
*       4.1369390784E+01               0
GRID*               5090               02.5909090624E+02-1.344696614E+01+
*       4.1369387717E+01               0
GRID*               5091               02.5909090909E+02-4.431748702E-15+
*       4.3500000000E+01               0
GRID*               5092               02.4545454248E+021.3280461097E+01+
*       4.0864040900E+01               0
GRID*               5093               02.5909090610E+021.3280451548E+01+
*       4.0864044140E+01               0
GRID*               5094               02.5909089897E+022.5563298446E+01+
*       3.5195560346E+01               0
GRID*               5095               02.4545453880E+023.5194256543E+01+
*       2.5564997933E+01               0
GRID*               5096               02.5909090193E+023.5194210017E+01+
*       2.5565058579E+01               0
GRID*               5097               02.5909090624E+024.1369387717E+01+
*       1.3446966141E+01               0
GRID*               5098               02.4545454545E+024.3500000000E+01+
*       0.0000000000E+00               0
GRID*               5099               02.5909090909E+024.3500000000E+01+
*       3.9872297097E-13               0
GRID*               5100               02.5909090667E+024.1369476429E+01+
*       -1.344670470E+01               0
GRID*               5101               02.4545453600E+023.5195494547E+01+
*       -2.556338421E+01               0
GRID*               5102               02.5909089897E+023.5195560346E+01+
*       -2.556329845E+01               0
GRID*               5103               02.5909090193E+022.5565058579E+01+
*       -3.519421002E+01               0
GRID*               5104               02.3181817304E+02-2.556346970E+01+
*       -3.519542897E+01               0
GRID*               5105               02.1818181252E+02-3.519434489E+01+
*       -2.556488278E+01               0
GRID*               5106               02.3181817567E+02-3.519430154E+01+
*       -2.556493928E+01               0
GRID*               5107               02.3181817911E+02-4.136939375E+01+
*       -1.344694836E+01               0
GRID*               5108               02.1818181818E+02-4.350000000E+01+
*       -2.883779713E-12               0
GRID*               5109               02.3181818182E+02-4.350000000E+01+
*       -2.739647350E-12               0
GRID*               5110               02.3181817946E+02-4.136946780E+01+
*       1.3446730112E+01               0
GRID*               5111               02.1818181008E+02-3.519536400E+01+
*       2.5563554376E+01               0
GRID*               5112               02.3181817304E+02-3.519542897E+01+
*       2.5563469698E+01               0
GRID*               5113               02.3181817567E+02-2.556493928E+01+
*       3.5194301539E+01               0
GRID*               5114               02.1818181555E+02-1.344693994E+01+
*       4.1369396609E+01               0
GRID*               5115               02.3181817911E+02-1.344694836E+01+
*       4.1369393750E+01               0
GRID*               5116               02.3181818182E+02-2.867111408E-14+
*       4.3500000000E+01               0
GRID*               5117               02.1818181544E+021.3280501301E+01+
*       4.0864018158E+01               0
GRID*               5118               02.3181817904E+021.3280491881E+01+
*       4.0864021354E+01               0
GRID*               5119               02.3181817304E+022.5563469698E+01+
*       3.5195428966E+01               0
GRID*               5120               02.1818181252E+023.5194344885E+01+
*       2.5564882780E+01               0
GRID*               5121               02.3181817567E+023.5194301539E+01+
*       2.5564939282E+01               0
GRID*               5122               02.3181817911E+024.1369393751E+01+
*       1.3446948360E+01               0
GRID*               5123               02.1818181818E+024.3500000000E+01+
*       -1.592025006E-15               0
GRID*               5124               02.3181818182E+024.3500000000E+01+
*       3.9809081149E-13               0
GRID*               5125               02.3181817946E+024.1369467805E+01+
*       -1.344673011E+01               0
GRID*               5126               02.1818181008E+023.5195364003E+01+
*       -2.556355438E+01               0
GRID*               5127               02.3181817304E+023.5195428966E+01+
*       -2.556346970E+01               0
GRID*               5128               02.3181817567E+022.5564939282E+01+
*       -3.519430154E+01               0
GRID*               5129               02.0454544712E+02-2.556363773E+01+
*       -3.519530006E+01               0
GRID*               5130               01.9090908618E+02-3.519442616E+01+
*       -2.556477683E+01               0
GRID*               5131               02.0454544936E+02-3.519438647E+01+
*       -2.556482858E+01               0
GRID*               5132               02.0454545201E+02-4.136939935E+01+
*       -1.344693186E+01               0
GRID*               5133               01.9090909091E+02-4.350000000E+01+
*       -2.930717555E-12               0
GRID*               5134               02.0454545455E+02-4.350000000E+01+
*       -2.787533431E-12               0
GRID*               5135               02.0454545229E+02-4.136945935E+01+
*       1.3446755033E+01               0
GRID*               5136               01.9090908415E+02-3.519523752E+01+
*       2.5563719248E+01               0
GRID*               5137               02.0454544712E+02-3.519530006E+01+
*       2.5563637730E+01               0
GRID*               5138               02.0454544936E+02-2.556482858E+01+
*       3.5194386466E+01               0
GRID*               5139               01.9090908847E+02-1.344692414E+01+
*       4.1369401968E+01               0
GRID*               5140               02.0454545201E+02-1.344693186E+01+
*       4.1369399350E+01               0
GRID*               5141               02.0454545455E+02-4.965133271E-15+
*       4.3500000000E+01               0
GRID*               5142               01.9090908842E+021.3280540244E+01+
*       4.0863996126E+01               0
GRID*               5143               02.0454545201E+021.3280531181E+01+
*       4.0863999201E+01               0
GRID*               5144               02.0454544712E+022.5563637730E+01+
*       3.5195300056E+01               0
GRID*               5145               01.9090908618E+023.5194426165E+01+
*       2.5564776834E+01               0
GRID*               5146               02.0454544936E+023.5194386466E+01+
*       2.5564828581E+01               0
GRID*               5147               02.0454545201E+024.1369399350E+01+
*       1.3446931856E+01               0
GRID*               5148               01.9090909091E+024.3500000000E+01+
*       5.3563890350E-14               0
GRID*               5149               02.0454545455E+024.3500000000E+01+
*       4.5340476671E-13               0
GRID*               5150               02.0454545229E+024.1369459349E+01+
*       -1.344675503E+01               0
GRID*               5151               01.9090908415E+023.5195237518E+01+
*       -2.556371925E+01               0
GRID*               5152               02.0454544712E+023.5195300056E+01+
*       -2.556363773E+01               0
GRID*               5153               02.0454544936E+022.5564828581E+01+
*       -3.519438647E+01               0
GRID*               5154               01.7727272117E+02-2.556379842E+01+
*       -3.519517678E+01               0
GRID*               5155               01.6363635980E+02-3.519449946E+01+
*       -2.556468130E+01               0
GRID*               5156               01.7727272300E+02-3.519446387E+01+
*       -2.556472769E+01               0
GRID*               5157               01.7727272494E+02-4.136940445E+01+
*       -1.344691681E+01               0
GRID*               5158               01.6363636364E+02-4.350000000E+01+
*       -2.978761676E-12               0
GRID*               5159               01.7727272727E+02-4.350000000E+01+
*       -2.820563764E-12               0
GRID*               5160               01.7727272515E+02-4.136945127E+01+
*       1.3446778852E+01               0
GRID*               5161               01.6363635818E+02-3.519511822E+01+
*       2.5563874752E+01               0
GRID*               5162               01.7727272117E+02-3.519517678E+01+
*       2.5563798423E+01               0
GRID*               5163               01.7727272300E+02-2.556472769E+01+
*       3.5194463867E+01               0
GRID*               5164               01.6363636142E+02-1.344690989E+01+
*       4.1369406802E+01               0
GRID*               5165               01.7727272494E+02-1.344691681E+01+
*       4.1369404455E+01               0
GRID*               5166               01.7727272727E+024.5133506178E-14+
*       4.3500000000E+01               0
GRID*               5167               01.6363636143E+021.3280576966E+01+
*       4.0863975349E+01               0
GRID*               5168               01.7727272500E+021.3280568483E+01+
*       4.0863978227E+01               0
GRID*               5169               01.7727272117E+022.5563798423E+01+
*       3.5195176777E+01               0
GRID*               5170               01.6363635980E+023.5194499459E+01+
*       2.5564681297E+01               0
GRID*               5171               01.7727272300E+023.5194463867E+01+
*       2.5564727690E+01               0
GRID*               5172               01.7727272494E+024.1369404455E+01+
*       1.3446916813E+01               0
GRID*               5173               01.6363636364E+024.3500000000E+01+
*       5.4512129582E-14               0
GRID*               5174               01.7727272727E+024.3500000000E+01+
*       4.5293064710E-13               0
GRID*               5175               01.7727272515E+024.1369451267E+01+
*       -1.344677885E+01               0
GRID*               5176               01.6363635818E+023.5195118219E+01+
*       -2.556387475E+01               0
GRID*               5177               01.7727272117E+023.5195176777E+01+
*       -2.556379842E+01               0
GRID*               5178               01.7727272300E+022.5564727690E+01+
*       -3.519446387E+01               0
GRID*               5179               01.4999999517E+02-2.556394774E+01+
*       -3.519506223E+01               0
GRID*               5180               01.3636363335E+02-3.519456386E+01+
*       -2.556459735E+01               0
GRID*               5181               01.4999999658E+02-3.519453283E+01+
*       -2.556463780E+01               0
GRID*               5182               01.4999999790E+02-4.136940900E+01+
*       -1.344690341E+01               0
GRID*               5183               01.3636363636E+02-4.350000000E+01+
*       -3.040555266E-12               0
GRID*               5184               01.5000000000E+02-4.350000000E+01+
*       -2.882199314E-12               0
GRID*               5185               01.4999999806E+02-4.136944376E+01+
*       1.3446800975E+01               0
GRID*               5186               01.3636363214E+02-3.519500918E+01+
*       2.5564016884E+01               0
GRID*               5187               01.4999999517E+02-3.519506223E+01+
*       2.5563947737E+01               0
GRID*               5188               01.4999999658E+02-2.556463780E+01+
*       3.5194532828E+01               0
GRID*               5189               01.3636363440E+02-1.344689737E+01+
*       4.1369411050E+01               0
GRID*               5190               01.4999999790E+02-1.344690341E+01+
*       4.1369409003E+01               0
GRID*               5191               01.5000000000E+023.7231512574E-14+
*       4.3500000000E+01               0
GRID*               5192               01.3636363446E+021.3280610523E+01+
*       4.0863956361E+01               0
GRID*               5193               01.4999999798E+021.3155954242E+01+
*       4.0484845373E+01               0
GRID*               5194               01.4999999517E+022.5563947737E+01+
*       3.5195062227E+01               0
GRID*               5195               01.3636363335E+023.5194563862E+01+
*       2.5564597347E+01               0
GRID*               5196               01.4999999658E+023.5194532828E+01+
*       2.5564637800E+01               0
GRID*               5197               01.4999999790E+024.1369409003E+01+
*       1.3446903408E+01               0
GRID*               5198               01.3636363636E+024.3500000000E+01+
*       8.2011067324E-14               0
GRID*               5199               01.5000000000E+024.3500000000E+01+
*       4.8058762471E-13               0
GRID*               5200               01.4999999806E+024.1369443760E+01+
*       -1.344680097E+01               0
GRID*               5201               01.3636363214E+023.5195009179E+01+
*       -2.556401688E+01               0
GRID*               5202               01.4999999517E+023.5195062227E+01+
*       -2.556394774E+01               0
GRID*               5203               01.4999999658E+022.5564637800E+01+
*       -3.519453283E+01               0
GRID*               5204               01.2272726909E+02-2.556408170E+01+
*       -3.519495945E+01               0
GRID*               5205               01.0909090683E+02-3.519461849E+01+
*       -2.556452615E+01               0
GRID*               5206               01.2272727010E+02-3.519459245E+01+
*       -2.556456008E+01               0
GRID*               5207               01.2272727091E+02-4.136941294E+01+
*       -1.344689182E+01               0
GRID*               5208               01.0909090909E+02-4.350000000E+01+
*       -3.089073507E-12               0
GRID*               5209               01.2272727273E+02-4.350000000E+01+
*       -2.943518785E-12               0
GRID*               5210               01.2272727101E+02-4.136943703E+01+
*       1.3446820815E+01               0
GRID*               5211               01.0909090601E+02-3.519491341E+01+
*       2.5564141711E+01               0
GRID*               5212               01.2272726909E+02-3.519495945E+01+
*       2.5564081704E+01               0
GRID*               5213               01.2272727010E+02-2.556456008E+01+
*       3.5194592452E+01               0
GRID*               5214               01.0909090742E+02-1.344688675E+01+
*       4.1369414654E+01               0
GRID*               5215               01.2272727091E+02-1.344689182E+01+
*       4.1369412937E+01               0
GRID*               5216               01.2272727273E+02-1.932700665E-14+
*       4.3500000000E+01               0
GRID*               5217               01.0909090751E+021.3446829700E+01+
*       4.1369434013E+01               0
GRID*               5218               01.2272727101E+021.3446820815E+01+
*       4.1369437028E+01               0
GRID*               5219               01.2272726909E+022.5564081704E+01+
*       3.5194959450E+01               0
GRID*               5220               01.0909090683E+023.5194618486E+01+
*       2.5564526146E+01               0
GRID*               5221               01.2272727010E+023.5194592452E+01+
*       2.5564560081E+01               0
GRID*               5222               01.2272727091E+024.1369412937E+01+
*       1.3446891816E+01               0
GRID*               5223               01.0909090909E+024.3500000000E+01+
*       1.6656239889E-13               0
GRID*               5224               01.2272727273E+024.3500000000E+01+
*       5.6656131512E-13               0
GRID*               5225               01.2272727101E+024.1369437028E+01+
*       -1.344682082E+01               0
GRID*               5226               01.0909090601E+023.5194913415E+01+
*       -2.556414171E+01               0
GRID*               5227               01.2272726909E+023.5194959450E+01+
*       -2.556408170E+01               0
GRID*               5228               01.2272727010E+022.5564560081E+01+
*       -3.519459245E+01               0
GRID*               5229               09.5454542896E+01-2.556419642E+01+
*       -3.519487144E+01               0
GRID*               5230               08.1818180247E+01-3.519466246E+01+
*       -2.556446883E+01               0
GRID*               5231               09.5454543550E+01-3.519464186E+01+
*       -2.556449568E+01               0
GRID*               5232               09.5454543951E+01-4.136941620E+01+
*       -1.344688221E+01               0
GRID*               5233               08.1818181818E+01-4.350000000E+01+
*       -3.164932646E-12               0
GRID*               5234               09.5454545455E+01-4.350000000E+01+
*       -3.005549435E-12               0
GRID*               5235               09.5454544015E+01-4.136943127E+01+
*       1.3446837799E+01               0
GRID*               5236               08.1818179751E+01-3.519483390E+01+
*       2.5564245360E+01               0
GRID*               5237               09.5454542896E+01-3.519487144E+01+
*       2.5564196422E+01               0
GRID*               5238               09.5454543550E+01-2.556449568E+01+
*       3.5194641857E+01               0
GRID*               5239               08.1818180490E+01-1.344687820E+01+
*       4.1369417555E+01               0
GRID*               5240               09.5454543951E+01-1.344688221E+01+
*       4.1369416196E+01               0
GRID*               5241               09.5454545455E+01-2.375212306E-14+
*       4.3500000000E+01               0
GRID*               5242               08.1818180537E+011.3446845042E+01+
*       4.1369428807E+01               0
GRID*               5243               09.5454544015E+011.3446837799E+01+
*       4.1369431265E+01               0
GRID*               5244               09.5454542896E+012.5564196422E+01+
*       3.5194871442E+01               0
GRID*               5245               08.1818180247E+013.5194662455E+01+
*       2.5564468833E+01               0
GRID*               5246               09.5454543550E+013.5194641857E+01+
*       2.5564495683E+01               0
GRID*               5247               09.5454543951E+014.1369416196E+01+
*       1.3446882210E+01               0
GRID*               5248               08.1818181818E+014.3500000000E+01+
*       1.6466592042E-13               0
GRID*               5249               09.5454545455E+014.3500000000E+01+
*       6.2140115073E-13               0
GRID*               5250               09.5454544015E+014.1369431265E+01+
*       -1.344683780E+01               0
GRID*               5251               08.1818179750E+013.5194833898E+01+
*       -2.556424536E+01               0
GRID*               5252               09.5454542896E+013.5194871442E+01+
*       -2.556419642E+01               0
GRID*               5253               09.5454543550E+012.5564495683E+01+
*       -3.519464186E+01               0
GRID*               5254               06.8181816569E+01-2.556428805E+01+
*       -3.519480115E+01               0
GRID*               5255               05.4545453581E+01-3.519469491E+01+
*       -2.556442653E+01               0
GRID*               5256               06.8181816924E+01-3.519468017E+01+
*       -2.556444574E+01               0
GRID*               5257               06.8181817041E+01-4.136941872E+01+
*       -1.344687476E+01               0
GRID*               5258               05.4545454545E+01-4.350000000E+01+
*       -3.227160845E-12               0
GRID*               5259               06.8181818182E+01-4.350000000E+01+
*       -3.067659104E-12               0
GRID*               5260               06.8181817074E+01-4.136942666E+01+
*       1.3446851360E+01               0
GRID*               5261               05.4545453347E+01-3.519477355E+01+
*       2.5564324020E+01               0
GRID*               5262               06.8181816569E+01-3.519480115E+01+
*       2.5564288050E+01               0
GRID*               5263               06.8181816924E+01-2.556444574E+01+
*       3.5194680174E+01               0
GRID*               5264               05.4545453605E+01-1.344687189E+01+
*       4.1369419697E+01               0
GRID*               5265               06.8181817041E+01-1.344687476E+01+
*       4.1369418724E+01               0
GRID*               5266               06.8181818182E+010.0000000000E+00+
*       4.3500000000E+01               0
GRID*               5267               05.4545453626E+011.3446856683E+01+
*       4.1369424858E+01               0
GRID*               5268               06.8181817074E+011.3446851360E+01+
*       4.1369426664E+01               0
GRID*               5269               06.8181816569E+012.5564288050E+01+
*       3.5194801147E+01               0
GRID*               5270               05.4545453581E+013.5194694907E+01+
*       2.5564426532E+01               0
GRID*               5271               06.8181816924E+013.5194680174E+01+
*       2.5564445736E+01               0
GRID*               5272               06.8181817041E+014.1369418724E+01+
*       1.3446874758E+01               0
GRID*               5273               05.4545454545E+014.3500000000E+01+
*       1.6336209148E-13               0
GRID*               5274               06.8181818182E+014.3500000000E+01+
*       5.6300541800E-13               0
GRID*               5275               06.8181817074E+014.1369426664E+01+
*       -1.344685136E+01               0
GRID*               5276               05.4545453347E+013.5194773552E+01+
*       -2.556432402E+01               0
GRID*               5277               06.8181816569E+013.5194801147E+01+
*       -2.556428805E+01               0
GRID*               5278               06.8181816924E+012.5564445736E+01+
*       -3.519468017E+01               0
GRID*               5279               04.0909090082E+01-2.556435280E+01+
*       -3.519475147E+01               0
GRID*               5280               02.7272726833E+01-3.519471499E+01+
*       -2.556440035E+01               0
GRID*               5281               04.0909090218E+01-3.519470655E+01+
*       -2.556441136E+01               0
GRID*               5282               04.0909090182E+01-4.136942046E+01+
*       -1.344686963E+01               0
GRID*               5283               02.7272727273E+01-4.350000000E+01+
*       -3.261297458E-12               0
GRID*               5284               04.0909090909E+01-4.350000000E+01+
*       -3.101756207E-12               0
GRID*               5285               04.0909090194E+01-4.136942341E+01+
*       1.3446860941E+01               0
GRID*               5286               02.7272726772E+01-3.519473526E+01+
*       2.5564373931E+01               0
GRID*               5287               04.0909090082E+01-3.519475147E+01+
*       2.5564352802E+01               0
GRID*               5288               04.0909090218E+01-2.556441136E+01+
*       3.5194706548E+01               0
GRID*               5289               02.7272726773E+01-1.344686799E+01+
*       4.1369421022E+01               0
GRID*               5290               04.0909090182E+01-1.344686963E+01+
*       4.1369420465E+01               0
GRID*               5291               04.0909090909E+012.5200727312E-14+
*       4.3500000000E+01               0
GRID*               5292               02.7272726779E+011.3446864067E+01+
*       4.1369422352E+01               0
GRID*               5293               04.0909090194E+011.3446860941E+01+
*       4.1369423413E+01               0
GRID*               5294               04.0909090082E+012.5564352802E+01+
*       3.5194751471E+01               0
GRID*               5295               02.7272726833E+013.5194714992E+01+
*       2.5564400352E+01               0
GRID*               5296               04.0909090218E+013.5194706548E+01+
*       2.5564411358E+01               0
GRID*               5297               04.0909090182E+014.1369420465E+01+
*       1.3446869629E+01               0
GRID*               5298               02.7272727273E+014.3500000000E+01+
*       2.2075032003E-13               0
GRID*               5299               04.0909090909E+014.3500000000E+01+
*       6.1970222211E-13               0
GRID*               5300               04.0909090194E+014.1369423413E+01+
*       -1.344686094E+01               0
GRID*               5301               02.7272726771E+013.5194735262E+01+
*       -2.556437393E+01               0
GRID*               5302               04.0909090082E+013.5194751471E+01+
*       -2.556435280E+01               0
GRID*               5303               04.0909090218E+012.5564411358E+01+
*       -3.519470655E+01               0
GRID*               5304               01.7727272732E+03-1.328070103E+01+
*       -4.086390514E+01               0
GRID*               5305               01.7863636366E+03-1.328070028E+01+
*       -4.086390540E+01               0
GRID*               5306               01.7863636366E+03-2.556439365E+01+
*       -3.519472013E+01               0
GRID*               5307               01.7454545463E+03-1.328070724E+01+
*       -4.086390164E+01               0
GRID*               5308               01.7590909098E+03-1.344686963E+01+
*       -4.136942046E+01               0
GRID*               5309               01.7181818194E+03-1.328071726E+01+
*       -4.086389597E+01               0
GRID*               5310               01.7318181828E+03-1.315609461E+01+
*       -4.048475544E+01               0
GRID*               5311               01.6909090923E+03-1.311457491E+01+
*       -4.035836195E+01               0
GRID*               5312               01.7045454559E+03-1.311457264E+01+
*       -4.035836272E+01               0
GRID*               5313               01.6636363656E+03-1.344689737E+01+
*       -4.136941105E+01               0
GRID*               5314               01.6772727291E+03-1.344689182E+01+
*       -4.136941294E+01               0
GRID*               5315               01.6363636386E+03-1.344690989E+01+
*       -4.136940680E+01               0
GRID*               5316               01.6500000021E+03-1.344690341E+01+
*       -4.136940900E+01               0
GRID*               5317               01.6090909115E+03-1.328079021E+01+
*       -4.086385475E+01               0
GRID*               5318               01.6227272751E+03-1.344691681E+01+
*       -4.136940445E+01               0
GRID*               5319               01.5818181845E+03-1.328081530E+01+
*       -4.086384057E+01               0
GRID*               5320               01.5954545481E+03-1.315621728E+01+
*       -4.048467508E+01               0
GRID*               5321               01.5545454573E+03-1.344695710E+01+
*       -4.136939078E+01               0
GRID*               5322               01.5681818209E+03-1.344694836E+01+
*       -4.136939375E+01               0
GRID*               5323               01.5272727302E+03-1.344697545E+01+
*       -4.136938456E+01               0
GRID*               5324               01.5409090938E+03-1.344696614E+01+
*       -4.136938772E+01               0
GRID*               5325               01.5000000034E+03-1.328090247E+01+
*       -4.086379130E+01               0
GRID*               5326               01.5136363666E+03-1.344698502E+01+
*       -4.136938131E+01               0
GRID*               5327               01.4727272763E+03-1.328093450E+01+
*       -4.086377319E+01               0
GRID*               5328               01.4863636402E+03-1.315636844E+01+
*       -4.048457667E+01               0
GRID*               5329               01.4454545492E+03-1.328096751E+01+
*       -4.086375454E+01               0
GRID*               5330               01.4590909122E+03-1.344702528E+01+
*       -4.136936765E+01               0
GRID*               5331               01.4181818221E+03-1.328100117E+01+
*       -4.086373551E+01               0
GRID*               5332               01.4318181862E+03-1.315645339E+01+
*       -4.048452148E+01               0
GRID*               5333               01.3909090941E+03-1.344707828E+01+
*       -4.136934967E+01               0
GRID*               5334               01.4045454577E+03-1.344706758E+01+
*       -4.136935330E+01               0
GRID*               5335               01.3636363668E+03-1.344709965E+01+
*       -4.136934242E+01               0
GRID*               5336               01.3772727305E+03-1.344708898E+01+
*       -4.136934604E+01               0
GRID*               5337               01.3363636396E+03-1.344712078E+01+
*       -4.136933525E+01               0
GRID*               5338               01.3500000032E+03-1.344711026E+01+
*       -4.136933882E+01               0
GRID*               5339               01.3090909123E+03-1.344714145E+01+
*       -4.136932823E+01               0
GRID*               5340               01.3227272759E+03-1.344713119E+01+
*       -4.136933171E+01               0
GRID*               5341               01.2818181849E+03-1.344716143E+01+
*       -4.136932145E+01               0
GRID*               5342               01.2954545486E+03-1.344715154E+01+
*       -4.136932481E+01               0
GRID*               5343               01.2545454591E+03-1.328119774E+01+
*       -4.086362435E+01               0
GRID*               5344               01.2681818213E+03-1.344717108E+01+
*       -4.136931818E+01               0
GRID*               5345               01.2272727319E+03-1.328122616E+01+
*       -4.086360827E+01               0
GRID*               5346               01.2409090968E+03-1.315674214E+01+
*       -4.048433443E+01               0
GRID*               5347               01.2000000029E+03-1.344721466E+01+
*       -4.136930339E+01               0
GRID*               5348               01.2136363666E+03-1.344720668E+01+
*       -4.136930610E+01               0
GRID*               5349               01.1727272756E+03-1.344722929E+01+
*       -4.136929843E+01               0
GRID*               5350               01.1863636393E+03-1.344722221E+01+
*       -4.136930083E+01               0
GRID*               5351               01.1454545482E+03-1.344724187E+01+
*       -4.136929416E+01               0
GRID*               5352               01.1590909119E+03-1.344723585E+01+
*       -4.136929620E+01               0
GRID*               5353               01.1181818208E+03-1.344725210E+01+
*       -4.136929069E+01               0
GRID*               5354               01.1318181845E+03-1.344724730E+01+
*       -4.136929232E+01               0
GRID*               5355               01.0909090934E+03-1.344725965E+01+
*       -4.136928812E+01               0
GRID*               5356               01.1045454571E+03-1.344725623E+01+
*       -4.136928928E+01               0
GRID*               5357               01.0636363660E+03-1.344726418E+01+
*       -4.136928659E+01               0
GRID*               5358               01.0772727297E+03-1.344726232E+01+
*       -4.136928722E+01               0
GRID*               5359               01.0363636386E+03-1.344726530E+01+
*       -4.136928621E+01               0
GRID*               5360               01.0500000023E+03-1.344726519E+01+
*       -4.136928625E+01               0
GRID*               5361               01.0090909112E+03-1.344726262E+01+
*       -4.136928712E+01               0
GRID*               5362               01.0227272749E+03-1.344726446E+01+
*       -4.136928649E+01               0
GRID*               5363               09.8181818379E+02-1.344725571E+01+
*       -4.136928946E+01               0
GRID*               5364               09.9545454751E+02-1.344725972E+01+
*       -4.136928810E+01               0
GRID*               5365               09.5454545636E+02-1.344724412E+01+
*       -4.136929340E+01               0
GRID*               5366               09.6818182008E+02-1.344725053E+01+
*       -4.136929122E+01               0
GRID*               5367               09.2727272892E+02-1.344722732E+01+
*       -4.136929909E+01               0
GRID*               5368               09.4090909264E+02-1.344723640E+01+
*       -4.136929601E+01               0
GRID*               5369               09.0000000147E+02-1.344720479E+01+
*       -4.136930674E+01               0
GRID*               5370               09.1363636520E+02-1.344721681E+01+
*       -4.136930266E+01               0
GRID*               5371               08.7272727401E+02-1.344717592E+01+
*       -4.136931654E+01               0
GRID*               5372               08.8636363774E+02-1.344719119E+01+
*       -4.136931136E+01               0
GRID*               5373               08.4545454654E+02-1.344714005E+01+
*       -4.136932871E+01               0
GRID*               5374               08.5909091028E+02-1.344715890E+01+
*       -4.136932231E+01               0
GRID*               5375               08.1818181906E+02-1.344709645E+01+
*       -4.136934350E+01               0
GRID*               5376               08.3181818280E+02-1.344711926E+01+
*       -4.136933576E+01               0
GRID*               5377               07.9090909156E+02-1.344704430E+01+
*       -4.136936120E+01               0
GRID*               5378               08.0454545531E+02-1.344707150E+01+
*       -4.136935197E+01               0
GRID*               5379               07.6363636405E+02-1.344698271E+01+
*       -4.136938210E+01               0
GRID*               5380               07.7727272780E+02-1.344701475E+01+
*       -4.136937122E+01               0
GRID*               5381               07.3636363651E+02-1.344691063E+01+
*       -4.136940655E+01               0
GRID*               5382               07.5000000028E+02-1.344694805E+01+
*       -4.136939386E+01               0
GRID*               5383               07.0909090896E+02-1.344682969E+01+
*       -4.136943402E+01               0
GRID*               5384               07.2272727274E+02-1.344687030E+01+
*       -4.136942024E+01               0
GRID*               5385               06.8181818143E+02-1.344675869E+01+
*       -4.136945811E+01               0
GRID*               5386               06.9545454519E+02-1.344679253E+01+
*       -4.136944663E+01               0
GRID*               5387               06.5454545297E+02-1.328043820E+01+
*       -4.086405301E+01               0
GRID*               5388               06.6818181670E+02-1.328045891E+01+
*       -4.086404598E+01               0
GRID*               5389               06.2727272519E+02-1.328036323E+01+
*       -4.086409555E+01               0
GRID*               5390               06.4090908892E+02-1.328037968E+01+
*       -4.086408997E+01               0
GRID*               5391               05.9999999750E+02-1.328030519E+01+
*       -4.086412850E+01               0
GRID*               5392               06.1363636121E+02-1.328031777E+01+
*       -4.086412424E+01               0
GRID*               5393               05.7272726987E+02-1.328026252E+01+
*       -4.086415275E+01               0
GRID*               5394               05.8636363359E+02-1.328027159E+01+
*       -4.086414967E+01               0
GRID*               5395               05.4545454232E+02-1.328023372E+01+
*       -4.086416913E+01               0
GRID*               5396               05.5909090603E+02-1.328023962E+01+
*       -4.086416713E+01               0
GRID*               5397               05.1818181483E+02-1.328021736E+01+
*       -4.086417847E+01               0
GRID*               5398               05.3181817853E+02-1.328022043E+01+
*       -4.086417743E+01               0
GRID*               5399               04.9090908739E+02-1.328021208E+01+
*       -4.086418152E+01               0
GRID*               5400               05.0454545109E+02-1.328021263E+01+
*       -4.086418134E+01               0
GRID*               5401               04.6363636001E+02-1.328021656E+01+
*       -4.086417905E+01               0
GRID*               5402               04.7727272370E+02-1.328021490E+01+
*       -4.086417961E+01               0
GRID*               5403               04.3636363268E+02-1.328022955E+01+
*       -4.086417175E+01               0
GRID*               5404               04.4999999637E+02-1.328022597E+01+
*       -4.086417296E+01               0
GRID*               5405               04.0909090540E+02-1.328024983E+01+
*       -4.086416031E+01               0
GRID*               5406               04.2272726908E+02-1.328024462E+01+
*       -4.086416208E+01               0
GRID*               5407               03.8181817816E+02-1.328027622E+01+
*       -4.086414541E+01               0
GRID*               5408               03.9545454183E+02-1.328026965E+01+
*       -4.086414765E+01               0
GRID*               5409               03.5454545095E+02-1.328030759E+01+
*       -4.086412770E+01               0
GRID*               5410               03.6818181461E+02-1.328029992E+01+
*       -4.086413030E+01               0
GRID*               5411               03.2727272379E+02-1.328034282E+01+
*       -4.086410778E+01               0
GRID*               5412               03.4090908744E+02-1.328033431E+01+
*       -4.086411067E+01               0
GRID*               5413               02.9999999665E+02-1.328038084E+01+
*       -4.086408629E+01               0
GRID*               5414               03.1363636029E+02-1.328037175E+01+
*       -4.086408937E+01               0
GRID*               5415               02.7272726955E+02-1.328042061E+01+
*       -4.086406380E+01               0
GRID*               5416               02.8636363318E+02-1.328041117E+01+
*       -4.086406700E+01               0
GRID*               5417               02.4545454248E+02-1.328046110E+01+
*       -4.086404090E+01               0
GRID*               5418               02.5909090610E+02-1.328045155E+01+
*       -4.086404414E+01               0
GRID*               5419               02.1818181544E+02-1.328050130E+01+
*       -4.086401816E+01               0
GRID*               5420               02.3181817904E+02-1.328049188E+01+
*       -4.086402135E+01               0
GRID*               5421               01.9090908842E+02-1.328054024E+01+
*       -4.086399613E+01               0
GRID*               5422               02.0454545201E+02-1.328053118E+01+
*       -4.086399920E+01               0
GRID*               5423               01.6363636143E+02-1.328057697E+01+
*       -4.086397535E+01               0
GRID*               5424               01.7727272489E+02-1.315591071E+01+
*       -4.048487345E+01               0
GRID*               5425               01.3636363446E+02-1.328061052E+01+
*       -4.086395636E+01               0
GRID*               5426               01.4999999798E+02-1.315595424E+01+
*       -4.048484537E+01               0
GRID*               5427               01.0909090751E+02-1.344682970E+01+
*       -4.136943401E+01               0
GRID*               5428               01.2272727101E+02-1.344682082E+01+
*       -4.136943703E+01               0
GRID*               5429               08.1818180537E+01-1.344684504E+01+
*       -4.136942881E+01               0
GRID*               5430               09.5454544015E+01-1.344683780E+01+
*       -4.136943127E+01               0
GRID*               5431               05.4545453626E+01-1.344685668E+01+
*       -4.136942486E+01               0
GRID*               5432               06.8181817074E+01-1.344685136E+01+
*       -4.136942666E+01               0
GRID*               5433               02.7272726779E+01-1.344686407E+01+
*       -4.136942235E+01               0
GRID*               5434               04.0909090194E+01-1.344686094E+01+
*       -4.136942341E+01               0
GRID*               5435               01.3636363380E+01-1.344686599E+01+
*       -4.136942170E+01               0
GRID*               5436               01.3636363412E+01-2.556438694E+01+
*       -3.519472528E+01               0
GRID*               5437               01.3636363428E+01-3.519472013E+01+
*       -2.556439365E+01               0
GRID*               5438               01.3636363379E+01-4.136942136E+01+
*       -1.344686699E+01               0
GRID*               5439               01.3636363636E+01-4.350000000E+01+
*       -3.148496499E-12               0
GRID*               5440               01.3636363380E+01-4.136942170E+01+
*       1.3446865992E+01               0
GRID*               5441               01.3636363412E+01-3.519472528E+01+
*       2.5564386945E+01               0
GRID*               5442               01.3636363428E+01-2.556439365E+01+
*       3.5194720135E+01               0
GRID*               5443               01.3636363379E+01-1.344686699E+01+
*       4.1369421361E+01               0
GRID*               5444               01.3636363636E+01-6.960386656E-15+
*       4.3500000000E+01               0
GRID*               5445               01.3636363380E+011.3446865992E+01+
*       4.1369421699E+01               0
GRID*               5446               01.3636363412E+012.5564386945E+01+
*       3.5194725278E+01               0
GRID*               5447               01.3636363428E+013.5194720135E+01+
*       2.5564393649E+01               0
GRID*               5448               01.3636363379E+014.1369421361E+01+
*       1.3446866986E+01               0
GRID*               5449               01.3636363636E+014.3500000000E+01+
*       6.7603355901E-13               0
GRID*               5450               01.3636363380E+014.1369421699E+01+
*       -1.344686599E+01               0
GRID*               5451               01.3636363412E+013.5194725278E+01+
*       -2.556438694E+01               0
GRID*               5452               01.3636363428E+012.5564393649E+01+
*       -3.519472013E+01               0
GRID*               5453               01.3636363379E+011.3446866986E+01+
*       -4.136942136E+01               0
GRID*               5454               02.7272726773E+011.3446867987E+01+
*       -4.136942102E+01               0
GRID*               5455               04.0909090182E+011.3446869629E+01+
*       -4.136942046E+01               0
GRID*               5456               05.4545453605E+011.3446871893E+01+
*       -4.136941970E+01               0
GRID*               5457               06.8181817041E+011.3446874758E+01+
*       -4.136941872E+01               0
GRID*               5458               08.1818180490E+011.3446878204E+01+
*       -4.136941756E+01               0
GRID*               5459               09.5454543951E+011.3446882210E+01+
*       -4.136941620E+01               0
GRID*               5460               01.0909090742E+021.3446886754E+01+
*       -4.136941465E+01               0
GRID*               5461               01.2272727091E+021.3446891816E+01+
*       -4.136941294E+01               0
GRID*               5462               01.3636363440E+021.3446897374E+01+
*       -4.136941105E+01               0
GRID*               5463               01.4999999790E+021.3446903408E+01+
*       -4.136940900E+01               0
GRID*               5464               01.6363636142E+021.3446909894E+01+
*       -4.136940680E+01               0
GRID*               5465               01.7727272494E+021.3446916813E+01+
*       -4.136940445E+01               0
GRID*               5466               01.9090908847E+021.3446924141E+01+
*       -4.136940197E+01               0
GRID*               5467               02.0454545201E+021.3446931856E+01+
*       -4.136939935E+01               0
GRID*               5468               02.1818181555E+021.3446939937E+01+
*       -4.136939661E+01               0
GRID*               5469               02.3181817911E+021.3446948360E+01+
*       -4.136939375E+01               0
GRID*               5470               02.4545454267E+021.3446957102E+01+
*       -4.136939078E+01               0
GRID*               5471               02.5909090624E+021.3446966141E+01+
*       -4.136938772E+01               0
GRID*               5472               02.7272726981E+021.3446975454E+01+
*       -4.136938456E+01               0
GRID*               5473               02.8636363340E+021.3446985016E+01+
*       -4.136938131E+01               0
GRID*               5474               02.9999999698E+021.3446994804E+01+
*       -4.136937799E+01               0
GRID*               5475               03.1363636058E+021.3447004793E+01+
*       -4.136937460E+01               0
GRID*               5476               03.2727272418E+021.3447014960E+01+
*       -4.136937115E+01               0
GRID*               5477               03.4090908778E+021.3447025280E+01+
*       -4.136936765E+01               0
GRID*               5478               03.5454545139E+021.3447035727E+01+
*       -4.136936411E+01               0
GRID*               5479               03.6818181430E+021.3280993197E+01+
*       -4.086373821E+01               0
GRID*               5480               03.8181817792E+021.3281001167E+01+
*       -4.086373551E+01               0
GRID*               5481               03.9545454141E+021.3281027129E+01+
*       -4.086371902E+01               0
GRID*               5482               04.0909090504E+021.3281035154E+01+
*       -4.086371629E+01               0
GRID*               5483               04.2272726952E+021.3447088978E+01+
*       -4.136934604E+01               0
GRID*               5484               04.3636363315E+021.3447099646E+01+
*       -4.136934242E+01               0
GRID*               5485               04.4999999679E+021.3447110255E+01+
*       -4.136933882E+01               0
GRID*               5486               04.6363636044E+021.3447120778E+01+
*       -4.136933525E+01               0
GRID*               5487               04.7727272409E+021.3447131186E+01+
*       -4.136933171E+01               0
GRID*               5488               04.9090908774E+021.3447141450E+01+
*       -4.136932823E+01               0
GRID*               5489               05.0454545002E+021.3281160019E+01+
*       -4.086364401E+01               0
GRID*               5490               05.1818181367E+021.3281167433E+01+
*       -4.086364149E+01               0
GRID*               5491               05.3181817721E+021.3281190706E+01+
*       -4.086362674E+01               0
GRID*               5492               05.4545454087E+021.3281197744E+01+
*       -4.086362435E+01               0
GRID*               5493               05.5909090442E+021.3281219599E+01+
*       -4.086361050E+01               0
GRID*               5494               05.7272726808E+021.3281226162E+01+
*       -4.086360827E+01               0
GRID*               5495               05.8636363339E+021.3447206679E+01+
*       -4.136930610E+01               0
GRID*               5496               05.9999999707E+021.3447214664E+01+
*       -4.136930339E+01               0
GRID*               5497               06.1363635889E+021.3281270303E+01+
*       -4.086358208E+01               0
GRID*               5498               06.2727272256E+021.3281275610E+01+
*       -4.086358028E+01               0
GRID*               5499               06.4090908616E+021.3281291215E+01+
*       -4.086357042E+01               0
GRID*               5500               06.5454544984E+021.3281295728E+01+
*       -4.086356888E+01               0
GRID*               5501               06.6818181346E+021.3281308527E+01+
*       -4.086356081E+01               0
GRID*               5502               06.8181817713E+021.3281312128E+01+
*       -4.086355959E+01               0
GRID*               5503               06.9545454077E+021.3281321724E+01+
*       -4.086355355E+01               0
GRID*               5504               07.0909090445E+021.3281324289E+01+
*       -4.086355268E+01               0
GRID*               5505               07.2272727027E+021.3447262318E+01+
*       -4.136928722E+01               0
GRID*               5506               07.3636363396E+021.3447264178E+01+
*       -4.136928659E+01               0
GRID*               5507               07.4999999767E+021.3447265188E+01+
*       -4.136928625E+01               0
GRID*               5508               07.6363636137E+021.3447265299E+01+
*       -4.136928621E+01               0
GRID*               5509               07.7727272508E+021.3447264461E+01+
*       -4.136928649E+01               0
GRID*               5510               07.9090908878E+021.3447262621E+01+
*       -4.136928712E+01               0
GRID*               5511               08.0454545249E+021.3447259724E+01+
*       -4.136928810E+01               0
GRID*               5512               08.1818181621E+021.3447255714E+01+
*       -4.136928946E+01               0
GRID*               5513               08.3181817992E+021.3447250531E+01+
*       -4.136929122E+01               0
GRID*               5514               08.4545454364E+021.3447244115E+01+
*       -4.136929340E+01               0
GRID*               5515               08.5909090736E+021.3447236401E+01+
*       -4.136929601E+01               0
GRID*               5516               08.7272727108E+021.3447227323E+01+
*       -4.136929909E+01               0
GRID*               5517               08.8636363480E+021.3447216811E+01+
*       -4.136930266E+01               0
GRID*               5518               08.9999999853E+021.3447204791E+01+
*       -4.136930674E+01               0
GRID*               5519               09.1363636226E+021.3447191188E+01+
*       -4.136931136E+01               0
GRID*               5520               09.2727272599E+021.3447175920E+01+
*       -4.136931654E+01               0
GRID*               5521               09.4090908972E+021.3447158903E+01+
*       -4.136932231E+01               0
GRID*               5522               09.5454545346E+021.3447140049E+01+
*       -4.136932871E+01               0
GRID*               5523               09.6818181720E+021.3447119264E+01+
*       -4.136933576E+01               0
GRID*               5524               09.8181818094E+021.3447096448E+01+
*       -4.136934350E+01               0
GRID*               5525               09.9545454469E+021.3447071499E+01+
*       -4.136935197E+01               0
GRID*               5526               01.0090909084E+031.3447044304E+01+
*       -4.136936120E+01               0
GRID*               5527               01.0227272722E+031.3447014748E+01+
*       -4.136937122E+01               0
GRID*               5528               01.0363636360E+031.3446982706E+01+
*       -4.136938210E+01               0
GRID*               5529               01.0499999997E+031.3446948046E+01+
*       -4.136939386E+01               0
GRID*               5530               01.0636363635E+031.3446910626E+01+
*       -4.136940655E+01               0
GRID*               5531               01.0772727273E+031.3446870298E+01+
*       -4.136942024E+01               0
GRID*               5532               01.0909090910E+031.3446829692E+01+
*       -4.136943402E+01               0
GRID*               5533               01.1045454548E+031.3446792531E+01+
*       -4.136944663E+01               0
GRID*               5534               01.1181818186E+031.3446758694E+01+
*       -4.136945811E+01               0
GRID*               5535               01.1318181823E+031.3446728035E+01+
*       -4.136946851E+01               0
GRID*               5536               01.1454545461E+031.3446700417E+01+
*       -4.136947788E+01               0
GRID*               5537               01.1590909099E+031.3446675703E+01+
*       -4.136948627E+01               0
GRID*               5538               01.1727272736E+031.3446653764E+01+
*       -4.136949371E+01               0
GRID*               5539               01.1863636374E+031.3446634470E+01+
*       -4.136950026E+01               0
GRID*               5540               01.2000000011E+031.3446617697E+01+
*       -4.136950595E+01               0
GRID*               5541               01.2136363648E+031.3446603324E+01+
*       -4.136951083E+01               0
GRID*               5542               01.2272727286E+031.3446591233E+01+
*       -4.136951493E+01               0
GRID*               5543               01.2409090923E+031.3446581307E+01+
*       -4.136951830E+01               0
GRID*               5544               01.2545454561E+031.3446573436E+01+
*       -4.136952097E+01               0
GRID*               5545               01.2681818198E+031.3446567506E+01+
*       -4.136952298E+01               0
GRID*               5546               01.2818181835E+031.3446563413E+01+
*       -4.136952437E+01               0
GRID*               5547               01.2954545472E+031.3446561048E+01+
*       -4.136952517E+01               0
GRID*               5548               01.3090909109E+031.3446560309E+01+
*       -4.136952542E+01               0
GRID*               5549               01.3227272747E+031.3446561095E+01+
*       -4.136952515E+01               0
GRID*               5550               01.3363636384E+031.3446563305E+01+
*       -4.136952440E+01               0
GRID*               5551               01.3500000021E+031.3446566843E+01+
*       -4.136952320E+01               0
GRID*               5552               01.3636363658E+031.3446571612E+01+
*       -4.136952159E+01               0
GRID*               5553               01.3772727295E+031.3446577518E+01+
*       -4.136951958E+01               0
GRID*               5554               01.3909090931E+031.3446584468E+01+
*       -4.136951722E+01               0
GRID*               5555               01.4045454568E+031.3446592371E+01+
*       -4.136951454E+01               0
GRID*               5556               01.4181818205E+031.3446601138E+01+
*       -4.136951157E+01               0
GRID*               5557               01.4318181842E+031.3446610679E+01+
*       -4.136950833E+01               0
GRID*               5558               01.4454545478E+031.3446620908E+01+
*       -4.136950486E+01               0
GRID*               5559               01.4590909115E+031.3446631739E+01+
*       -4.136950118E+01               0
GRID*               5560               01.4727272752E+031.3446643087E+01+
*       -4.136949733E+01               0
GRID*               5561               01.4863636388E+031.3446654869E+01+
*       -4.136949334E+01               0
GRID*               5562               01.5000000024E+031.3446667001E+01+
*       -4.136948922E+01               0
GRID*               5563               01.5136363661E+031.3446679403E+01+
*       -4.136948501E+01               0
GRID*               5564               01.5272727297E+031.3446691995E+01+
*       -4.136948074E+01               0
GRID*               5565               01.5409090933E+031.3446704696E+01+
*       -4.136947643E+01               0
GRID*               5566               01.5545454569E+031.3446717427E+01+
*       -4.136947211E+01               0
GRID*               5567               01.5681818205E+031.3446730112E+01+
*       -4.136946780E+01               0
GRID*               5568               01.5818181841E+031.3446742673E+01+
*       -4.136946354E+01               0
GRID*               5569               01.5954545477E+031.3446755033E+01+
*       -4.136945935E+01               0
GRID*               5570               01.6090909113E+031.3446767118E+01+
*       -4.136945525E+01               0
GRID*               5571               01.6227272748E+031.3446778852E+01+
*       -4.136945127E+01               0
GRID*               5572               01.6363636384E+031.3446790162E+01+
*       -4.136944743E+01               0
GRID*               5573               01.6500000019E+031.3446800975E+01+
*       -4.136944376E+01               0
GRID*               5574               01.6636363655E+031.3446811216E+01+
*       -4.136944029E+01               0
GRID*               5575               01.6772727290E+031.3446820815E+01+
*       -4.136943703E+01               0
GRID*               5576               01.6909090925E+031.3446829700E+01+
*       -4.136943401E+01               0
GRID*               5577               01.7045454560E+031.3446837799E+01+
*       -4.136943127E+01               0
GRID*               5578               01.7181818194E+031.3280664452E+01+
*       -4.086392584E+01               0
GRID*               5579               01.7318181827E+031.3156049769E+01+
*       -4.048478421E+01               0
GRID*               5580               01.7454545463E+031.3280683014E+01+
*       -4.086391534E+01               0
GRID*               5581               01.7590909098E+031.3446860941E+01+
*       -4.136942341E+01               0
GRID*               5582               01.7727272732E+031.3446864067E+01+
*       -4.136942235E+01               0
GRID*               5583               01.7863636366E+032.5564386945E+01+
*       -3.519472528E+01               0
GRID*               5584               01.7863636366E+031.3446865992E+01+
*       -4.136942170E+01               0
GRID*               5585               01.7863636366E+034.1369421361E+01+
*       -1.344686699E+01               0
GRID*               5586               01.7863636366E+033.5194720135E+01+
*       -2.556439365E+01               0
GRID*               5587               01.7863636366E+034.1369421699E+01+
*       1.3446865992E+01               0
GRID*               5588               01.7863636364E+034.3500000000E+01+
*       -1.548012173E-12               0
GRID*               5589               01.7863636366E+032.5564393649E+01+
*       3.5194720135E+01               0
GRID*               5590               01.7863636366E+033.5194725278E+01+
*       2.5564386945E+01               0
GRID*               5591               01.7863636364E+034.6783047343E-14+
*       4.3500000000E+01               0
GRID*               5592               01.7863636366E+031.3446866986E+01+
*       4.1369421361E+01               0
GRID*               5593               01.7863636366E+03-2.556438694E+01+
*       3.5194725278E+01               0
GRID*               5594               01.7863636366E+03-1.344686599E+01+
*       4.1369421699E+01               0
GRID*               5595               01.7863636366E+03-4.136942136E+01+
*       1.3446866986E+01               0
GRID*               5596               01.7863636366E+03-3.519472013E+01+
*       2.5564393649E+01               0
GRID*               5597               01.7863636366E+03-4.136942170E+01+
*       -1.344686599E+01               0
GRID*               5598               01.7863636364E+03-4.350000000E+01+
*       3.9396723370E-13               0
GRID*               5599               01.7863636366E+03-3.519472528E+01+
*       -2.556438694E+01               0
GRID*               5600               01.7731343284E+032.5002685023E+01+
*       -4.329971922E+01               0
GRID*               5601               01.7731343284E+034.3296226436E+01+
*       -2.500873285E+01               0
GRID*               5602               01.7731343284E+034.9999998983E+01+
*       1.0082198869E-02               0
GRID*               5603               01.7731343284E+034.3305920756E+01+
*       2.4991942110E+01               0
GRID*               5604               01.7731343284E+032.4999326339E+01+
*       4.3301658462E+01               0
GRID*               5605               01.7731343284E+03-1.276889023E-14+
*       5.0000000000E+01               0
GRID*               5606               01.7731343284E+03-2.499932634E+01+
*       4.3301658463E+01               0
GRID*               5607               01.7731343284E+03-4.330592075E+01+
*       2.4991942129E+01               0
GRID*               5608               01.7731343284E+03-4.999999898E+01+
*       1.0082238332E-02               0
GRID*               5609               01.7731343284E+03-4.329622647E+01+
*       -2.500873281E+01               0
GRID*               5610               01.7731343284E+03-2.500268502E+01+
*       -4.329971922E+01               0
GRID*               5611               01.7462686567E+032.5002685023E+01+
*       -4.329971922E+01               0
GRID*               5612               01.7462686567E+034.3296226434E+01+
*       -2.500873286E+01               0
GRID*               5613               01.7462686567E+034.9999998983E+01+
*       1.0082198931E-02               0
GRID*               5614               01.7462686567E+034.3305920757E+01+
*       2.4991942108E+01               0
GRID*               5615               01.7462686567E+032.4999326339E+01+
*       4.3301658462E+01               0
GRID*               5616               01.7462686567E+03-4.049448379E-15+
*       5.0000000000E+01               0
GRID*               5617               01.7462686567E+03-2.499932634E+01+
*       4.3301658463E+01               0
GRID*               5618               01.7462686567E+03-4.330592075E+01+
*       2.4991942129E+01               0
GRID*               5619               01.7462686567E+03-4.999999898E+01+
*       1.0082241036E-02               0
GRID*               5620               01.7462686567E+03-4.329622647E+01+
*       -2.500873281E+01               0
GRID*               5621               01.7462686567E+03-2.500268502E+01+
*       -4.329971922E+01               0
GRID*               5622               01.7194029851E+032.5002685023E+01+
*       -4.329971922E+01               0
GRID*               5623               01.7194029851E+034.3296226434E+01+
*       -2.500873286E+01               0
GRID*               5624               01.7194029851E+034.9999998983E+01+
*       1.0082199033E-02               0
GRID*               5625               01.7194029851E+034.3305920757E+01+
*       2.4991942108E+01               0
GRID*               5626               01.7194029851E+032.4999326339E+01+
*       4.3301658462E+01               0
GRID*               5627               01.7194029851E+03-2.294157240E-14+
*       5.0000000000E+01               0
GRID*               5628               01.7194029851E+03-2.499932634E+01+
*       4.3301658463E+01               0
GRID*               5629               01.7194029851E+03-4.330592075E+01+
*       2.4991942129E+01               0
GRID*               5630               01.7194029851E+03-4.999999898E+01+
*       1.0082241433E-02               0
GRID*               5631               01.7194029851E+03-4.329622647E+01+
*       -2.500873281E+01               0
GRID*               5632               01.7194029851E+03-2.500268502E+01+
*       -4.329971922E+01               0
GRID*               5633               01.6925373134E+032.5002685023E+01+
*       -4.329971922E+01               0
GRID*               5634               01.6925373134E+034.3296226435E+01+
*       -2.500873286E+01               0
GRID*               5635               01.6925373134E+034.9999998983E+01+
*       1.0082199173E-02               0
GRID*               5636               01.6925373134E+034.3305920757E+01+
*       2.4991942108E+01               0
GRID*               5637               01.6925373134E+032.4999326339E+01+
*       4.3301658462E+01               0
GRID*               5638               01.6925373134E+031.4842675642E-14+
*       5.0000000000E+01               0
GRID*               5639               01.6925373134E+03-2.499932634E+01+
*       4.3301658463E+01               0
GRID*               5640               01.6925373134E+03-4.330592075E+01+
*       2.4991942129E+01               0
GRID*               5641               01.6925373134E+03-4.999999898E+01+
*       1.0082241240E-02               0
GRID*               5642               01.6925373134E+03-4.329622647E+01+
*       -2.500873281E+01               0
GRID*               5643               01.6925373134E+03-2.500268502E+01+
*       -4.329971922E+01               0
GRID*               5644               01.6656716418E+032.5002685023E+01+
*       -4.329971922E+01               0
GRID*               5645               01.6656716418E+034.3296226435E+01+
*       -2.500873286E+01               0
GRID*               5646               01.6656716418E+034.9999998983E+01+
*       1.0082199352E-02               0
GRID*               5647               01.6656716418E+034.3305920757E+01+
*       2.4991942108E+01               0
GRID*               5648               01.6656716418E+032.4999326339E+01+
*       4.3301658462E+01               0
GRID*               5649               01.6656716418E+03-6.072582044E-14+
*       5.0000000000E+01               0
GRID*               5650               01.6656716418E+03-2.499932634E+01+
*       4.3301658463E+01               0
GRID*               5651               01.6656716418E+03-4.330592075E+01+
*       2.4991942129E+01               0
GRID*               5652               01.6656716418E+03-4.999999898E+01+
*       1.0082240800E-02               0
GRID*               5653               01.6656716418E+03-4.329622647E+01+
*       -2.500873281E+01               0
GRID*               5654               01.6656716418E+03-2.500268502E+01+
*       -4.329971922E+01               0
GRID*               5655               01.6388059701E+032.5002685023E+01+
*       -4.329971922E+01               0
GRID*               5656               01.6388059701E+034.3296226435E+01+
*       -2.500873285E+01               0
GRID*               5657               01.6388059701E+034.9999998983E+01+
*       1.0082199567E-02               0
GRID*               5658               01.6388059701E+034.3305920757E+01+
*       2.4991942108E+01               0
GRID*               5659               01.6388059701E+032.4999326339E+01+
*       4.3301658462E+01               0
GRID*               5660               01.6388059701E+03-5.200637859E-14+
*       5.0000000000E+01               0
GRID*               5661               01.6388059701E+03-2.499932634E+01+
*       4.3301658463E+01               0
GRID*               5662               01.6388059701E+03-4.330592075E+01+
*       2.4991942128E+01               0
GRID*               5663               01.6388059701E+03-4.999999898E+01+
*       1.0082240229E-02               0
GRID*               5664               01.6388059701E+03-4.329622647E+01+
*       -2.500873281E+01               0
GRID*               5665               01.6388059701E+03-2.500268502E+01+
*       -4.329971922E+01               0
GRID*               5666               01.6119402985E+032.5002685023E+01+
*       -4.329971922E+01               0
GRID*               5667               01.6119402985E+034.3296226436E+01+
*       -2.500873285E+01               0
GRID*               5668               01.6119402985E+034.9999998983E+01+
*       1.0082199819E-02               0
GRID*               5669               01.6119402985E+034.3305920756E+01+
*       2.4991942109E+01               0
GRID*               5670               01.6119402985E+032.4999326339E+01+
*       4.3301658462E+01               0
GRID*               5671               01.6119402985E+031.4842675642E-14+
*       5.0000000000E+01               0
GRID*               5672               01.6119402985E+03-2.499932634E+01+
*       4.3301658463E+01               0
GRID*               5673               01.6119402985E+03-4.330592075E+01+
*       2.4991942128E+01               0
GRID*               5674               01.6119402985E+03-4.999999898E+01+
*       1.0082239578E-02               0
GRID*               5675               01.6119402985E+03-4.329622647E+01+
*       -2.500873281E+01               0
GRID*               5676               01.6119402985E+03-2.500268502E+01+
*       -4.329971922E+01               0
GRID*               5677               01.5850746269E+032.5002685023E+01+
*       -4.329971922E+01               0
GRID*               5678               01.5850746269E+034.3296226436E+01+
*       -2.500873285E+01               0
GRID*               5679               01.5850746269E+034.9999998983E+01+
*       1.0082200106E-02               0
GRID*               5680               01.5850746269E+034.3305920756E+01+
*       2.4991942109E+01               0
GRID*               5681               01.5850746269E+032.4999326339E+01+
*       4.3301658462E+01               0
GRID*               5682               01.5850746269E+032.3562117498E-14+
*       5.0000000000E+01               0
GRID*               5683               01.5850746269E+03-2.499932634E+01+
*       4.3301658463E+01               0
GRID*               5684               01.5850746269E+03-4.330592075E+01+
*       2.4991942128E+01               0
GRID*               5685               01.5850746269E+03-4.999999898E+01+
*       1.0082238872E-02               0
GRID*               5686               01.5850746269E+03-4.329622647E+01+
*       -2.500873281E+01               0
GRID*               5687               01.5850746269E+03-2.500268502E+01+
*       -4.329971922E+01               0
GRID*               5688               01.5582089552E+032.5002685023E+01+
*       -4.329971922E+01               0
GRID*               5689               01.5582089552E+034.3296226437E+01+
*       -2.500873285E+01               0
GRID*               5690               01.5582089552E+034.9999998983E+01+
*       1.0082200427E-02               0
GRID*               5691               01.5582089552E+034.3305920756E+01+
*       2.4991942109E+01               0
GRID*               5692               01.5582089552E+032.4999326339E+01+
*       4.3301658462E+01               0
GRID*               5693               01.5582089552E+03-2.439481271E-14+
*       5.0000000000E+01               0
GRID*               5694               01.5582089552E+03-2.499932634E+01+
*       4.3301658463E+01               0
GRID*               5695               01.5582089552E+03-4.330592075E+01+
*       2.4991942128E+01               0
GRID*               5696               01.5582089552E+03-4.999999898E+01+
*       1.0082238124E-02               0
GRID*               5697               01.5582089552E+03-4.329622646E+01+
*       -2.500873281E+01               0
GRID*               5698               01.5582089552E+03-2.500268502E+01+
*       -4.329971922E+01               0
GRID*               5699               01.5313432836E+032.5002685023E+01+
*       -4.329971922E+01               0
GRID*               5700               01.5313432836E+034.3296226438E+01+
*       -2.500873285E+01               0
GRID*               5701               01.5313432836E+034.9999998983E+01+
*       1.0082200782E-02               0
GRID*               5702               01.5313432836E+034.3305920756E+01+
*       2.4991942110E+01               0
GRID*               5703               01.5313432836E+032.4999326339E+01+
*       4.3301658462E+01               0
GRID*               5704               01.5313432836E+03-4.328693673E-14+
*       5.0000000000E+01               0
GRID*               5705               01.5313432836E+03-2.499932634E+01+
*       4.3301658463E+01               0
GRID*               5706               01.5313432836E+03-4.330592075E+01+
*       2.4991942128E+01               0
GRID*               5707               01.5313432836E+03-4.999999898E+01+
*       1.0082237345E-02               0
GRID*               5708               01.5313432836E+03-4.329622646E+01+
*       -2.500873281E+01               0
GRID*               5709               01.5313432836E+03-2.500268502E+01+
*       -4.329971922E+01               0
GRID*               5710               01.5044776119E+032.5002685023E+01+
*       -4.329971922E+01               0
GRID*               5711               01.5044776119E+034.3296226438E+01+
*       -2.500873285E+01               0
GRID*               5712               01.5044776119E+034.9999998983E+01+
*       1.0082201169E-02               0
GRID*               5713               01.5044776119E+034.3305920756E+01+
*       2.4991942110E+01               0
GRID*               5714               01.5044776119E+032.4999326339E+01+
*       4.3301658462E+01               0
GRID*               5715               01.5044776119E+03-4.049448379E-15+
*       5.0000000000E+01               0
GRID*               5716               01.5044776119E+03-2.499932634E+01+
*       4.3301658463E+01               0
GRID*               5717               01.5044776119E+03-4.330592075E+01+
*       2.4991942128E+01               0
GRID*               5718               01.5044776119E+03-4.999999898E+01+
*       1.0082236541E-02               0
GRID*               5719               01.5044776119E+03-4.329622646E+01+
*       -2.500873281E+01               0
GRID*               5720               01.5044776119E+03-2.500268502E+01+
*       -4.329971922E+01               0
GRID*               5721               01.4776119403E+032.5002685023E+01+
*       -4.329971922E+01               0
GRID*               5722               01.4776119403E+034.3296226439E+01+
*       -2.500873285E+01               0
GRID*               5723               01.4776119403E+034.9999998983E+01+
*       1.0082201587E-02               0
GRID*               5724               01.4776119403E+034.3305920755E+01+
*       2.4991942110E+01               0
GRID*               5725               01.4776119403E+032.4999326339E+01+
*       4.3301658462E+01               0
GRID*               5726               01.4776119403E+033.3734799663E-14+
*       5.0000000000E+01               0
GRID*               5727               01.4776119403E+03-2.499932634E+01+
*       4.3301658463E+01               0
GRID*               5728               01.4776119403E+03-4.330592075E+01+
*       2.4991942127E+01               0
GRID*               5729               01.4776119403E+03-4.999999898E+01+
*       1.0082235715E-02               0
GRID*               5730               01.4776119403E+03-4.329622646E+01+
*       -2.500873281E+01               0
GRID*               5731               01.4776119403E+03-2.500268502E+01+
*       -4.329971922E+01               0
GRID*               5732               01.4507462687E+032.5002685023E+01+
*       -4.329971922E+01               0
GRID*               5733               01.4507462687E+034.3296226439E+01+
*       -2.500873285E+01               0
GRID*               5734               01.4507462687E+034.9999998983E+01+
*       1.0082202036E-02               0
GRID*               5735               01.4507462687E+034.3305920755E+01+
*       2.4991942111E+01               0
GRID*               5736               01.4507462687E+032.4999326339E+01+
*       4.3301658462E+01               0
GRID*               5737               01.4507462687E+03-9.996330879E-14+
*       5.0000000000E+01               0
GRID*               5738               01.4507462687E+03-2.499932634E+01+
*       4.3301658463E+01               0
GRID*               5739               01.4507462687E+03-4.330592075E+01+
*       2.4991942127E+01               0
GRID*               5740               01.4507462687E+03-4.999999898E+01+
*       1.0082234871E-02               0
GRID*               5741               01.4507462687E+03-4.329622646E+01+
*       -2.500873281E+01               0
GRID*               5742               01.4507462687E+03-2.500268502E+01+
*       -4.329971922E+01               0
GRID*               5743               01.4238805970E+032.5002685023E+01+
*       -4.329971922E+01               0
GRID*               5744               01.4238805970E+034.3296226440E+01+
*       -2.500873285E+01               0
GRID*               5745               01.4238805970E+034.9999998983E+01+
*       1.0082202514E-02               0
GRID*               5746               01.4238805970E+034.3305920755E+01+
*       2.4991942111E+01               0
GRID*               5747               01.4238805970E+032.4999326339E+01+
*       4.3301658462E+01               0
GRID*               5748               01.4238805970E+03-3.311425456E-14+
*       5.0000000000E+01               0
GRID*               5749               01.4238805970E+03-2.499932634E+01+
*       4.3301658463E+01               0
GRID*               5750               01.4238805970E+03-4.330592075E+01+
*       2.4991942127E+01               0
GRID*               5751               01.4238805970E+03-4.999999898E+01+
*       1.0082234012E-02               0
GRID*               5752               01.4238805970E+03-4.329622646E+01+
*       -2.500873281E+01               0
GRID*               5753               01.4238805970E+03-2.500268502E+01+
*       -4.329971922E+01               0
GRID*               5754               01.3970149254E+032.5002685023E+01+
*       -4.329971922E+01               0
GRID*               5755               01.3970149254E+034.3296226441E+01+
*       -2.500873285E+01               0
GRID*               5756               01.3970149254E+034.9999998983E+01+
*       1.0082203021E-02               0
GRID*               5757               01.3970149254E+034.3305920755E+01+
*       2.4991942112E+01               0
GRID*               5758               01.3970149254E+032.4999326339E+01+
*       4.3301658462E+01               0
GRID*               5759               01.3970149254E+03-2.439481271E-14+
*       5.0000000000E+01               0
GRID*               5760               01.3970149254E+03-2.499932634E+01+
*       4.3301658463E+01               0
GRID*               5761               01.3970149254E+03-4.330592075E+01+
*       2.4991942127E+01               0
GRID*               5762               01.3970149254E+03-4.999999898E+01+
*       1.0082233141E-02               0
GRID*               5763               01.3970149254E+03-4.329622646E+01+
*       -2.500873281E+01               0
GRID*               5764               01.3970149254E+03-2.500268502E+01+
*       -4.329971922E+01               0
GRID*               5765               01.3701492537E+032.5002685023E+01+
*       -4.329971922E+01               0
GRID*               5766               01.3701492537E+034.3296226441E+01+
*       -2.500873285E+01               0
GRID*               5767               01.3701492537E+034.9999998983E+01+
*       1.0082203556E-02               0
GRID*               5768               01.3701492537E+034.3305920755E+01+
*       2.4991942112E+01               0
GRID*               5769               01.3701492537E+032.4999326339E+01+
*       4.3301658462E+01               0
GRID*               5770               01.3701492537E+034.1001001210E-14+
*       5.0000000000E+01               0
GRID*               5771               01.3701492537E+03-2.499932634E+01+
*       4.3301658463E+01               0
GRID*               5772               01.3701492537E+03-4.330592075E+01+
*       2.4991942126E+01               0
GRID*               5773               01.3701492537E+03-4.999999898E+01+
*       1.0082232258E-02               0
GRID*               5774               01.3701492537E+03-4.329622646E+01+
*       -2.500873281E+01               0
GRID*               5775               01.3701492537E+03-2.500268502E+01+
*       -4.329971922E+01               0
GRID*               5776               01.3432835821E+032.5002685023E+01+
*       -4.329971922E+01               0
GRID*               5777               01.3432835821E+034.3296226442E+01+
*       -2.500873284E+01               0
GRID*               5778               01.3432835821E+034.9999998983E+01+
*       1.0082204117E-02               0
GRID*               5779               01.3432835821E+034.3305920754E+01+
*       2.4991942113E+01               0
GRID*               5780               01.3432835821E+032.4999326339E+01+
*       4.3301658462E+01               0
GRID*               5781               01.3432835821E+03-5.502688688E-15+
*       5.0000000000E+01               0
GRID*               5782               01.3432835821E+03-2.499932634E+01+
*       4.3301658463E+01               0
GRID*               5783               01.3432835821E+03-4.330592075E+01+
*       2.4991942126E+01               0
GRID*               5784               01.3432835821E+03-4.999999898E+01+
*       1.0082231366E-02               0
GRID*               5785               01.3432835821E+03-4.329622646E+01+
*       -2.500873281E+01               0
GRID*               5786               01.3432835821E+03-2.500268502E+01+
*       -4.329971922E+01               0
GRID*               5787               01.3164179104E+032.5002685023E+01+
*       -4.329971922E+01               0
GRID*               5788               01.3164179104E+034.3296226443E+01+
*       -2.500873284E+01               0
GRID*               5789               01.3164179104E+034.9999998983E+01+
*       1.0082204704E-02               0
GRID*               5790               01.3164179104E+034.3305920754E+01+
*       2.4991942113E+01               0
GRID*               5791               01.3164179104E+032.4999326339E+01+
*       4.3301658462E+01               0
GRID*               5792               01.3164179104E+033.2167531679E-15+
*       5.0000000000E+01               0
GRID*               5793               01.3164179104E+03-2.499932634E+01+
*       4.3301658463E+01               0
GRID*               5794               01.3164179104E+03-4.330592075E+01+
*       2.4991942126E+01               0
GRID*               5795               01.3164179104E+03-4.999999898E+01+
*       1.0082230466E-02               0
GRID*               5796               01.3164179104E+03-4.329622646E+01+
*       -2.500873281E+01               0
GRID*               5797               01.3164179104E+03-2.500268502E+01+
*       -4.329971922E+01               0
GRID*               5798               01.2895522388E+032.5002685023E+01+
*       -4.329971922E+01               0
GRID*               5799               01.2895522388E+034.3296226443E+01+
*       -2.500873284E+01               0
GRID*               5800               01.2895522388E+034.9999998982E+01+
*       1.0082205316E-02               0
GRID*               5801               01.2895522388E+034.3305920754E+01+
*       2.4991942113E+01               0
GRID*               5802               01.2895522388E+032.4999326339E+01+
*       4.3301658462E+01               0
GRID*               5803               01.2895522388E+03-4.474017704E-14+
*       5.0000000000E+01               0
GRID*               5804               01.2895522388E+03-2.499932634E+01+
*       4.3301658463E+01               0
GRID*               5805               01.2895522388E+03-4.330592075E+01+
*       2.4991942126E+01               0
GRID*               5806               01.2895522388E+03-4.999999898E+01+
*       1.0082229559E-02               0
GRID*               5807               01.2895522388E+03-4.329622646E+01+
*       -2.500873282E+01               0
GRID*               5808               01.2895522388E+03-2.500268502E+01+
*       -4.329971922E+01               0
GRID*               5809               01.2626865672E+032.5002685023E+01+
*       -4.329971922E+01               0
GRID*               5810               01.2626865672E+034.3296226444E+01+
*       -2.500873284E+01               0
GRID*               5811               01.2626865672E+034.9999998982E+01+
*       1.0082205952E-02               0
GRID*               5812               01.2626865672E+034.3305920754E+01+
*       2.4991942114E+01               0
GRID*               5813               01.2626865672E+032.4999326339E+01+
*       4.3301658462E+01               0
GRID*               5814               01.2626865672E+03-3.456749487E-14+
*       5.0000000000E+01               0
GRID*               5815               01.2626865672E+03-2.499932634E+01+
*       4.3301658463E+01               0
GRID*               5816               01.2626865672E+03-4.330592075E+01+
*       2.4991942125E+01               0
GRID*               5817               01.2626865672E+03-4.999999898E+01+
*       1.0082228648E-02               0
GRID*               5818               01.2626865672E+03-4.329622646E+01+
*       -2.500873282E+01               0
GRID*               5819               01.2626865672E+03-2.500268502E+01+
*       -4.329971922E+01               0
GRID*               5820               01.2358208955E+032.5002685023E+01+
*       -4.329971922E+01               0
GRID*               5821               01.2358208955E+034.3296226445E+01+
*       -2.500873284E+01               0
GRID*               5822               01.2358208955E+034.9999998982E+01+
*       1.0082206611E-02               0
GRID*               5823               01.2358208955E+034.3305920753E+01+
*       2.4991942114E+01               0
GRID*               5824               01.2358208955E+032.4999326339E+01+
*       4.3301658462E+01               0
GRID*               5825               01.2358208955E+033.2281559354E-14+
*       5.0000000000E+01               0
GRID*               5826               01.2358208955E+03-2.499932634E+01+
*       4.3301658463E+01               0
GRID*               5827               01.2358208955E+03-4.330592075E+01+
*       2.4991942125E+01               0
GRID*               5828               01.2358208955E+03-4.999999898E+01+
*       1.0082227732E-02               0
GRID*               5829               01.2358208955E+03-4.329622646E+01+
*       -2.500873282E+01               0
GRID*               5830               01.2358208955E+03-2.500268502E+01+
*       -4.329971922E+01               0
GRID*               5831               01.2089552239E+032.5002685023E+01+
*       -4.329971922E+01               0
GRID*               5832               01.2089552239E+034.3296226445E+01+
*       -2.500873284E+01               0
GRID*               5833               01.2089552239E+034.9999998982E+01+
*       1.0082207292E-02               0
GRID*               5834               01.2089552239E+034.3305920753E+01+
*       2.4991942115E+01               0
GRID*               5835               01.2089552239E+032.4999326339E+01+
*       4.3301658462E+01               0
GRID*               5836               01.2089552239E+03-4.474017704E-14+
*       5.0000000000E+01               0
GRID*               5837               01.2089552239E+03-2.499932634E+01+
*       4.3301658463E+01               0
GRID*               5838               01.2089552239E+03-4.330592075E+01+
*       2.4991942125E+01               0
GRID*               5839               01.2089552239E+03-4.999999898E+01+
*       1.0082226813E-02               0
GRID*               5840               01.2089552239E+03-4.329622646E+01+
*       -2.500873282E+01               0
GRID*               5841               01.2089552239E+03-2.500268502E+01+
*       -4.329971922E+01               0
GRID*               5842               01.1820895522E+032.5002685023E+01+
*       -4.329971922E+01               0
GRID*               5843               01.1820895522E+034.3296226446E+01+
*       -2.500873284E+01               0
GRID*               5844               01.1820895522E+034.9999998982E+01+
*       1.0082207994E-02               0
GRID*               5845               01.1820895522E+034.3305920753E+01+
*       2.4991942115E+01               0
GRID*               5846               01.1820895522E+032.4999326339E+01+
*       4.3301658462E+01               0
GRID*               5847               01.1820895522E+03-6.955928997E-15+
*       5.0000000000E+01               0
GRID*               5848               01.1820895522E+03-2.499932634E+01+
*       4.3301658463E+01               0
GRID*               5849               01.1820895522E+03-4.330592075E+01+
*       2.4991942124E+01               0
GRID*               5850               01.1820895522E+03-4.999999898E+01+
*       1.0082225893E-02               0
GRID*               5851               01.1820895522E+03-4.329622646E+01+
*       -2.500873282E+01               0
GRID*               5852               01.1820895522E+03-2.500268502E+01+
*       -4.329971922E+01               0
GRID*               5853               01.1552238806E+032.5002685023E+01+
*       -4.329971922E+01               0
GRID*               5854               01.1552238806E+034.3296226447E+01+
*       -2.500873284E+01               0
GRID*               5855               01.1552238806E+034.9999998982E+01+
*       1.0082208715E-02               0
GRID*               5856               01.1552238806E+034.3305920753E+01+
*       2.4991942116E+01               0
GRID*               5857               01.1552238806E+032.4999326339E+01+
*       4.3301658462E+01               0
GRID*               5858               01.1552238806E+031.7635128585E-15+
*       5.0000000000E+01               0
GRID*               5859               01.1552238806E+03-2.499932634E+01+
*       4.3301658463E+01               0
GRID*               5860               01.1552238806E+03-4.330592075E+01+
*       2.4991942124E+01               0
GRID*               5861               01.1552238806E+03-4.999999898E+01+
*       1.0082224972E-02               0
GRID*               5862               01.1552238806E+03-4.329622646E+01+
*       -2.500873282E+01               0
GRID*               5863               01.1552238806E+03-2.500268502E+01+
*       -4.329971922E+01               0
GRID*               5864               01.1283582090E+032.5002685023E+01+
*       -4.329971922E+01               0
GRID*               5865               01.1283582090E+034.3296226448E+01+
*       -2.500873284E+01               0
GRID*               5866               01.1283582090E+034.9999998982E+01+
*       1.0082209456E-02               0
GRID*               5867               01.1283582090E+034.3305920752E+01+
*       2.4991942116E+01               0
GRID*               5868               01.1283582090E+032.4999326339E+01+
*       4.3301658462E+01               0
GRID*               5869               01.1283582090E+03-4.474017704E-14+
*       5.0000000000E+01               0
GRID*               5870               01.1283582090E+03-2.499932634E+01+
*       4.3301658463E+01               0
GRID*               5871               01.1283582090E+03-4.330592075E+01+
*       2.4991942124E+01               0
GRID*               5872               01.1283582090E+03-4.999999898E+01+
*       1.0082224052E-02               0
GRID*               5873               01.1283582090E+03-4.329622646E+01+
*       -2.500873282E+01               0
GRID*               5874               01.1283582090E+03-2.500268502E+01+
*       -4.329971922E+01               0
GRID*               5875               01.1014925373E+032.5002685023E+01+
*       -4.329971922E+01               0
GRID*               5876               01.1014925373E+034.3296226448E+01+
*       -2.500873284E+01               0
GRID*               5877               01.1014925373E+034.9999998982E+01+
*       1.0082210216E-02               0
GRID*               5878               01.1014925373E+034.3305920752E+01+
*       2.4991942117E+01               0
GRID*               5879               01.1014925373E+032.4999326339E+01+
*       4.3301658462E+01               0
GRID*               5880               01.1014925373E+032.0655636880E-14+
*       5.0000000000E+01               0
GRID*               5881               01.1014925373E+03-2.499932634E+01+
*       4.3301658463E+01               0
GRID*               5882               01.1014925373E+03-4.330592075E+01+
*       2.4991942123E+01               0
GRID*               5883               01.1014925373E+03-4.999999898E+01+
*       1.0082223133E-02               0
GRID*               5884               01.1014925373E+03-4.329622646E+01+
*       -2.500873282E+01               0
GRID*               5885               01.1014925373E+03-2.500268502E+01+
*       -4.329971922E+01               0
GRID*               5886               01.0746268657E+032.5002685023E+01+
*       -4.329971922E+01               0
GRID*               5887               01.0746268657E+034.3296226449E+01+
*       -2.500873283E+01               0
GRID*               5888               01.0746268657E+034.9999998982E+01+
*       1.0082210992E-02               0
GRID*               5889               01.0746268657E+034.3305920752E+01+
*       2.4991942117E+01               0
GRID*               5890               01.0746268657E+032.4999326339E+01+
*       4.3301658462E+01               0
GRID*               5891               01.0746268657E+03-2.584805302E-14+
*       5.0000000000E+01               0
GRID*               5892               01.0746268657E+03-2.499932634E+01+
*       4.3301658463E+01               0
GRID*               5893               01.0746268657E+03-4.330592075E+01+
*       2.4991942123E+01               0
GRID*               5894               01.0746268657E+03-4.999999898E+01+
*       1.0082222216E-02               0
GRID*               5895               01.0746268657E+03-4.329622646E+01+
*       -2.500873282E+01               0
GRID*               5896               01.0746268657E+03-2.500268502E+01+
*       -4.329971922E+01               0
GRID*               5897               01.0477611940E+032.5002685023E+01+
*       -4.329971922E+01               0
GRID*               5898               01.0477611940E+034.3296226450E+01+
*       -2.500873283E+01               0
GRID*               5899               01.0477611940E+034.9999998982E+01+
*       1.0082211785E-02               0
GRID*               5900               01.0477611940E+034.3305920752E+01+
*       2.4991942118E+01               0
GRID*               5901               01.0477611940E+032.4999326339E+01+
*       4.3301658462E+01               0
GRID*               5902               01.0477611940E+03-4.619341735E-14+
*       5.0000000000E+01               0
GRID*               5903               01.0477611940E+03-2.499932634E+01+
*       4.3301658463E+01               0
GRID*               5904               01.0477611940E+03-4.330592075E+01+
*       2.4991942122E+01               0
GRID*               5905               01.0477611940E+03-4.999999898E+01+
*       1.0082221304E-02               0
GRID*               5906               01.0477611940E+03-4.329622646E+01+
*       -2.500873282E+01               0
GRID*               5907               01.0477611940E+03-2.500268502E+01+
*       -4.329971922E+01               0
GRID*               5908               01.0208955224E+032.5002685023E+01+
*       -4.329971922E+01               0
GRID*               5909               01.0208955224E+034.3296226450E+01+
*       -2.500873283E+01               0
GRID*               5910               01.0208955224E+034.9999998982E+01+
*       1.0082212593E-02               0
GRID*               5911               01.0208955224E+034.3305920751E+01+
*       2.4991942118E+01               0
GRID*               5912               01.0208955224E+032.4999326339E+01+
*       4.3301658462E+01               0
GRID*               5913               01.0208955224E+03-8.409169307E-15+
*       5.0000000000E+01               0
GRID*               5914               01.0208955224E+03-2.499932634E+01+
*       4.3301658463E+01               0
GRID*               5915               01.0208955224E+03-4.330592075E+01+
*       2.4991942122E+01               0
GRID*               5916               01.0208955224E+03-4.999999898E+01+
*       1.0082220396E-02               0
GRID*               5917               01.0208955224E+03-4.329622646E+01+
*       -2.500873282E+01               0
GRID*               5918               01.0208955224E+03-2.500268502E+01+
*       -4.329971922E+01               0
GRID*               5919               09.9402985075E+022.5002685023E+01+
*       -4.329971922E+01               0
GRID*               5920               09.9402985075E+024.3296226451E+01+
*       -2.500873283E+01               0
GRID*               5921               09.9402985075E+024.9999998982E+01+
*       1.0082213415E-02               0
GRID*               5922               09.9402985075E+024.3305920751E+01+
*       2.4991942119E+01               0
GRID*               5923               09.9402985075E+022.4999326339E+01+
*       4.3301658462E+01               0
GRID*               5924               09.9402985075E+021.7635128585E-15+
*       5.0000000000E+01               0
GRID*               5925               09.9402985075E+02-2.499932634E+01+
*       4.3301658463E+01               0
GRID*               5926               09.9402985075E+02-4.330592075E+01+
*       2.4991942122E+01               0
GRID*               5927               09.9402985075E+02-4.999999898E+01+
*       1.0082219493E-02               0
GRID*               5928               09.9402985075E+02-4.329622646E+01+
*       -2.500873282E+01               0
GRID*               5929               09.9402985075E+02-2.500268502E+01+
*       -4.329971922E+01               0
GRID*               5930               09.6716417910E+022.5002685023E+01+
*       -4.329971922E+01               0
GRID*               5931               09.6716417910E+024.3296226452E+01+
*       -2.500873283E+01               0
GRID*               5932               09.6716417910E+024.9999998982E+01+
*       1.0082214251E-02               0
GRID*               5933               09.6716417910E+024.3305920751E+01+
*       2.4991942119E+01               0
GRID*               5934               09.6716417910E+022.4999326339E+01+
*       4.3301658463E+01               0
GRID*               5935               09.6716417910E+021.0482954714E-14+
*       5.0000000000E+01               0
GRID*               5936               09.6716417910E+02-2.499932634E+01+
*       4.3301658463E+01               0
GRID*               5937               09.6716417910E+02-4.330592075E+01+
*       2.4991942121E+01               0
GRID*               5938               09.6716417910E+02-4.999999898E+01+
*       1.0082218597E-02               0
GRID*               5939               09.6716417910E+02-4.329622645E+01+
*       -2.500873283E+01               0
GRID*               5940               09.6716417910E+02-2.500268502E+01+
*       -4.329971922E+01               0
GRID*               5941               09.4029850746E+022.5002685023E+01+
*       -4.329971922E+01               0
GRID*               5942               09.4029850746E+024.3296226452E+01+
*       -2.500873283E+01               0
GRID*               5943               09.4029850746E+024.9999998982E+01+
*       1.0082215099E-02               0
GRID*               5944               09.4029850746E+024.3305920751E+01+
*       2.4991942119E+01               0
GRID*               5945               09.4029850746E+022.4999326339E+01+
*       4.3301658463E+01               0
GRID*               5946               09.4029850746E+022.0655636880E-14+
*       5.0000000000E+01               0
GRID*               5947               09.4029850746E+02-2.499932634E+01+
*       4.3301658463E+01               0
GRID*               5948               09.4029850746E+02-4.330592075E+01+
*       2.4991942121E+01               0
GRID*               5949               09.4029850746E+02-4.999999898E+01+
*       1.0082217709E-02               0
GRID*               5950               09.4029850746E+02-4.329622645E+01+
*       -2.500873283E+01               0
GRID*               5951               09.4029850746E+02-2.500268502E+01+
*       -4.329971922E+01               0
GRID*               5952               09.1343283582E+022.5002685023E+01+
*       -4.329971922E+01               0
GRID*               5953               09.1343283582E+024.3296226453E+01+
*       -2.500873283E+01               0
GRID*               5954               09.1343283582E+024.9999998982E+01+
*       1.0082215959E-02               0
GRID*               5955               09.1343283582E+024.3305920750E+01+
*       2.4991942120E+01               0
GRID*               5956               09.1343283582E+022.4999326339E+01+
*       4.3301658463E+01               0
GRID*               5957               09.1343283582E+02-2.730129333E-14+
*       5.0000000000E+01               0
GRID*               5958               09.1343283582E+02-2.499932634E+01+
*       4.3301658463E+01               0
GRID*               5959               09.1343283582E+02-4.330592075E+01+
*       2.4991942120E+01               0
GRID*               5960               09.1343283582E+02-4.999999898E+01+
*       1.0082216829E-02               0
GRID*               5961               09.1343283582E+02-4.329622645E+01+
*       -2.500873283E+01               0
GRID*               5962               09.1343283582E+02-2.500268502E+01+
*       -4.329971922E+01               0
GRID*               5963               08.8656716418E+022.5002685023E+01+
*       -4.329971922E+01               0
GRID*               5964               08.8656716418E+024.3296226454E+01+
*       -2.500873283E+01               0
GRID*               5965               08.8656716418E+024.9999998982E+01+
*       1.0082216829E-02               0
GRID*               5966               08.8656716418E+024.3305920750E+01+
*       2.4991942120E+01               0
GRID*               5967               08.8656716418E+022.4999326339E+01+
*       4.3301658463E+01               0
GRID*               5968               08.8656716418E+02-1.785523132E-14+
*       5.0000000000E+01               0
GRID*               5969               08.8656716418E+02-2.499932634E+01+
*       4.3301658463E+01               0
GRID*               5970               08.8656716418E+02-4.330592075E+01+
*       2.4991942120E+01               0
GRID*               5971               08.8656716418E+02-4.999999898E+01+
*       1.0082215959E-02               0
GRID*               5972               08.8656716418E+02-4.329622645E+01+
*       -2.500873283E+01               0
GRID*               5973               08.8656716418E+02-2.500268502E+01+
*       -4.329971922E+01               0
GRID*               5974               08.5970149254E+022.5002685023E+01+
*       -4.329971922E+01               0
GRID*               5975               08.5970149254E+024.3296226454E+01+
*       -2.500873283E+01               0
GRID*               5976               08.5970149254E+024.9999998982E+01+
*       1.0082217709E-02               0
GRID*               5977               08.5970149254E+024.3305920750E+01+
*       2.4991942121E+01               0
GRID*               5978               08.5970149254E+022.4999326339E+01+
*       4.3301658463E+01               0
GRID*               5979               08.5970149254E+02-8.409169307E-15+
*       5.0000000000E+01               0
GRID*               5980               08.5970149254E+02-2.499932634E+01+
*       4.3301658463E+01               0
GRID*               5981               08.5970149254E+02-4.330592075E+01+
*       2.4991942119E+01               0
GRID*               5982               08.5970149254E+02-4.999999898E+01+
*       1.0082215099E-02               0
GRID*               5983               08.5970149254E+02-4.329622645E+01+
*       -2.500873283E+01               0
GRID*               5984               08.5970149254E+02-2.500268502E+01+
*       -4.329971922E+01               0
GRID*               5985               08.3283582090E+022.5002685023E+01+
*       -4.329971922E+01               0
GRID*               5986               08.3283582090E+024.3296226455E+01+
*       -2.500873283E+01               0
GRID*               5987               08.3283582090E+024.9999998982E+01+
*       1.0082218597E-02               0
GRID*               5988               08.3283582090E+024.3305920750E+01+
*       2.4991942121E+01               0
GRID*               5989               08.3283582090E+022.4999326339E+01+
*       4.3301658463E+01               0
GRID*               5990               08.3283582090E+025.8439884922E-14+
*       5.0000000000E+01               0
GRID*               5991               08.3283582090E+02-2.499932634E+01+
*       4.3301658463E+01               0
GRID*               5992               08.3283582090E+02-4.330592075E+01+
*       2.4991942119E+01               0
GRID*               5993               08.3283582090E+02-4.999999898E+01+
*       1.0082214251E-02               0
GRID*               5994               08.3283582090E+02-4.329622645E+01+
*       -2.500873283E+01               0
GRID*               5995               08.3283582090E+02-2.500268502E+01+
*       -4.329971922E+01               0
GRID*               5996               08.0597014925E+022.5002685023E+01+
*       -4.329971922E+01               0
GRID*               5997               08.0597014925E+024.3296226455E+01+
*       -2.500873282E+01               0
GRID*               5998               08.0597014925E+024.9999998982E+01+
*       1.0082219493E-02               0
GRID*               5999               08.0597014925E+024.3305920749E+01+
*       2.4991942122E+01               0
GRID*               6000               08.0597014925E+022.4999326339E+01+
*       4.3301658463E+01               0
GRID*               6001               08.0597014925E+023.9547760901E-14+
*       5.0000000000E+01               0
GRID*               6002               08.0597014925E+02-2.499932634E+01+
*       4.3301658462E+01               0
GRID*               6003               08.0597014925E+02-4.330592075E+01+
*       2.4991942119E+01               0
GRID*               6004               08.0597014925E+02-4.999999898E+01+
*       1.0082213415E-02               0
GRID*               6005               08.0597014925E+02-4.329622645E+01+
*       -2.500873283E+01               0
GRID*               6006               08.0597014925E+02-2.500268502E+01+
*       -4.329971922E+01               0
GRID*               6007               07.7910447761E+022.5002685023E+01+
*       -4.329971922E+01               0
GRID*               6008               07.7910447761E+024.3296226456E+01+
*       -2.500873282E+01               0
GRID*               6009               07.7910447761E+024.9999998982E+01+
*       1.0082220396E-02               0
GRID*               6010               07.7910447761E+024.3305920749E+01+
*       2.4991942122E+01               0
GRID*               6011               07.7910447761E+022.4999326339E+01+
*       4.3301658463E+01               0
GRID*               6012               07.7910447761E+021.8475776416E-14+
*       5.0000000000E+01               0
GRID*               6013               07.7910447761E+02-2.499932634E+01+
*       4.3301658462E+01               0
GRID*               6014               07.7910447761E+02-4.330592075E+01+
*       2.4991942118E+01               0
GRID*               6015               07.7910447761E+02-4.999999898E+01+
*       1.0082212593E-02               0
GRID*               6016               07.7910447761E+02-4.329622645E+01+
*       -2.500873283E+01               0
GRID*               6017               07.7910447761E+02-2.500268502E+01+
*       -4.329971922E+01               0
GRID*               6018               07.5223880597E+022.5002685023E+01+
*       -4.329971922E+01               0
GRID*               6019               07.5223880597E+024.3296226457E+01+
*       -2.500873282E+01               0
GRID*               6020               07.5223880597E+024.9999998982E+01+
*       1.0082221304E-02               0
GRID*               6021               07.5223880597E+024.3305920749E+01+
*       2.4991942122E+01               0
GRID*               6022               07.5223880597E+022.4999326339E+01+
*       4.3301658463E+01               0
GRID*               6023               07.5223880597E+02-2.730129333E-14+
*       5.0000000000E+01               0
GRID*               6024               07.5223880597E+02-2.499932634E+01+
*       4.3301658462E+01               0
GRID*               6025               07.5223880597E+02-4.330592075E+01+
*       2.4991942118E+01               0
GRID*               6026               07.5223880597E+02-4.999999898E+01+
*       1.0082211785E-02               0
GRID*               6027               07.5223880597E+02-4.329622645E+01+
*       -2.500873283E+01               0
GRID*               6028               07.5223880597E+02-2.500268502E+01+
*       -4.329971922E+01               0
GRID*               6029               07.2537313433E+022.5002685023E+01+
*       -4.329971922E+01               0
GRID*               6030               07.2537313433E+024.3296226457E+01+
*       -2.500873282E+01               0
GRID*               6031               07.2537313433E+024.9999998982E+01+
*       1.0082222217E-02               0
GRID*               6032               07.2537313433E+024.3305920749E+01+
*       2.4991942123E+01               0
GRID*               6033               07.2537313433E+022.4999326339E+01+
*       4.3301658463E+01               0
GRID*               6034               07.2537313433E+02-4.692003750E-14+
*       5.0000000000E+01               0
GRID*               6035               07.2537313433E+02-2.499932634E+01+
*       4.3301658462E+01               0
GRID*               6036               07.2537313433E+02-4.330592075E+01+
*       2.4991942117E+01               0
GRID*               6037               07.2537313433E+02-4.999999898E+01+
*       1.0082210992E-02               0
GRID*               6038               07.2537313433E+02-4.329622645E+01+
*       -2.500873283E+01               0
GRID*               6039               07.2537313433E+02-2.500268502E+01+
*       -4.329971922E+01               0
GRID*               6040               06.9850746269E+022.5002685023E+01+
*       -4.329971922E+01               0
GRID*               6041               06.9850746269E+024.3296226458E+01+
*       -2.500873282E+01               0
GRID*               6042               06.9850746269E+024.9999998982E+01+
*       1.0082223133E-02               0
GRID*               6043               06.9850746269E+024.3305920749E+01+
*       2.4991942123E+01               0
GRID*               6044               06.9850746269E+022.4999326339E+01+
*       4.3301658463E+01               0
GRID*               6045               06.9850746269E+02-3.747397549E-14+
*       5.0000000000E+01               0
GRID*               6046               06.9850746269E+02-2.499932634E+01+
*       4.3301658462E+01               0
GRID*               6047               06.9850746269E+02-4.330592075E+01+
*       2.4991942117E+01               0
GRID*               6048               06.9850746269E+02-4.999999898E+01+
*       1.0082210215E-02               0
GRID*               6049               06.9850746269E+02-4.329622645E+01+
*       -2.500873284E+01               0
GRID*               6050               06.9850746269E+02-2.500268502E+01+
*       -4.329971922E+01               0
GRID*               6051               06.7164179104E+022.5002685023E+01+
*       -4.329971922E+01               0
GRID*               6052               06.7164179104E+024.3296226458E+01+
*       -2.500873282E+01               0
GRID*               6053               06.7164179104E+024.9999998982E+01+
*       1.0082224052E-02               0
GRID*               6054               06.7164179104E+024.3305920748E+01+
*       2.4991942124E+01               0
GRID*               6055               06.7164179104E+022.4999326339E+01+
*       4.3301658463E+01               0
GRID*               6056               06.7164179104E+020.0000000000E+00+
*       5.0000000000E+01               0
GRID*               6057               06.7164179104E+02-2.499932634E+01+
*       4.3301658462E+01               0
GRID*               6058               06.7164179104E+02-4.330592075E+01+
*       2.4991942116E+01               0
GRID*               6059               06.7164179104E+02-4.999999898E+01+
*       1.0082209456E-02               0
GRID*               6060               06.7164179104E+02-4.329622645E+01+
*       -2.500873284E+01               0
GRID*               6061               06.7164179104E+02-2.500268502E+01+
*       -4.329971922E+01               0
GRID*               6062               06.4477611940E+022.5002685023E+01+
*       -4.329971922E+01               0
GRID*               6063               06.4477611940E+024.3296226459E+01+
*       -2.500873282E+01               0
GRID*               6064               06.4477611940E+024.9999998982E+01+
*       1.0082224972E-02               0
GRID*               6065               06.4477611940E+024.3305920748E+01+
*       2.4991942124E+01               0
GRID*               6066               06.4477611940E+022.4999326339E+01+
*       4.3301658463E+01               0
GRID*               6067               06.4477611940E+02-4.837327781E-14+
*       5.0000000000E+01               0
GRID*               6068               06.4477611940E+02-2.499932634E+01+
*       4.3301658462E+01               0
GRID*               6069               06.4477611940E+02-4.330592075E+01+
*       2.4991942116E+01               0
GRID*               6070               06.4477611940E+02-4.999999898E+01+
*       1.0082208715E-02               0
GRID*               6071               06.4477611940E+02-4.329622645E+01+
*       -2.500873284E+01               0
GRID*               6072               06.4477611940E+02-2.500268502E+01+
*       -4.329971922E+01               0
GRID*               6073               06.1791044776E+022.5002685023E+01+
*       -4.329971922E+01               0
GRID*               6074               06.1791044776E+024.3296226459E+01+
*       -2.500873282E+01               0
GRID*               6075               06.1791044776E+024.9999998982E+01+
*       1.0082225893E-02               0
GRID*               6076               06.1791044776E+024.3305920748E+01+
*       2.4991942124E+01               0
GRID*               6077               06.1791044776E+022.4999326339E+01+
*       4.3301658463E+01               0
GRID*               6078               06.1791044776E+02-3.747397549E-14+
*       5.0000000000E+01               0
GRID*               6079               06.1791044776E+02-2.499932634E+01+
*       4.3301658462E+01               0
GRID*               6080               06.1791044776E+02-4.330592075E+01+
*       2.4991942115E+01               0
GRID*               6081               06.1791044776E+02-4.999999898E+01+
*       1.0082207993E-02               0
GRID*               6082               06.1791044776E+02-4.329622645E+01+
*       -2.500873284E+01               0
GRID*               6083               06.1791044776E+02-2.500268502E+01+
*       -4.329971922E+01               0
GRID*               6084               05.9104477612E+022.5002685023E+01+
*       -4.329971922E+01               0
GRID*               6085               05.9104477612E+024.3296226460E+01+
*       -2.500873282E+01               0
GRID*               6086               05.9104477612E+024.9999998981E+01+
*       1.0082226814E-02               0
GRID*               6087               05.9104477612E+024.3305920748E+01+
*       2.4991942125E+01               0
GRID*               6088               05.9104477612E+022.4999326339E+01+
*       4.3301658463E+01               0
GRID*               6089               05.9104477612E+021.0368927039E-15+
*       5.0000000000E+01               0
GRID*               6090               05.9104477612E+02-2.499932634E+01+
*       4.3301658462E+01               0
GRID*               6091               05.9104477612E+02-4.330592075E+01+
*       2.4991942115E+01               0
GRID*               6092               05.9104477612E+02-4.999999898E+01+
*       1.0082207292E-02               0
GRID*               6093               05.9104477612E+02-4.329622645E+01+
*       -2.500873284E+01               0
GRID*               6094               05.9104477612E+02-2.500268502E+01+
*       -4.329971922E+01               0
GRID*               6095               05.6417910448E+022.5002685023E+01+
*       -4.329971922E+01               0
GRID*               6096               05.6417910448E+024.3296226460E+01+
*       -2.500873282E+01               0
GRID*               6097               05.6417910448E+024.9999998981E+01+
*       1.0082227732E-02               0
GRID*               6098               05.6417910448E+024.3305920748E+01+
*       2.4991942125E+01               0
GRID*               6099               05.6417910448E+022.4999326339E+01+
*       4.3301658463E+01               0
GRID*               6100               05.6417910448E+029.0297144051E-15+
*       5.0000000000E+01               0
GRID*               6101               05.6417910448E+02-2.499932634E+01+
*       4.3301658462E+01               0
GRID*               6102               05.6417910448E+02-4.330592075E+01+
*       2.4991942114E+01               0
GRID*               6103               05.6417910448E+02-4.999999898E+01+
*       1.0082206611E-02               0
GRID*               6104               05.6417910448E+02-4.329622644E+01+
*       -2.500873284E+01               0
GRID*               6105               05.6417910448E+02-2.500268502E+01+
*       -4.329971922E+01               0
GRID*               6106               05.3731343284E+022.5002685023E+01+
*       -4.329971922E+01               0
GRID*               6107               05.3731343284E+024.3296226461E+01+
*       -2.500873282E+01               0
GRID*               6108               05.3731343284E+024.9999998981E+01+
*       1.0082228648E-02               0
GRID*               6109               05.3731343284E+024.3305920747E+01+
*       2.4991942125E+01               0
GRID*               6110               05.3731343284E+022.4999326339E+01+
*       4.3301658463E+01               0
GRID*               6111               05.3731343284E+02-1.058902977E-14+
*       5.0000000000E+01               0
GRID*               6112               05.3731343284E+02-2.499932634E+01+
*       4.3301658462E+01               0
GRID*               6113               05.3731343284E+02-4.330592075E+01+
*       2.4991942114E+01               0
GRID*               6114               05.3731343284E+02-4.999999898E+01+
*       1.0082205952E-02               0
GRID*               6115               05.3731343284E+02-4.329622644E+01+
*       -2.500873284E+01               0
GRID*               6116               05.3731343284E+02-2.500268502E+01+
*       -4.329971922E+01               0
GRID*               6117               05.1044776119E+022.5002685023E+01+
*       -4.329971922E+01               0
GRID*               6118               05.1044776119E+024.3296226461E+01+
*       -2.500873282E+01               0
GRID*               6119               05.1044776119E+024.9999998981E+01+
*       1.0082229560E-02               0
GRID*               6120               05.1044776119E+024.3305920747E+01+
*       2.4991942126E+01               0
GRID*               6121               05.1044776119E+022.4999326339E+01+
*       4.3301658463E+01               0
GRID*               6122               05.1044776119E+022.7921838426E-14+
*       5.0000000000E+01               0
GRID*               6123               05.1044776119E+02-2.499932634E+01+
*       4.3301658462E+01               0
GRID*               6124               05.1044776119E+02-4.330592075E+01+
*       2.4991942113E+01               0
GRID*               6125               05.1044776119E+02-4.999999898E+01+
*       1.0082205316E-02               0
GRID*               6126               05.1044776119E+02-4.329622644E+01+
*       -2.500873284E+01               0
GRID*               6127               05.1044776119E+02-2.500268502E+01+
*       -4.329971922E+01               0
GRID*               6128               04.8358208955E+022.5002685023E+01+
*       -4.329971922E+01               0
GRID*               6129               04.8358208955E+024.3296226462E+01+
*       -2.500873281E+01               0
GRID*               6130               04.8358208955E+024.9999998981E+01+
*       1.0082230466E-02               0
GRID*               6131               04.8358208955E+024.3305920747E+01+
*       2.4991942126E+01               0
GRID*               6132               04.8358208955E+022.4999326339E+01+
*       4.3301658463E+01               0
GRID*               6133               04.8358208955E+02-1.930847163E-14+
*       5.0000000000E+01               0
GRID*               6134               04.8358208955E+02-2.499932634E+01+
*       4.3301658462E+01               0
GRID*               6135               04.8358208955E+02-4.330592075E+01+
*       2.4991942113E+01               0
GRID*               6136               04.8358208955E+02-4.999999898E+01+
*       1.0082204704E-02               0
GRID*               6137               04.8358208955E+02-4.329622644E+01+
*       -2.500873284E+01               0
GRID*               6138               04.8358208955E+02-2.500268502E+01+
*       -4.329971922E+01               0
GRID*               6139               04.5671641791E+022.5002685023E+01+
*       -4.329971922E+01               0
GRID*               6140               04.5671641791E+024.3296226462E+01+
*       -2.500873281E+01               0
GRID*               6141               04.5671641791E+024.9999998981E+01+
*       1.0082231366E-02               0
GRID*               6142               04.5671641791E+024.3305920747E+01+
*       2.4991942126E+01               0
GRID*               6143               04.5671641791E+022.4999326339E+01+
*       4.3301658463E+01               0
GRID*               6144               04.5671641791E+021.8475776416E-14+
*       5.0000000000E+01               0
GRID*               6145               04.5671641791E+02-2.499932634E+01+
*       4.3301658462E+01               0
GRID*               6146               04.5671641791E+02-4.330592075E+01+
*       2.4991942113E+01               0
GRID*               6147               04.5671641791E+02-4.999999898E+01+
*       1.0082204117E-02               0
GRID*               6148               04.5671641791E+02-4.329622644E+01+
*       -2.500873284E+01               0
GRID*               6149               04.5671641791E+02-2.500268502E+01+
*       -4.329971922E+01               0
GRID*               6150               04.2985074627E+022.5002685023E+01+
*       -4.329971922E+01               0
GRID*               6151               04.2985074627E+024.3296226463E+01+
*       -2.500873281E+01               0
GRID*               6152               04.2985074627E+024.9999998981E+01+
*       1.0082232259E-02               0
GRID*               6153               04.2985074627E+024.3305920747E+01+
*       2.4991942126E+01               0
GRID*               6154               04.2985074627E+022.4999326339E+01+
*       4.3301658463E+01               0
GRID*               6155               04.2985074627E+02-1.506277837E-15+
*       5.0000000000E+01               0
GRID*               6156               04.2985074627E+02-2.499932634E+01+
*       4.3301658462E+01               0
GRID*               6157               04.2985074627E+02-4.330592075E+01+
*       2.4991942112E+01               0
GRID*               6158               04.2985074627E+02-4.999999898E+01+
*       1.0082203556E-02               0
GRID*               6159               04.2985074627E+02-4.329622644E+01+
*       -2.500873285E+01               0
GRID*               6160               04.2985074627E+02-2.500268502E+01+
*       -4.329971922E+01               0
GRID*               6161               04.0298507463E+022.5002685023E+01+
*       -4.329971922E+01               0
GRID*               6162               04.0298507463E+024.3296226463E+01+
*       -2.500873281E+01               0
GRID*               6163               04.0298507463E+024.9999998981E+01+
*       1.0082233141E-02               0
GRID*               6164               04.0298507463E+024.3305920747E+01+
*       2.4991942127E+01               0
GRID*               6165               04.0298507463E+022.4999326339E+01+
*       4.3301658463E+01               0
GRID*               6166               04.0298507463E+02-2.039840186E-14+
*       5.0000000000E+01               0
GRID*               6167               04.0298507463E+02-2.499932634E+01+
*       4.3301658462E+01               0
GRID*               6168               04.0298507463E+02-4.330592075E+01+
*       2.4991942112E+01               0
GRID*               6169               04.0298507463E+02-4.999999898E+01+
*       1.0082203021E-02               0
GRID*               6170               04.0298507463E+02-4.329622644E+01+
*       -2.500873285E+01               0
GRID*               6171               04.0298507463E+02-2.500268502E+01+
*       -4.329971922E+01               0
GRID*               6172               03.7611940299E+022.5002685023E+01+
*       -4.329971922E+01               0
GRID*               6173               03.7611940298E+024.3296226463E+01+
*       -2.500873281E+01               0
GRID*               6174               03.7611940299E+024.9999998981E+01+
*       1.0082234013E-02               0
GRID*               6175               03.7611940298E+024.3305920747E+01+
*       2.4991942127E+01               0
GRID*               6176               03.7611940299E+022.4999326339E+01+
*       4.3301658463E+01               0
GRID*               6177               03.7611940299E+024.6813962447E-14+
*       5.0000000000E+01               0
GRID*               6178               03.7611940299E+02-2.499932634E+01+
*       4.3301658462E+01               0
GRID*               6179               03.7611940299E+02-4.330592075E+01+
*       2.4991942111E+01               0
GRID*               6180               03.7611940298E+02-4.999999898E+01+
*       1.0082202514E-02               0
GRID*               6181               03.7611940299E+02-4.329622644E+01+
*       -2.500873285E+01               0
GRID*               6182               03.7611940299E+02-2.500268502E+01+
*       -4.329971922E+01               0
GRID*               6183               03.4925373134E+022.5002685023E+01+
*       -4.329971922E+01               0
GRID*               6184               03.4925373134E+024.3296226464E+01+
*       -2.500873281E+01               0
GRID*               6185               03.4925373134E+024.9999998981E+01+
*       1.0082234872E-02               0
GRID*               6186               03.4925373134E+024.3305920746E+01+
*       2.4991942127E+01               0
GRID*               6187               03.4925373134E+022.4999326339E+01+
*       4.3301658463E+01               0
GRID*               6188               03.4925373134E+02-1.506277837E-15+
*       5.0000000000E+01               0
GRID*               6189               03.4925373134E+02-2.499932634E+01+
*       4.3301658462E+01               0
GRID*               6190               03.4925373134E+02-4.330592076E+01+
*       2.4991942111E+01               0
GRID*               6191               03.4925373134E+02-4.999999898E+01+
*       1.0082202036E-02               0
GRID*               6192               03.4925373134E+02-4.329622644E+01+
*       -2.500873285E+01               0
GRID*               6193               03.4925373134E+02-2.500268502E+01+
*       -4.329971922E+01               0
GRID*               6194               03.2238805970E+022.5002685024E+01+
*       -4.329971922E+01               0
GRID*               6195               03.2238805970E+024.3296226464E+01+
*       -2.500873281E+01               0
GRID*               6196               03.2238805970E+024.9999998981E+01+
*       1.0082235715E-02               0
GRID*               6197               03.2238805970E+024.3305920746E+01+
*       2.4991942127E+01               0
GRID*               6198               03.2238805970E+022.4999326339E+01+
*       4.3301658463E+01               0
GRID*               6199               03.2238805970E+02-2.076171194E-14+
*       5.0000000000E+01               0
GRID*               6200               03.2238805970E+02-2.499932634E+01+
*       4.3301658462E+01               0
GRID*               6201               03.2238805970E+02-4.330592076E+01+
*       2.4991942110E+01               0
GRID*               6202               03.2238805970E+02-4.999999898E+01+
*       1.0082201587E-02               0
GRID*               6203               03.2238805970E+02-4.329622644E+01+
*       -2.500873285E+01               0
GRID*               6204               03.2238805970E+02-2.500268502E+01+
*       -4.329971922E+01               0
GRID*               6205               02.9552238806E+022.5002685024E+01+
*       -4.329971922E+01               0
GRID*               6206               02.9552238806E+024.3296226464E+01+
*       -2.500873281E+01               0
GRID*               6207               02.9552238806E+024.9999998981E+01+
*       1.0082236541E-02               0
GRID*               6208               02.9552238806E+024.3305920746E+01+
*       2.4991942128E+01               0
GRID*               6209               02.9552238806E+022.4999326339E+01+
*       4.3301658463E+01               0
GRID*               6210               02.9552238806E+021.7749156261E-14+
*       5.0000000000E+01               0
GRID*               6211               02.9552238806E+02-2.499932634E+01+
*       4.3301658462E+01               0
GRID*               6212               02.9552238806E+02-4.330592076E+01+
*       2.4991942110E+01               0
GRID*               6213               02.9552238806E+02-4.999999898E+01+
*       1.0082201168E-02               0
GRID*               6214               02.9552238806E+02-4.329622644E+01+
*       -2.500873285E+01               0
GRID*               6215               02.9552238806E+02-2.500268502E+01+
*       -4.329971922E+01               0
GRID*               6216               02.6865671642E+022.5002685024E+01+
*       -4.329971922E+01               0
GRID*               6217               02.6865671642E+024.3296226465E+01+
*       -2.500873281E+01               0
GRID*               6218               02.6865671642E+024.9999998981E+01+
*       1.0082237346E-02               0
GRID*               6219               02.6865671642E+024.3305920746E+01+
*       2.4991942128E+01               0
GRID*               6220               02.6865671642E+022.4999326339E+01+
*       4.3301658463E+01               0
GRID*               6221               02.6865671642E+022.6468598117E-14+
*       5.0000000000E+01               0
GRID*               6222               02.6865671642E+02-2.499932634E+01+
*       4.3301658462E+01               0
GRID*               6223               02.6865671642E+02-4.330592076E+01+
*       2.4991942110E+01               0
GRID*               6224               02.6865671642E+02-4.999999898E+01+
*       1.0082200782E-02               0
GRID*               6225               02.6865671642E+02-4.329622644E+01+
*       -2.500873285E+01               0
GRID*               6226               02.6865671642E+02-2.500268502E+01+
*       -4.329971922E+01               0
GRID*               6227               02.4179104478E+022.5002685024E+01+
*       -4.329971922E+01               0
GRID*               6228               02.4179104478E+024.3296226465E+01+
*       -2.500873281E+01               0
GRID*               6229               02.4179104478E+024.9999998981E+01+
*       1.0082238125E-02               0
GRID*               6230               02.4179104478E+024.3305920746E+01+
*       2.4991942128E+01               0
GRID*               6231               02.4179104478E+022.4999326339E+01+
*       4.3301658463E+01               0
GRID*               6232               02.4179104478E+023.4824729895E-14+
*       5.0000000000E+01               0
GRID*               6233               02.4179104478E+02-2.499932634E+01+
*       4.3301658462E+01               0
GRID*               6234               02.4179104478E+02-4.330592076E+01+
*       2.4991942109E+01               0
GRID*               6235               02.4179104478E+02-4.999999898E+01+
*       1.0082200427E-02               0
GRID*               6236               02.4179104478E+02-4.329622644E+01+
*       -2.500873285E+01               0
GRID*               6237               02.4179104478E+02-2.500268502E+01+
*       -4.329971922E+01               0
GRID*               6238               02.1492537313E+022.5002685024E+01+
*       -4.329971922E+01               0
GRID*               6239               02.1492537313E+024.3296226465E+01+
*       -2.500873281E+01               0
GRID*               6240               02.1492537313E+024.9999998981E+01+
*       1.0082238872E-02               0
GRID*               6241               02.1492537313E+024.3305920746E+01+
*       2.4991942128E+01               0
GRID*               6242               02.1492537313E+022.4999326339E+01+
*       4.3301658463E+01               0
GRID*               6243               02.1492537313E+02-4.019880107E-14+
*       5.0000000000E+01               0
GRID*               6244               02.1492537313E+02-2.499932634E+01+
*       4.3301658462E+01               0
GRID*               6245               02.1492537313E+02-4.330592076E+01+
*       2.4991942109E+01               0
GRID*               6246               02.1492537313E+02-4.999999898E+01+
*       1.0082200106E-02               0
GRID*               6247               02.1492537313E+02-4.329622644E+01+
*       -2.500873285E+01               0
GRID*               6248               02.1492537313E+02-2.500268502E+01+
*       -4.329971922E+01               0
GRID*               6249               01.8805970149E+022.5002685024E+01+
*       -4.329971922E+01               0
GRID*               6250               01.8805970149E+024.3296226465E+01+
*       -2.500873281E+01               0
GRID*               6251               01.8805970149E+024.9999998981E+01+
*       1.0082239579E-02               0
GRID*               6252               01.8805970149E+024.3305920746E+01+
*       2.4991942128E+01               0
GRID*               6253               01.8805970149E+022.4999326339E+01+
*       4.3301658463E+01               0
GRID*               6254               01.8805970149E+02-2.596208069E-15+
*       5.0000000000E+01               0
GRID*               6255               01.8805970149E+02-2.499932634E+01+
*       4.3301658462E+01               0
GRID*               6256               01.8805970149E+02-4.330592076E+01+
*       2.4991942109E+01               0
GRID*               6257               01.8805970149E+02-4.999999898E+01+
*       1.0082199819E-02               0
GRID*               6258               01.8805970149E+02-4.329622644E+01+
*       -2.500873285E+01               0
GRID*               6259               01.8805970149E+02-2.500268502E+01+
*       -4.329971922E+01               0
GRID*               6260               01.6119402985E+022.5002685024E+01+
*       -4.329971922E+01               0
GRID*               6261               01.6119402985E+024.3296226466E+01+
*       -2.500873281E+01               0
GRID*               6262               01.6119402985E+024.9999998981E+01+
*       1.0082240230E-02               0
GRID*               6263               01.6119402985E+024.3305920746E+01+
*       2.4991942128E+01               0
GRID*               6264               01.6119402985E+022.4999326339E+01+
*       4.3301658463E+01               0
GRID*               6265               01.6119402985E+023.5733005089E-14+
*       5.0000000000E+01               0
GRID*               6266               01.6119402985E+02-2.499932634E+01+
*       4.3301658462E+01               0
GRID*               6267               01.6119402985E+02-4.330592076E+01+
*       2.4991942108E+01               0
GRID*               6268               01.6119402985E+02-4.999999898E+01+
*       1.0082199567E-02               0
GRID*               6269               01.6119402985E+02-4.329622644E+01+
*       -2.500873285E+01               0
GRID*               6270               01.6119402985E+02-2.500268502E+01+
*       -4.329971922E+01               0
GRID*               6271               01.3432835821E+022.5002685024E+01+
*       -4.329971922E+01               0
GRID*               6272               01.3432835821E+024.3296226466E+01+
*       -2.500873281E+01               0
GRID*               6273               01.3432835821E+024.9999998981E+01+
*       1.0082240801E-02               0
GRID*               6274               01.3432835821E+024.3305920746E+01+
*       2.4991942129E+01               0
GRID*               6275               01.3432835821E+022.4999326339E+01+
*       4.3301658463E+01               0
GRID*               6276               01.3432835821E+021.6295915952E-14+
*       5.0000000000E+01               0
GRID*               6277               01.3432835821E+02-2.499932634E+01+
*       4.3301658462E+01               0
GRID*               6278               01.3432835821E+02-4.330592076E+01+
*       2.4991942108E+01               0
GRID*               6279               01.3432835821E+02-4.999999898E+01+
*       1.0082199351E-02               0
GRID*               6280               01.3432835821E+02-4.329622643E+01+
*       -2.500873286E+01               0
GRID*               6281               01.3432835821E+02-2.500268502E+01+
*       -4.329971922E+01               0
GRID*               6282               01.0746268657E+022.5002685024E+01+
*       -4.329971922E+01               0
GRID*               6283               01.0746268657E+024.3296226466E+01+
*       -2.500873281E+01               0
GRID*               6284               01.0746268657E+024.9999998981E+01+
*       1.0082241240E-02               0
GRID*               6285               01.0746268657E+024.3305920746E+01+
*       2.4991942129E+01               0
GRID*               6286               01.0746268657E+022.4999326339E+01+
*       4.3301658463E+01               0
GRID*               6287               01.0746268657E+02-2.959518147E-15+
*       5.0000000000E+01               0
GRID*               6288               01.0746268657E+02-2.499932634E+01+
*       4.3301658462E+01               0
GRID*               6289               01.0746268657E+02-4.330592076E+01+
*       2.4991942108E+01               0
GRID*               6290               01.0746268657E+02-4.999999898E+01+
*       1.0082199173E-02               0
GRID*               6291               01.0746268657E+02-4.329622643E+01+
*       -2.500873286E+01               0
GRID*               6292               01.0746268657E+02-2.500268502E+01+
*       -4.329971922E+01               0
GRID*               6293               08.0597014925E+012.5002685024E+01+
*       -4.329971922E+01               0
GRID*               6294               08.0597014925E+014.3296226466E+01+
*       -2.500873281E+01               0
GRID*               6295               08.0597014925E+014.9999998981E+01+
*       1.0082241434E-02               0
GRID*               6296               08.0597014925E+014.3305920746E+01+
*       2.4991942129E+01               0
GRID*               6297               08.0597014925E+012.4999326339E+01+
*       4.3301658463E+01               0
GRID*               6298               08.0597014925E+01-5.100727587E-14+
*       5.0000000000E+01               0
GRID*               6299               08.0597014925E+01-2.499932634E+01+
*       4.3301658462E+01               0
GRID*               6300               08.0597014925E+01-4.330592076E+01+
*       2.4991942108E+01               0
GRID*               6301               08.0597014925E+01-4.999999898E+01+
*       1.0082199033E-02               0
GRID*               6302               08.0597014926E+01-4.329622643E+01+
*       -2.500873286E+01               0
GRID*               6303               08.0597014925E+01-2.500268502E+01+
*       -4.329971922E+01               0
GRID*               6304               05.3731343284E+012.5002685024E+01+
*       -4.329971922E+01               0
GRID*               6305               05.3731343283E+014.3296226466E+01+
*       -2.500873281E+01               0
GRID*               6306               05.3731343284E+014.9999998981E+01+
*       1.0082241037E-02               0
GRID*               6307               05.3731343283E+014.3305920746E+01+
*       2.4991942129E+01               0
GRID*               6308               05.3731343284E+012.4999326339E+01+
*       4.3301658463E+01               0
GRID*               6309               05.3731343284E+01-6.985398613E-14+
*       5.0000000000E+01               0
GRID*               6310               05.3731343284E+01-2.499932634E+01+
*       4.3301658462E+01               0
GRID*               6311               05.3731343284E+01-4.330592076E+01+
*       2.4991942108E+01               0
GRID*               6312               05.3731343283E+01-4.999999898E+01+
*       1.0082198931E-02               0
GRID*               6313               05.3731343284E+01-4.329622643E+01+
*       -2.500873286E+01               0
GRID*               6314               05.3731343283E+01-2.500268502E+01+
*       -4.329971922E+01               0
GRID*               6315               02.6865671642E+012.5002685024E+01+
*       -4.329971922E+01               0
GRID*               6316               02.6865671641E+014.3296226466E+01+
*       -2.500873281E+01               0
GRID*               6317               02.6865671642E+014.9999998981E+01+
*       1.0082238332E-02               0
GRID*               6318               02.6865671641E+014.3305920746E+01+
*       2.4991942129E+01               0
GRID*               6319               02.6865671642E+012.4999326339E+01+
*       4.3301658463E+01               0
GRID*               6320               02.6865671642E+01-2.164777353E-15+
*       5.0000000000E+01               0
GRID*               6321               02.6865671642E+01-2.499932634E+01+
*       4.3301658462E+01               0
GRID*               6322               02.6865671642E+01-4.330592076E+01+
*       2.4991942110E+01               0
GRID*               6323               02.6865671642E+01-4.999999898E+01+
*       1.0082198869E-02               0
GRID*               6324               02.6865671642E+01-4.329622644E+01+
*       -2.500873285E+01               0
GRID*               6325               02.6865671642E+01-2.500268502E+01+
*       -4.329971922E+01               0
GRID*               6326               01.7597014925E+032.5002685023E+01+
*       -4.329971922E+01               0
GRID*               6327               01.7462686567E+033.5358631413E+01+
*       -3.535204638E+01               0
GRID*               6328               01.7597014925E+033.5358631413E+01+
*       -3.535204638E+01               0
GRID*               6329               01.7597014925E+034.3296226435E+01+
*       -2.500873286E+01               0
GRID*               6330               01.7731343284E+033.5358631413E+01+
*       -3.535204638E+01               0
GRID*               6331               01.7462686567E+034.8295488916E+01+
*       -1.294394666E+01               0
GRID*               6332               01.7597014925E+034.8295488916E+01+
*       -1.294394666E+01               0
GRID*               6333               01.7597014925E+034.9999998983E+01+
*       1.0082198895E-02               0
GRID*               6334               01.7731343284E+034.8295488916E+01+
*       -1.294394666E+01               0
GRID*               6335               01.7462686567E+034.8296894005E+01+
*       1.2938702955E+01               0
GRID*               6336               01.7597014925E+034.8296894005E+01+
*       1.2938702955E+01               0
GRID*               6337               01.7597014925E+034.3305920756E+01+
*       2.4991942109E+01               0
GRID*               6338               01.7731343284E+034.8296894005E+01+
*       1.2938702955E+01               0
GRID*               6339               01.7462686567E+033.5352597542E+01+
*       3.5358080346E+01               0
GRID*               6340               01.7597014925E+033.5352597542E+01+
*       3.5358080346E+01               0
GRID*               6341               01.7597014925E+032.4999326339E+01+
*       4.3301658462E+01               0
GRID*               6342               01.7731343284E+033.5352597542E+01+
*       3.5358080346E+01               0
GRID*               6343               01.7462686567E+031.2953687634E+01+
*       4.8292877123E+01               0
GRID*               6344               01.7597014925E+031.2953687632E+01+
*       4.8292877123E+01               0
GRID*               6345               01.7597014925E+03-8.409169307E-15+
*       5.0000000000E+01               0
GRID*               6346               01.7731343284E+031.2953687628E+01+
*       4.8292877125E+01               0
GRID*               6347               01.7462686567E+03-1.295368755E+01+
*       4.8292877149E+01               0
GRID*               6348               01.7597014925E+03-1.295368755E+01+
*       4.8292877149E+01               0
GRID*               6349               01.7597014925E+03-2.499932634E+01+
*       4.3301658463E+01               0
GRID*               6350               01.7731343284E+03-1.295368755E+01+
*       4.8292877149E+01               0
GRID*               6351               01.7462686567E+03-3.535259754E+01+
*       3.5358080348E+01               0
GRID*               6352               01.7597014925E+03-3.535259754E+01+
*       3.5358080348E+01               0
GRID*               6353               01.7597014925E+03-4.330592075E+01+
*       2.4991942129E+01               0
GRID*               6354               01.7731343284E+03-3.535259754E+01+
*       3.5358080348E+01               0
GRID*               6355               01.7462686567E+03-4.829689400E+01+
*       1.2938702959E+01               0
GRID*               6356               01.7597014925E+03-4.829689400E+01+
*       1.2938702959E+01               0
GRID*               6357               01.7597014925E+03-4.999999898E+01+
*       1.0082240259E-02               0
GRID*               6358               01.7731343284E+03-4.829689400E+01+
*       1.2938702959E+01               0
GRID*               6359               01.7462686567E+03-4.829548892E+01+
*       -1.294394666E+01               0
GRID*               6360               01.7597014925E+03-4.829548892E+01+
*       -1.294394666E+01               0
GRID*               6361               01.7597014925E+03-4.329622647E+01+
*       -2.500873281E+01               0
GRID*               6362               01.7731343284E+03-4.829548892E+01+
*       -1.294394666E+01               0
GRID*               6363               01.7462686567E+03-3.535863142E+01+
*       -3.535204637E+01               0
GRID*               6364               01.7597014925E+03-3.535863142E+01+
*       -3.535204637E+01               0
GRID*               6365               01.7597014925E+03-2.500268502E+01+
*       -4.329971922E+01               0
GRID*               6366               01.7731343284E+03-3.535863142E+01+
*       -3.535204637E+01               0
GRID*               6367               01.7328358209E+032.5002685023E+01+
*       -4.329971922E+01               0
GRID*               6368               01.7194029851E+033.5358631413E+01+
*       -3.535204638E+01               0
GRID*               6369               01.7328358209E+033.5358631413E+01+
*       -3.535204638E+01               0
GRID*               6370               01.7328358209E+034.3296226434E+01+
*       -2.500873286E+01               0
GRID*               6371               01.7194029851E+034.8295488916E+01+
*       -1.294394666E+01               0
GRID*               6372               01.7328358209E+034.8295488916E+01+
*       -1.294394666E+01               0
GRID*               6373               01.7328358209E+034.9999998983E+01+
*       1.0082198977E-02               0
GRID*               6374               01.7194029851E+034.8296894005E+01+
*       1.2938702955E+01               0
GRID*               6375               01.7328358209E+034.8296894005E+01+
*       1.2938702955E+01               0
GRID*               6376               01.7328358209E+034.3305920757E+01+
*       2.4991942108E+01               0
GRID*               6377               01.7194029851E+033.5352597542E+01+
*       3.5358080346E+01               0
GRID*               6378               01.7328358209E+033.5352597542E+01+
*       3.5358080346E+01               0
GRID*               6379               01.7328358209E+032.4999326339E+01+
*       4.3301658462E+01               0
GRID*               6380               01.7194029851E+031.2953687635E+01+
*       4.8292877123E+01               0
GRID*               6381               01.7328358209E+031.2953687635E+01+
*       4.8292877123E+01               0
GRID*               6382               01.7328358209E+03-2.730129333E-14+
*       5.0000000000E+01               0
GRID*               6383               01.7194029851E+03-1.295368756E+01+
*       4.8292877149E+01               0
GRID*               6384               01.7328358209E+03-1.295368755E+01+
*       4.8292877149E+01               0
GRID*               6385               01.7328358209E+03-2.499932634E+01+
*       4.3301658463E+01               0
GRID*               6386               01.7194029851E+03-3.535259754E+01+
*       3.5358080348E+01               0
GRID*               6387               01.7328358209E+03-3.535259754E+01+
*       3.5358080348E+01               0
GRID*               6388               01.7328358209E+03-4.330592075E+01+
*       2.4991942129E+01               0
GRID*               6389               01.7194029851E+03-4.829689400E+01+
*       1.2938702959E+01               0
GRID*               6390               01.7328358209E+03-4.829689400E+01+
*       1.2938702959E+01               0
GRID*               6391               01.7328358209E+03-4.999999898E+01+
*       1.0082241351E-02               0
GRID*               6392               01.7194029851E+03-4.829548892E+01+
*       -1.294394666E+01               0
GRID*               6393               01.7328358209E+03-4.829548892E+01+
*       -1.294394666E+01               0
GRID*               6394               01.7328358209E+03-4.329622647E+01+
*       -2.500873281E+01               0
GRID*               6395               01.7194029851E+03-3.535863142E+01+
*       -3.535204637E+01               0
GRID*               6396               01.7328358209E+03-3.535863142E+01+
*       -3.535204637E+01               0
GRID*               6397               01.7328358209E+03-2.500268502E+01+
*       -4.329971922E+01               0
GRID*               6398               01.7059701493E+032.5002685023E+01+
*       -4.329971922E+01               0
GRID*               6399               01.6925373134E+033.5358631413E+01+
*       -3.535204638E+01               0
GRID*               6400               01.7059701493E+033.5358631413E+01+
*       -3.535204638E+01               0
GRID*               6401               01.7059701493E+034.3296226434E+01+
*       -2.500873286E+01               0
GRID*               6402               01.6925373134E+034.8295488916E+01+
*       -1.294394666E+01               0
GRID*               6403               01.7059701493E+034.8295488916E+01+
*       -1.294394666E+01               0
GRID*               6404               01.7059701493E+034.9999998983E+01+
*       1.0082199098E-02               0
GRID*               6405               01.6925373134E+034.8296894005E+01+
*       1.2938702955E+01               0
GRID*               6406               01.7059701493E+034.8296894005E+01+
*       1.2938702955E+01               0
GRID*               6407               01.7059701493E+034.3305920757E+01+
*       2.4991942108E+01               0
GRID*               6408               01.6925373134E+033.5352597542E+01+
*       3.5358080346E+01               0
GRID*               6409               01.7059701493E+033.5352597542E+01+
*       3.5358080346E+01               0
GRID*               6410               01.7059701493E+032.4999326339E+01+
*       4.3301658462E+01               0
GRID*               6411               01.6925373134E+031.2953687635E+01+
*       4.8292877123E+01               0
GRID*               6412               01.7059701493E+031.2953687635E+01+
*       4.8292877123E+01               0
GRID*               6413               01.7059701493E+03-1.858185147E-14+
*       5.0000000000E+01               0
GRID*               6414               01.6925373134E+03-1.295368756E+01+
*       4.8292877149E+01               0
GRID*               6415               01.7059701493E+03-1.295368756E+01+
*       4.8292877149E+01               0
GRID*               6416               01.7059701493E+03-2.499932634E+01+
*       4.3301658463E+01               0
GRID*               6417               01.6925373134E+03-3.535259754E+01+
*       3.5358080348E+01               0
GRID*               6418               01.7059701493E+03-3.535259754E+01+
*       3.5358080348E+01               0
GRID*               6419               01.7059701493E+03-4.330592075E+01+
*       2.4991942129E+01               0
GRID*               6420               01.6925373134E+03-4.829689400E+01+
*       1.2938702959E+01               0
GRID*               6421               01.7059701493E+03-4.829689400E+01+
*       1.2938702959E+01               0
GRID*               6422               01.7059701493E+03-4.999999898E+01+
*       1.0082241379E-02               0
GRID*               6423               01.6925373134E+03-4.829548892E+01+
*       -1.294394666E+01               0
GRID*               6424               01.7059701493E+03-4.829548892E+01+
*       -1.294394666E+01               0
GRID*               6425               01.7059701493E+03-4.329622647E+01+
*       -2.500873281E+01               0
GRID*               6426               01.6925373134E+03-3.535863142E+01+
*       -3.535204637E+01               0
GRID*               6427               01.7059701493E+03-3.535863142E+01+
*       -3.535204637E+01               0
GRID*               6428               01.7059701493E+03-2.500268502E+01+
*       -4.329971922E+01               0
GRID*               6429               01.6791044776E+032.5002685023E+01+
*       -4.329971922E+01               0
GRID*               6430               01.6656716418E+033.5358631413E+01+
*       -3.535204638E+01               0
GRID*               6431               01.6791044776E+033.5358631413E+01+
*       -3.535204638E+01               0
GRID*               6432               01.6791044776E+034.3296226435E+01+
*       -2.500873286E+01               0
GRID*               6433               01.6656716418E+034.8295488916E+01+
*       -1.294394666E+01               0
GRID*               6434               01.6791044776E+034.8295488916E+01+
*       -1.294394666E+01               0
GRID*               6435               01.6791044776E+034.9999998983E+01+
*       1.0082199258E-02               0
GRID*               6436               01.6656716418E+034.8296894005E+01+
*       1.2938702955E+01               0
GRID*               6437               01.6791044776E+034.8296894005E+01+
*       1.2938702955E+01               0
GRID*               6438               01.6791044776E+034.3305920757E+01+
*       2.4991942108E+01               0
GRID*               6439               01.6656716418E+033.5352597542E+01+
*       3.5358080346E+01               0
GRID*               6440               01.6791044776E+033.5352597542E+01+
*       3.5358080346E+01               0
GRID*               6441               01.6791044776E+032.4999326339E+01+
*       4.3301658462E+01               0
GRID*               6442               01.6656716418E+031.2953687634E+01+
*       4.8292877123E+01               0
GRID*               6443               01.6791044776E+031.2953687634E+01+
*       4.8292877123E+01               0
GRID*               6444               01.6791044776E+03-8.409169307E-15+
*       5.0000000000E+01               0
GRID*               6445               01.6656716418E+03-1.295368756E+01+
*       4.8292877149E+01               0
GRID*               6446               01.6791044776E+03-1.295368756E+01+
*       4.8292877149E+01               0
GRID*               6447               01.6791044776E+03-2.499932634E+01+
*       4.3301658463E+01               0
GRID*               6448               01.6656716418E+03-3.535259754E+01+
*       3.5358080348E+01               0
GRID*               6449               01.6791044776E+03-3.535259754E+01+
*       3.5358080348E+01               0
GRID*               6450               01.6791044776E+03-4.330592075E+01+
*       2.4991942129E+01               0
GRID*               6451               01.6656716418E+03-4.829689400E+01+
*       1.2938702959E+01               0
GRID*               6452               01.6791044776E+03-4.829689400E+01+
*       1.2938702959E+01               0
GRID*               6453               01.6791044776E+03-4.999999898E+01+
*       1.0082241041E-02               0
GRID*               6454               01.6656716418E+03-4.829548892E+01+
*       -1.294394666E+01               0
GRID*               6455               01.6791044776E+03-4.829548892E+01+
*       -1.294394666E+01               0
GRID*               6456               01.6791044776E+03-4.329622647E+01+
*       -2.500873281E+01               0
GRID*               6457               01.6656716418E+03-3.535863142E+01+
*       -3.535204637E+01               0
GRID*               6458               01.6791044776E+03-3.535863142E+01+
*       -3.535204637E+01               0
GRID*               6459               01.6791044776E+03-2.500268502E+01+
*       -4.329971922E+01               0
GRID*               6460               01.6522388060E+032.5002685023E+01+
*       -4.329971922E+01               0
GRID*               6461               01.6388059701E+033.5358631413E+01+
*       -3.535204638E+01               0
GRID*               6462               01.6522388060E+033.5358631413E+01+
*       -3.535204638E+01               0
GRID*               6463               01.6522388060E+034.3296226435E+01+
*       -2.500873286E+01               0
GRID*               6464               01.6388059701E+034.8295488916E+01+
*       -1.294394666E+01               0
GRID*               6465               01.6522388060E+034.8295488916E+01+
*       -1.294394666E+01               0
GRID*               6466               01.6522388060E+034.9999998983E+01+
*       1.0082199455E-02               0
GRID*               6467               01.6388059701E+034.8296894005E+01+
*       1.2938702955E+01               0
GRID*               6468               01.6522388060E+034.8296894005E+01+
*       1.2938702955E+01               0
GRID*               6469               01.6522388060E+034.3305920757E+01+
*       2.4991942108E+01               0
GRID*               6470               01.6388059701E+033.5352597542E+01+
*       3.5358080346E+01               0
GRID*               6471               01.6522388060E+033.5352597542E+01+
*       3.5358080346E+01               0
GRID*               6472               01.6522388060E+032.4999326339E+01+
*       4.3301658462E+01               0
GRID*               6473               01.6388059701E+031.2953687633E+01+
*       4.8292877123E+01               0
GRID*               6474               01.6522388060E+031.2953687634E+01+
*       4.8292877123E+01               0
GRID*               6475               01.6522388060E+03-5.636609951E-14+
*       5.0000000000E+01               0
GRID*               6476               01.6388059701E+03-1.295368756E+01+
*       4.8292877148E+01               0
GRID*               6477               01.6522388060E+03-1.295368756E+01+
*       4.8292877148E+01               0
GRID*               6478               01.6522388060E+03-2.499932634E+01+
*       4.3301658463E+01               0
GRID*               6479               01.6388059701E+03-3.535259754E+01+
*       3.5358080348E+01               0
GRID*               6480               01.6522388060E+03-3.535259754E+01+
*       3.5358080348E+01               0
GRID*               6481               01.6522388060E+03-4.330592075E+01+
*       2.4991942128E+01               0
GRID*               6482               01.6388059701E+03-4.829689400E+01+
*       1.2938702959E+01               0
GRID*               6483               01.6522388060E+03-4.829689400E+01+
*       1.2938702959E+01               0
GRID*               6484               01.6522388060E+03-4.999999898E+01+
*       1.0082240527E-02               0
GRID*               6485               01.6388059701E+03-4.829548892E+01+
*       -1.294394666E+01               0
GRID*               6486               01.6522388060E+03-4.829548892E+01+
*       -1.294394666E+01               0
GRID*               6487               01.6522388060E+03-4.329622647E+01+
*       -2.500873281E+01               0
GRID*               6488               01.6388059701E+03-3.535863142E+01+
*       -3.535204637E+01               0
GRID*               6489               01.6522388060E+03-3.535863142E+01+
*       -3.535204637E+01               0
GRID*               6490               01.6522388060E+03-2.500268502E+01+
*       -4.329971922E+01               0
GRID*               6491               01.6253731343E+032.5002685023E+01+
*       -4.329971922E+01               0
GRID*               6492               01.6119402985E+033.5358631413E+01+
*       -3.535204638E+01               0
GRID*               6493               01.6253731343E+033.5358631413E+01+
*       -3.535204638E+01               0
GRID*               6494               01.6253731343E+034.3296226436E+01+
*       -2.500873285E+01               0
GRID*               6495               01.6119402985E+034.8295488916E+01+
*       -1.294394666E+01               0
GRID*               6496               01.6253731343E+034.8295488916E+01+
*       -1.294394666E+01               0
GRID*               6497               01.6253731343E+034.9999998983E+01+
*       1.0082199689E-02               0
GRID*               6498               01.6119402985E+034.8296894005E+01+
*       1.2938702955E+01               0
GRID*               6499               01.6253731343E+034.8296894005E+01+
*       1.2938702955E+01               0
GRID*               6500               01.6253731343E+034.3305920757E+01+
*       2.4991942108E+01               0
GRID*               6501               01.6119402985E+033.5352597542E+01+
*       3.5358080346E+01               0
GRID*               6502               01.6253731343E+033.5352597542E+01+
*       3.5358080346E+01               0
GRID*               6503               01.6253731343E+032.4999326339E+01+
*       4.3301658462E+01               0
GRID*               6504               01.6119402985E+031.2953687632E+01+
*       4.8292877124E+01               0
GRID*               6505               01.6253731343E+031.2953687632E+01+
*       4.8292877123E+01               0
GRID*               6506               01.6253731343E+03-1.858185147E-14+
*       5.0000000000E+01               0
GRID*               6507               01.6119402985E+03-1.295368756E+01+
*       4.8292877148E+01               0
GRID*               6508               01.6253731343E+03-1.295368756E+01+
*       4.8292877148E+01               0
GRID*               6509               01.6253731343E+03-2.499932634E+01+
*       4.3301658463E+01               0
GRID*               6510               01.6119402985E+03-3.535259754E+01+
*       3.5358080348E+01               0
GRID*               6511               01.6253731343E+03-3.535259754E+01+
*       3.5358080348E+01               0
GRID*               6512               01.6253731343E+03-4.330592075E+01+
*       2.4991942128E+01               0
GRID*               6513               01.6119402985E+03-4.829689400E+01+
*       1.2938702959E+01               0
GRID*               6514               01.6253731343E+03-4.829689400E+01+
*       1.2938702959E+01               0
GRID*               6515               01.6253731343E+03-4.999999898E+01+
*       1.0082239912E-02               0
GRID*               6516               01.6119402985E+03-4.829548892E+01+
*       -1.294394666E+01               0
GRID*               6517               01.6253731343E+03-4.829548892E+01+
*       -1.294394666E+01               0
GRID*               6518               01.6253731343E+03-4.329622647E+01+
*       -2.500873281E+01               0
GRID*               6519               01.6119402985E+03-3.535863142E+01+
*       -3.535204637E+01               0
GRID*               6520               01.6253731343E+03-3.535863142E+01+
*       -3.535204637E+01               0
GRID*               6521               01.6253731343E+03-2.500268502E+01+
*       -4.329971922E+01               0
GRID*               6522               01.5985074627E+032.5002685023E+01+
*       -4.329971922E+01               0
GRID*               6523               01.5850746269E+033.5358631413E+01+
*       -3.535204638E+01               0
GRID*               6524               01.5985074627E+033.5358631413E+01+
*       -3.535204638E+01               0
GRID*               6525               01.5985074627E+034.3296226436E+01+
*       -2.500873285E+01               0
GRID*               6526               01.5850746269E+034.8295488916E+01+
*       -1.294394666E+01               0
GRID*               6527               01.5985074627E+034.8295488916E+01+
*       -1.294394666E+01               0
GRID*               6528               01.5985074627E+034.9999998983E+01+
*       1.0082199958E-02               0
GRID*               6529               01.5850746269E+034.8296894005E+01+
*       1.2938702955E+01               0
GRID*               6530               01.5985074627E+034.8296894005E+01+
*       1.2938702955E+01               0
GRID*               6531               01.5985074627E+034.3305920756E+01+
*       2.4991942109E+01               0
GRID*               6532               01.5850746269E+033.5352597542E+01+
*       3.5358080346E+01               0
GRID*               6533               01.5985074627E+033.5352597542E+01+
*       3.5358080346E+01               0
GRID*               6534               01.5985074627E+032.4999326339E+01+
*       4.3301658462E+01               0
GRID*               6535               01.5850746269E+031.2953687631E+01+
*       4.8292877124E+01               0
GRID*               6536               01.5985074627E+031.2953687631E+01+
*       4.8292877124E+01               0
GRID*               6537               01.5985074627E+031.9202396570E-14+
*       5.0000000000E+01               0
GRID*               6538               01.5850746269E+03-1.295368756E+01+
*       4.8292877148E+01               0
GRID*               6539               01.5985074627E+03-1.295368756E+01+
*       4.8292877148E+01               0
GRID*               6540               01.5985074627E+03-2.499932634E+01+
*       4.3301658463E+01               0
GRID*               6541               01.5850746269E+03-3.535259754E+01+
*       3.5358080348E+01               0
GRID*               6542               01.5985074627E+03-3.535259754E+01+
*       3.5358080348E+01               0
GRID*               6543               01.5985074627E+03-4.330592075E+01+
*       2.4991942128E+01               0
GRID*               6544               01.5850746269E+03-4.829689400E+01+
*       1.2938702959E+01               0
GRID*               6545               01.5985074627E+03-4.829689400E+01+
*       1.2938702959E+01               0
GRID*               6546               01.5985074627E+03-4.999999898E+01+
*       1.0082239231E-02               0
GRID*               6547               01.5850746269E+03-4.829548892E+01+
*       -1.294394666E+01               0
GRID*               6548               01.5985074627E+03-4.829548892E+01+
*       -1.294394666E+01               0
GRID*               6549               01.5985074627E+03-4.329622647E+01+
*       -2.500873281E+01               0
GRID*               6550               01.5850746269E+03-3.535863142E+01+
*       -3.535204637E+01               0
GRID*               6551               01.5985074627E+03-3.535863142E+01+
*       -3.535204637E+01               0
GRID*               6552               01.5985074627E+03-2.500268502E+01+
*       -4.329971922E+01               0
GRID*               6553               01.5716417910E+032.5002685023E+01+
*       -4.329971922E+01               0
GRID*               6554               01.5582089552E+033.5358631413E+01+
*       -3.535204638E+01               0
GRID*               6555               01.5716417910E+033.5358631413E+01+
*       -3.535204638E+01               0
GRID*               6556               01.5716417910E+034.3296226437E+01+
*       -2.500873285E+01               0
GRID*               6557               01.5582089552E+034.8295488916E+01+
*       -1.294394666E+01               0
GRID*               6558               01.5716417910E+034.8295488916E+01+
*       -1.294394666E+01               0
GRID*               6559               01.5716417910E+034.9999998983E+01+
*       1.0082200262E-02               0
GRID*               6560               01.5582089552E+034.8296894005E+01+
*       1.2938702955E+01               0
GRID*               6561               01.5716417910E+034.8296894005E+01+
*       1.2938702955E+01               0
GRID*               6562               01.5716417910E+034.3305920756E+01+
*       2.4991942109E+01               0
GRID*               6563               01.5582089552E+033.5352597542E+01+
*       3.5358080346E+01               0
GRID*               6564               01.5716417910E+033.5352597542E+01+
*       3.5358080346E+01               0
GRID*               6565               01.5716417910E+032.4999326339E+01+
*       4.3301658462E+01               0
GRID*               6566               01.5582089552E+031.2953687629E+01+
*       4.8292877125E+01               0
GRID*               6567               01.5716417910E+031.2953687630E+01+
*       4.8292877124E+01               0
GRID*               6568               01.5716417910E+030.0000000000E+00+
*       5.0000000000E+01               0
GRID*               6569               01.5582089552E+03-1.295368756E+01+
*       4.8292877148E+01               0
GRID*               6570               01.5716417910E+03-1.295368756E+01+
*       4.8292877148E+01               0
GRID*               6571               01.5716417910E+03-2.499932634E+01+
*       4.3301658463E+01               0
GRID*               6572               01.5582089552E+03-3.535259754E+01+
*       3.5358080348E+01               0
GRID*               6573               01.5716417910E+03-3.535259754E+01+
*       3.5358080348E+01               0
GRID*               6574               01.5716417910E+03-4.330592075E+01+
*       2.4991942128E+01               0
GRID*               6575               01.5582089552E+03-4.829689400E+01+
*       1.2938702959E+01               0
GRID*               6576               01.5716417910E+03-4.829689400E+01+
*       1.2938702959E+01               0
GRID*               6577               01.5716417910E+03-4.999999898E+01+
*       1.0082238502E-02               0
GRID*               6578               01.5582089552E+03-4.829548892E+01+
*       -1.294394666E+01               0
GRID*               6579               01.5716417910E+03-4.829548892E+01+
*       -1.294394666E+01               0
GRID*               6580               01.5716417910E+03-4.329622647E+01+
*       -2.500873281E+01               0
GRID*               6581               01.5582089552E+03-3.535863142E+01+
*       -3.535204637E+01               0
GRID*               6582               01.5716417910E+03-3.535863142E+01+
*       -3.535204637E+01               0
GRID*               6583               01.5716417910E+03-2.500268502E+01+
*       -4.329971922E+01               0
GRID*               6584               01.5447761194E+032.5002685023E+01+
*       -4.329971922E+01               0
GRID*               6585               01.5313432836E+033.5358631413E+01+
*       -3.535204638E+01               0
GRID*               6586               01.5447761194E+033.5358631413E+01+
*       -3.535204638E+01               0
GRID*               6587               01.5447761194E+034.3296226437E+01+
*       -2.500873285E+01               0
GRID*               6588               01.5313432836E+034.8295488916E+01+
*       -1.294394666E+01               0
GRID*               6589               01.5447761194E+034.8295488916E+01+
*       -1.294394666E+01               0
GRID*               6590               01.5447761194E+034.9999998983E+01+
*       1.0082200600E-02               0
GRID*               6591               01.5313432836E+034.8296894005E+01+
*       1.2938702955E+01               0
GRID*               6592               01.5447761194E+034.8296894005E+01+
*       1.2938702955E+01               0
GRID*               6593               01.5447761194E+034.3305920756E+01+
*       2.4991942109E+01               0
GRID*               6594               01.5313432836E+033.5352597542E+01+
*       3.5358080346E+01               0
GRID*               6595               01.5447761194E+033.5352597542E+01+
*       3.5358080346E+01               0
GRID*               6596               01.5447761194E+032.4999326339E+01+
*       4.3301658462E+01               0
GRID*               6597               01.5313432836E+031.2953687628E+01+
*       4.8292877125E+01               0
GRID*               6598               01.5447761194E+031.2953687628E+01+
*       4.8292877125E+01               0
GRID*               6599               01.5447761194E+03-1.858185147E-14+
*       5.0000000000E+01               0
GRID*               6600               01.5313432836E+03-1.295368756E+01+
*       4.8292877148E+01               0
GRID*               6601               01.5447761194E+03-1.295368756E+01+
*       4.8292877148E+01               0
GRID*               6602               01.5447761194E+03-2.499932634E+01+
*       4.3301658463E+01               0
GRID*               6603               01.5313432836E+03-3.535259754E+01+
*       3.5358080348E+01               0
GRID*               6604               01.5447761194E+03-3.535259754E+01+
*       3.5358080348E+01               0
GRID*               6605               01.5447761194E+03-4.330592075E+01+
*       2.4991942128E+01               0
GRID*               6606               01.5313432836E+03-4.829689400E+01+
*       1.2938702959E+01               0
GRID*               6607               01.5447761194E+03-4.829689400E+01+
*       1.2938702959E+01               0
GRID*               6608               01.5447761194E+03-4.999999898E+01+
*       1.0082237738E-02               0
GRID*               6609               01.5313432836E+03-4.829548892E+01+
*       -1.294394666E+01               0
GRID*               6610               01.5447761194E+03-4.829548892E+01+
*       -1.294394666E+01               0
GRID*               6611               01.5447761194E+03-4.329622646E+01+
*       -2.500873281E+01               0
GRID*               6612               01.5313432836E+03-3.535863142E+01+
*       -3.535204637E+01               0
GRID*               6613               01.5447761194E+03-3.535863142E+01+
*       -3.535204637E+01               0
GRID*               6614               01.5447761194E+03-2.500268502E+01+
*       -4.329971922E+01               0
GRID*               6615               01.5179104478E+032.5002685023E+01+
*       -4.329971922E+01               0
GRID*               6616               01.5044776119E+033.5358631413E+01+
*       -3.535204638E+01               0
GRID*               6617               01.5179104478E+033.5358631413E+01+
*       -3.535204638E+01               0
GRID*               6618               01.5179104478E+034.3296226438E+01+
*       -2.500873285E+01               0
GRID*               6619               01.5044776119E+034.8295488916E+01+
*       -1.294394666E+01               0
GRID*               6620               01.5179104478E+034.8295488916E+01+
*       -1.294394666E+01               0
GRID*               6621               01.5179104478E+034.9999998983E+01+
*       1.0082200971E-02               0
GRID*               6622               01.5044776119E+034.8296894005E+01+
*       1.2938702956E+01               0
GRID*               6623               01.5179104478E+034.8296894005E+01+
*       1.2938702956E+01               0
GRID*               6624               01.5179104478E+034.3305920756E+01+
*       2.4991942110E+01               0
GRID*               6625               01.5044776119E+033.5352597542E+01+
*       3.5358080346E+01               0
GRID*               6626               01.5179104478E+033.5352597542E+01+
*       3.5358080346E+01               0
GRID*               6627               01.5179104478E+032.4999326339E+01+
*       4.3301658462E+01               0
GRID*               6628               01.5044776119E+031.2953687626E+01+
*       4.8292877126E+01               0
GRID*               6629               01.5179104478E+031.2953687627E+01+
*       4.8292877125E+01               0
GRID*               6630               01.5179104478E+03-9.862409616E-15+
*       5.0000000000E+01               0
GRID*               6631               01.5044776119E+03-1.295368756E+01+
*       4.8292877147E+01               0
GRID*               6632               01.5179104478E+03-1.295368756E+01+
*       4.8292877148E+01               0
GRID*               6633               01.5179104478E+03-2.499932634E+01+
*       4.3301658463E+01               0
GRID*               6634               01.5044776119E+03-3.535259754E+01+
*       3.5358080348E+01               0
GRID*               6635               01.5179104478E+03-3.535259754E+01+
*       3.5358080348E+01               0
GRID*               6636               01.5179104478E+03-4.330592075E+01+
*       2.4991942128E+01               0
GRID*               6637               01.5044776119E+03-4.829689400E+01+
*       1.2938702959E+01               0
GRID*               6638               01.5179104478E+03-4.829689400E+01+
*       1.2938702959E+01               0
GRID*               6639               01.5179104478E+03-4.999999898E+01+
*       1.0082236946E-02               0
GRID*               6640               01.5044776119E+03-4.829548892E+01+
*       -1.294394666E+01               0
GRID*               6641               01.5179104478E+03-4.829548892E+01+
*       -1.294394666E+01               0
GRID*               6642               01.5179104478E+03-4.329622646E+01+
*       -2.500873281E+01               0
GRID*               6643               01.5044776119E+03-3.535863142E+01+
*       -3.535204637E+01               0
GRID*               6644               01.5179104478E+03-3.535863142E+01+
*       -3.535204637E+01               0
GRID*               6645               01.5179104478E+03-2.500268502E+01+
*       -4.329971922E+01               0
GRID*               6646               01.4910447761E+032.5002685023E+01+
*       -4.329971922E+01               0
GRID*               6647               01.4776119403E+033.5358631413E+01+
*       -3.535204638E+01               0
GRID*               6648               01.4910447761E+033.5358631413E+01+
*       -3.535204638E+01               0
GRID*               6649               01.4910447761E+034.3296226439E+01+
*       -2.500873285E+01               0
GRID*               6650               01.4776119403E+034.8295488916E+01+
*       -1.294394666E+01               0
GRID*               6651               01.4910447761E+034.8295488916E+01+
*       -1.294394666E+01               0
GRID*               6652               01.4910447761E+034.9999998983E+01+
*       1.0082201374E-02               0
GRID*               6653               01.4776119403E+034.8296894005E+01+
*       1.2938702956E+01               0
GRID*               6654               01.4910447761E+034.8296894005E+01+
*       1.2938702956E+01               0
GRID*               6655               01.4910447761E+034.3305920756E+01+
*       2.4991942110E+01               0
GRID*               6656               01.4776119403E+033.5352597542E+01+
*       3.5358080346E+01               0
GRID*               6657               01.4910447761E+033.5352597542E+01+
*       3.5358080346E+01               0
GRID*               6658               01.4910447761E+032.4999326339E+01+
*       4.3301658462E+01               0
GRID*               6659               01.4776119403E+031.2953687625E+01+
*       4.8292877126E+01               0
GRID*               6660               01.4910447761E+031.2953687625E+01+
*       4.8292877126E+01               0
GRID*               6661               01.4910447761E+03-1.142967760E-15+
*       5.0000000000E+01               0
GRID*               6662               01.4776119403E+03-1.295368756E+01+
*       4.8292877147E+01               0
GRID*               6663               01.4910447761E+03-1.295368756E+01+
*       4.8292877147E+01               0
GRID*               6664               01.4910447761E+03-2.499932634E+01+
*       4.3301658463E+01               0
GRID*               6665               01.4776119403E+03-3.535259754E+01+
*       3.5358080348E+01               0
GRID*               6666               01.4910447761E+03-3.535259754E+01+
*       3.5358080348E+01               0
GRID*               6667               01.4910447761E+03-4.330592075E+01+
*       2.4991942128E+01               0
GRID*               6668               01.4776119403E+03-4.829689400E+01+
*       1.2938702959E+01               0
GRID*               6669               01.4910447761E+03-4.829689400E+01+
*       1.2938702959E+01               0
GRID*               6670               01.4910447761E+03-4.999999898E+01+
*       1.0082236130E-02               0
GRID*               6671               01.4776119403E+03-4.829548892E+01+
*       -1.294394666E+01               0
GRID*               6672               01.4910447761E+03-4.829548892E+01+
*       -1.294394666E+01               0
GRID*               6673               01.4910447761E+03-4.329622646E+01+
*       -2.500873281E+01               0
GRID*               6674               01.4776119403E+03-3.535863142E+01+
*       -3.535204637E+01               0
GRID*               6675               01.4910447761E+03-3.535863142E+01+
*       -3.535204637E+01               0
GRID*               6676               01.4910447761E+03-2.500268502E+01+
*       -4.329971922E+01               0
GRID*               6677               01.4641791045E+032.5002685023E+01+
*       -4.329971922E+01               0
GRID*               6678               01.4507462687E+033.5358631413E+01+
*       -3.535204638E+01               0
GRID*               6679               01.4641791045E+033.5358631413E+01+
*       -3.535204638E+01               0
GRID*               6680               01.4641791045E+034.3296226439E+01+
*       -2.500873285E+01               0
GRID*               6681               01.4507462687E+034.8295488916E+01+
*       -1.294394666E+01               0
GRID*               6682               01.4641791045E+034.8295488916E+01+
*       -1.294394666E+01               0
GRID*               6683               01.4641791045E+034.9999998983E+01+
*       1.0082201808E-02               0
GRID*               6684               01.4507462687E+034.8296894005E+01+
*       1.2938702956E+01               0
GRID*               6685               01.4641791045E+034.8296894005E+01+
*       1.2938702956E+01               0
GRID*               6686               01.4641791045E+034.3305920755E+01+
*       2.4991942111E+01               0
GRID*               6687               01.4507462687E+033.5352597542E+01+
*       3.5358080346E+01               0
GRID*               6688               01.4641791045E+033.5352597542E+01+
*       3.5358080346E+01               0
GRID*               6689               01.4641791045E+032.4999326339E+01+
*       4.3301658462E+01               0
GRID*               6690               01.4507462687E+031.2953687623E+01+
*       4.8292877127E+01               0
GRID*               6691               01.4641791045E+031.2953687624E+01+
*       4.8292877126E+01               0
GRID*               6692               01.4641791045E+03-4.764665766E-14+
*       5.0000000000E+01               0
GRID*               6693               01.4507462687E+03-1.295368756E+01+
*       4.8292877147E+01               0
GRID*               6694               01.4641791045E+03-1.295368756E+01+
*       4.8292877147E+01               0
GRID*               6695               01.4641791045E+03-2.499932634E+01+
*       4.3301658463E+01               0
GRID*               6696               01.4507462687E+03-3.535259754E+01+
*       3.5358080348E+01               0
GRID*               6697               01.4641791045E+03-3.535259754E+01+
*       3.5358080348E+01               0
GRID*               6698               01.4641791045E+03-4.330592075E+01+
*       2.4991942127E+01               0
GRID*               6699               01.4507462687E+03-4.829689400E+01+
*       1.2938702959E+01               0
GRID*               6700               01.4641791045E+03-4.829689400E+01+
*       1.2938702959E+01               0
GRID*               6701               01.4641791045E+03-4.999999898E+01+
*       1.0082235295E-02               0
GRID*               6702               01.4507462687E+03-4.829548892E+01+
*       -1.294394666E+01               0
GRID*               6703               01.4641791045E+03-4.829548892E+01+
*       -1.294394666E+01               0
GRID*               6704               01.4641791045E+03-4.329622646E+01+
*       -2.500873281E+01               0
GRID*               6705               01.4507462687E+03-3.535863142E+01+
*       -3.535204637E+01               0
GRID*               6706               01.4641791045E+03-3.535863142E+01+
*       -3.535204637E+01               0
GRID*               6707               01.4641791045E+03-2.500268502E+01+
*       -4.329971922E+01               0
GRID*               6708               01.4373134328E+032.5002685023E+01+
*       -4.329971922E+01               0
GRID*               6709               01.4238805970E+033.5358631413E+01+
*       -3.535204638E+01               0
GRID*               6710               01.4373134328E+033.5358631413E+01+
*       -3.535204638E+01               0
GRID*               6711               01.4373134328E+034.3296226440E+01+
*       -2.500873285E+01               0
GRID*               6712               01.4238805970E+034.8295488916E+01+
*       -1.294394666E+01               0
GRID*               6713               01.4373134328E+034.8295488916E+01+
*       -1.294394666E+01               0
GRID*               6714               01.4373134328E+034.9999998983E+01+
*       1.0082202271E-02               0
GRID*               6715               01.4238805970E+034.8296894005E+01+
*       1.2938702956E+01               0
GRID*               6716               01.4373134328E+034.8296894005E+01+
*       1.2938702956E+01               0
GRID*               6717               01.4373134328E+034.3305920755E+01+
*       2.4991942111E+01               0
GRID*               6718               01.4238805970E+033.5352597542E+01+
*       3.5358080346E+01               0
GRID*               6719               01.4373134328E+033.5352597542E+01+
*       3.5358080346E+01               0
GRID*               6720               01.4373134328E+032.4999326339E+01+
*       4.3301658462E+01               0
GRID*               6721               01.4238805970E+031.2953687621E+01+
*       4.8292877127E+01               0
GRID*               6722               01.4373134328E+031.2953687622E+01+
*       4.8292877127E+01               0
GRID*               6723               01.4373134328E+03-6.653878168E-14+
*       5.0000000000E+01               0
GRID*               6724               01.4238805970E+03-1.295368756E+01+
*       4.8292877147E+01               0
GRID*               6725               01.4373134328E+03-1.295368756E+01+
*       4.8292877147E+01               0
GRID*               6726               01.4373134328E+03-2.499932634E+01+
*       4.3301658463E+01               0
GRID*               6727               01.4238805970E+03-3.535259754E+01+
*       3.5358080348E+01               0
GRID*               6728               01.4373134328E+03-3.535259754E+01+
*       3.5358080348E+01               0
GRID*               6729               01.4373134328E+03-4.330592075E+01+
*       2.4991942127E+01               0
GRID*               6730               01.4238805970E+03-4.829689400E+01+
*       1.2938702959E+01               0
GRID*               6731               01.4373134328E+03-4.829689400E+01+
*       1.2938702959E+01               0
GRID*               6732               01.4373134328E+03-4.999999898E+01+
*       1.0082234444E-02               0
GRID*               6733               01.4238805970E+03-4.829548892E+01+
*       -1.294394666E+01               0
GRID*               6734               01.4373134328E+03-4.829548892E+01+
*       -1.294394666E+01               0
GRID*               6735               01.4373134328E+03-4.329622646E+01+
*       -2.500873281E+01               0
GRID*               6736               01.4238805970E+03-3.535863142E+01+
*       -3.535204637E+01               0
GRID*               6737               01.4373134328E+03-3.535863142E+01+
*       -3.535204637E+01               0
GRID*               6738               01.4373134328E+03-2.500268502E+01+
*       -4.329971922E+01               0
GRID*               6739               01.4104477612E+032.5002685023E+01+
*       -4.329971922E+01               0
GRID*               6740               01.3970149254E+033.5358631413E+01+
*       -3.535204638E+01               0
GRID*               6741               01.4104477612E+033.5358631413E+01+
*       -3.535204638E+01               0
GRID*               6742               01.4104477612E+034.3296226440E+01+
*       -2.500873285E+01               0
GRID*               6743               01.3970149254E+034.8295488916E+01+
*       -1.294394666E+01               0
GRID*               6744               01.4104477612E+034.8295488916E+01+
*       -1.294394666E+01               0
GRID*               6745               01.4104477612E+034.9999998983E+01+
*       1.0082202764E-02               0
GRID*               6746               01.3970149254E+034.8296894005E+01+
*       1.2938702956E+01               0
GRID*               6747               01.4104477612E+034.8296894005E+01+
*       1.2938702956E+01               0
GRID*               6748               01.4104477612E+034.3305920755E+01+
*       2.4991942111E+01               0
GRID*               6749               01.3970149254E+033.5352597542E+01+
*       3.5358080346E+01               0
GRID*               6750               01.4104477612E+033.5352597542E+01+
*       3.5358080346E+01               0
GRID*               6751               01.4104477612E+032.4999326339E+01+
*       4.3301658462E+01               0
GRID*               6752               01.3970149254E+031.2953687620E+01+
*       4.8292877128E+01               0
GRID*               6753               01.4104477612E+031.2953687620E+01+
*       4.8292877127E+01               0
GRID*               6754               01.4104477612E+03-2.875453364E-14+
*       5.0000000000E+01               0
GRID*               6755               01.3970149254E+03-1.295368756E+01+
*       4.8292877146E+01               0
GRID*               6756               01.4104477612E+03-1.295368756E+01+
*       4.8292877146E+01               0
GRID*               6757               01.4104477612E+03-2.499932634E+01+
*       4.3301658463E+01               0
GRID*               6758               01.3970149254E+03-3.535259754E+01+
*       3.5358080348E+01               0
GRID*               6759               01.4104477612E+03-3.535259754E+01+
*       3.5358080348E+01               0
GRID*               6760               01.4104477612E+03-4.330592075E+01+
*       2.4991942127E+01               0
GRID*               6761               01.3970149254E+03-4.829689400E+01+
*       1.2938702959E+01               0
GRID*               6762               01.4104477612E+03-4.829689400E+01+
*       1.2938702959E+01               0
GRID*               6763               01.4104477612E+03-4.999999898E+01+
*       1.0082233578E-02               0
GRID*               6764               01.3970149254E+03-4.829548892E+01+
*       -1.294394666E+01               0
GRID*               6765               01.4104477612E+03-4.829548892E+01+
*       -1.294394666E+01               0
GRID*               6766               01.4104477612E+03-4.329622646E+01+
*       -2.500873281E+01               0
GRID*               6767               01.3970149254E+03-3.535863142E+01+
*       -3.535204637E+01               0
GRID*               6768               01.4104477612E+03-3.535863142E+01+
*       -3.535204637E+01               0
GRID*               6769               01.4104477612E+03-2.500268502E+01+
*       -4.329971922E+01               0
GRID*               6770               01.3835820896E+032.5002685023E+01+
*       -4.329971922E+01               0
GRID*               6771               01.3701492537E+033.5358631413E+01+
*       -3.535204638E+01               0
GRID*               6772               01.3835820896E+033.5358631413E+01+
*       -3.535204638E+01               0
GRID*               6773               01.3835820896E+034.3296226441E+01+
*       -2.500873285E+01               0
GRID*               6774               01.3701492537E+034.8295488916E+01+
*       -1.294394666E+01               0
GRID*               6775               01.3835820896E+034.8295488916E+01+
*       -1.294394666E+01               0
GRID*               6776               01.3835820896E+034.9999998983E+01+
*       1.0082203285E-02               0
GRID*               6777               01.3701492537E+034.8296894005E+01+
*       1.2938702956E+01               0
GRID*               6778               01.3835820896E+034.8296894005E+01+
*       1.2938702956E+01               0
GRID*               6779               01.3835820896E+034.3305920755E+01+
*       2.4991942112E+01               0
GRID*               6780               01.3701492537E+033.5352597542E+01+
*       3.5358080346E+01               0
GRID*               6781               01.3835820896E+033.5352597542E+01+
*       3.5358080346E+01               0
GRID*               6782               01.3835820896E+032.4999326339E+01+
*       4.3301658462E+01               0
GRID*               6783               01.3701492537E+031.2953687618E+01+
*       4.8292877128E+01               0
GRID*               6784               01.3835820896E+031.2953687619E+01+
*       4.8292877128E+01               0
GRID*               6785               01.3835820896E+039.0297144051E-15+
*       5.0000000000E+01               0
GRID*               6786               01.3701492537E+03-1.295368756E+01+
*       4.8292877146E+01               0
GRID*               6787               01.3835820896E+03-1.295368756E+01+
*       4.8292877146E+01               0
GRID*               6788               01.3835820896E+03-2.499932634E+01+
*       4.3301658463E+01               0
GRID*               6789               01.3701492537E+03-3.535259754E+01+
*       3.5358080348E+01               0
GRID*               6790               01.3835820896E+03-3.535259754E+01+
*       3.5358080348E+01               0
GRID*               6791               01.3835820896E+03-4.330592075E+01+
*       2.4991942127E+01               0
GRID*               6792               01.3701492537E+03-4.829689400E+01+
*       1.2938702959E+01               0
GRID*               6793               01.3835820896E+03-4.829689400E+01+
*       1.2938702959E+01               0
GRID*               6794               01.3835820896E+03-4.999999898E+01+
*       1.0082232701E-02               0
GRID*               6795               01.3701492537E+03-4.829548892E+01+
*       -1.294394666E+01               0
GRID*               6796               01.3835820896E+03-4.829548892E+01+
*       -1.294394666E+01               0
GRID*               6797               01.3835820896E+03-4.329622646E+01+
*       -2.500873281E+01               0
GRID*               6798               01.3701492537E+03-3.535863142E+01+
*       -3.535204637E+01               0
GRID*               6799               01.3835820896E+03-3.535863142E+01+
*       -3.535204637E+01               0
GRID*               6800               01.3835820896E+03-2.500268502E+01+
*       -4.329971922E+01               0
GRID*               6801               01.3567164179E+032.5002685023E+01+
*       -4.329971922E+01               0
GRID*               6802               01.3432835821E+033.5358631414E+01+
*       -3.535204638E+01               0
GRID*               6803               01.3567164179E+033.5358631414E+01+
*       -3.535204638E+01               0
GRID*               6804               01.3567164179E+034.3296226442E+01+
*       -2.500873285E+01               0
GRID*               6805               01.3432835821E+034.8295488916E+01+
*       -1.294394666E+01               0
GRID*               6806               01.3567164179E+034.8295488916E+01+
*       -1.294394666E+01               0
GRID*               6807               01.3567164179E+034.9999998983E+01+
*       1.0082203833E-02               0
GRID*               6808               01.3432835821E+034.8296894005E+01+
*       1.2938702956E+01               0
GRID*               6809               01.3567164179E+034.8296894005E+01+
*       1.2938702956E+01               0
GRID*               6810               01.3567164179E+034.3305920754E+01+
*       2.4991942112E+01               0
GRID*               6811               01.3432835821E+033.5352597542E+01+
*       3.5358080346E+01               0
GRID*               6812               01.3567164179E+033.5352597542E+01+
*       3.5358080346E+01               0
GRID*               6813               01.3567164179E+032.4999326339E+01+
*       4.3301658462E+01               0
GRID*               6814               01.3432835821E+031.2953687616E+01+
*       4.8292877129E+01               0
GRID*               6815               01.3567164179E+031.2953687617E+01+
*       4.8292877128E+01               0
GRID*               6816               01.3567164179E+031.7749156261E-14+
*       5.0000000000E+01               0
GRID*               6817               01.3432835821E+03-1.295368756E+01+
*       4.8292877146E+01               0
GRID*               6818               01.3567164179E+03-1.295368756E+01+
*       4.8292877146E+01               0
GRID*               6819               01.3567164179E+03-2.499932634E+01+
*       4.3301658463E+01               0
GRID*               6820               01.3432835821E+03-3.535259754E+01+
*       3.5358080347E+01               0
GRID*               6821               01.3567164179E+03-3.535259754E+01+
*       3.5358080347E+01               0
GRID*               6822               01.3567164179E+03-4.330592075E+01+
*       2.4991942126E+01               0
GRID*               6823               01.3432835821E+03-4.829689400E+01+
*       1.2938702959E+01               0
GRID*               6824               01.3567164179E+03-4.829689400E+01+
*       1.2938702959E+01               0
GRID*               6825               01.3567164179E+03-4.999999898E+01+
*       1.0082231813E-02               0
GRID*               6826               01.3432835821E+03-4.829548892E+01+
*       -1.294394666E+01               0
GRID*               6827               01.3567164179E+03-4.829548892E+01+
*       -1.294394666E+01               0
GRID*               6828               01.3567164179E+03-4.329622646E+01+
*       -2.500873281E+01               0
GRID*               6829               01.3432835821E+03-3.535863142E+01+
*       -3.535204637E+01               0
GRID*               6830               01.3567164179E+03-3.535863142E+01+
*       -3.535204637E+01               0
GRID*               6831               01.3567164179E+03-2.500268502E+01+
*       -4.329971922E+01               0
GRID*               6832               01.3298507463E+032.5002685023E+01+
*       -4.329971922E+01               0
GRID*               6833               01.3164179104E+033.5358631414E+01+
*       -3.535204638E+01               0
GRID*               6834               01.3298507463E+033.5358631414E+01+
*       -3.535204638E+01               0
GRID*               6835               01.3298507463E+034.3296226442E+01+
*       -2.500873284E+01               0
GRID*               6836               01.3164179104E+034.8295488916E+01+
*       -1.294394666E+01               0
GRID*               6837               01.3298507463E+034.8295488916E+01+
*       -1.294394666E+01               0
GRID*               6838               01.3298507463E+034.9999998983E+01+
*       1.0082204408E-02               0
GRID*               6839               01.3164179104E+034.8296894005E+01+
*       1.2938702956E+01               0
GRID*               6840               01.3298507463E+034.8296894005E+01+
*       1.2938702956E+01               0
GRID*               6841               01.3298507463E+034.3305920754E+01+
*       2.4991942113E+01               0
GRID*               6842               01.3164179104E+033.5352597542E+01+
*       3.5358080346E+01               0
GRID*               6843               01.3298507463E+033.5352597542E+01+
*       3.5358080346E+01               0
GRID*               6844               01.3298507463E+032.4999326339E+01+
*       4.3301658462E+01               0
GRID*               6845               01.3164179104E+031.2953687615E+01+
*       4.8292877129E+01               0
GRID*               6846               01.3298507463E+031.2953687615E+01+
*       4.8292877129E+01               0
GRID*               6847               01.3298507463E+03-1.142967760E-15+
*       5.0000000000E+01               0
GRID*               6848               01.3164179104E+03-1.295368757E+01+
*       4.8292877145E+01               0
GRID*               6849               01.3298507463E+03-1.295368757E+01+
*       4.8292877145E+01               0
GRID*               6850               01.3298507463E+03-2.499932634E+01+
*       4.3301658463E+01               0
GRID*               6851               01.3164179104E+03-3.535259754E+01+
*       3.5358080347E+01               0
GRID*               6852               01.3298507463E+03-3.535259754E+01+
*       3.5358080347E+01               0
GRID*               6853               01.3298507463E+03-4.330592075E+01+
*       2.4991942126E+01               0
GRID*               6854               01.3164179104E+03-4.829689400E+01+
*       1.2938702959E+01               0
GRID*               6855               01.3298507463E+03-4.829689400E+01+
*       1.2938702959E+01               0
GRID*               6856               01.3298507463E+03-4.999999898E+01+
*       1.0082230917E-02               0
GRID*               6857               01.3164179104E+03-4.829548892E+01+
*       -1.294394666E+01               0
GRID*               6858               01.3298507463E+03-4.829548892E+01+
*       -1.294394666E+01               0
GRID*               6859               01.3298507463E+03-4.329622646E+01+
*       -2.500873281E+01               0
GRID*               6860               01.3164179104E+03-3.535863142E+01+
*       -3.535204637E+01               0
GRID*               6861               01.3298507463E+03-3.535863142E+01+
*       -3.535204637E+01               0
GRID*               6862               01.3298507463E+03-2.500268502E+01+
*       -4.329971922E+01               0
GRID*               6863               01.3029850746E+032.5002685023E+01+
*       -4.329971922E+01               0
GRID*               6864               01.2895522388E+033.5358631414E+01+
*       -3.535204638E+01               0
GRID*               6865               01.3029850746E+033.5358631414E+01+
*       -3.535204638E+01               0
GRID*               6866               01.3029850746E+034.3296226443E+01+
*       -2.500873284E+01               0
GRID*               6867               01.2895522388E+034.8295488916E+01+
*       -1.294394666E+01               0
GRID*               6868               01.3029850746E+034.8295488916E+01+
*       -1.294394666E+01               0
GRID*               6869               01.3029850746E+034.9999998982E+01+
*       1.0082205007E-02               0
GRID*               6870               01.2895522388E+034.8296894005E+01+
*       1.2938702956E+01               0
GRID*               6871               01.3029850746E+034.8296894005E+01+
*       1.2938702956E+01               0
GRID*               6872               01.3029850746E+034.3305920754E+01+
*       2.4991942113E+01               0
GRID*               6873               01.2895522388E+033.5352597542E+01+
*       3.5358080346E+01               0
GRID*               6874               01.3029850746E+033.5352597542E+01+
*       3.5358080346E+01               0
GRID*               6875               01.3029850746E+032.4999326339E+01+
*       4.3301658462E+01               0
GRID*               6876               01.2895522388E+031.2953687613E+01+
*       4.8292877130E+01               0
GRID*               6877               01.3029850746E+031.2953687614E+01+
*       4.8292877130E+01               0
GRID*               6878               01.3029850746E+03-2.003509178E-14+
*       5.0000000000E+01               0
GRID*               6879               01.2895522388E+03-1.295368757E+01+
*       4.8292877145E+01               0
GRID*               6880               01.3029850746E+03-1.295368757E+01+
*       4.8292877145E+01               0
GRID*               6881               01.3029850746E+03-2.499932634E+01+
*       4.3301658463E+01               0
GRID*               6882               01.2895522388E+03-3.535259754E+01+
*       3.5358080347E+01               0
GRID*               6883               01.3029850746E+03-3.535259754E+01+
*       3.5358080347E+01               0
GRID*               6884               01.3029850746E+03-4.330592075E+01+
*       2.4991942126E+01               0
GRID*               6885               01.2895522388E+03-4.829689400E+01+
*       1.2938702959E+01               0
GRID*               6886               01.3029850746E+03-4.829689400E+01+
*       1.2938702959E+01               0
GRID*               6887               01.3029850746E+03-4.999999898E+01+
*       1.0082230013E-02               0
GRID*               6888               01.2895522388E+03-4.829548892E+01+
*       -1.294394666E+01               0
GRID*               6889               01.3029850746E+03-4.829548892E+01+
*       -1.294394666E+01               0
GRID*               6890               01.3029850746E+03-4.329622646E+01+
*       -2.500873282E+01               0
GRID*               6891               01.2895522388E+03-3.535863142E+01+
*       -3.535204637E+01               0
GRID*               6892               01.3029850746E+03-3.535863142E+01+
*       -3.535204637E+01               0
GRID*               6893               01.3029850746E+03-2.500268502E+01+
*       -4.329971922E+01               0
GRID*               6894               01.2761194030E+032.5002685023E+01+
*       -4.329971922E+01               0
GRID*               6895               01.2626865672E+033.5358631414E+01+
*       -3.535204638E+01               0
GRID*               6896               01.2761194030E+033.5358631414E+01+
*       -3.535204638E+01               0
GRID*               6897               01.2761194030E+034.3296226444E+01+
*       -2.500873284E+01               0
GRID*               6898               01.2626865672E+034.8295488916E+01+
*       -1.294394666E+01               0
GRID*               6899               01.2761194030E+034.8295488916E+01+
*       -1.294394666E+01               0
GRID*               6900               01.2761194030E+034.9999998982E+01+
*       1.0082205631E-02               0
GRID*               6901               01.2626865672E+034.8296894005E+01+
*       1.2938702956E+01               0
GRID*               6902               01.2761194030E+034.8296894005E+01+
*       1.2938702956E+01               0
GRID*               6903               01.2761194030E+034.3305920754E+01+
*       2.4991942114E+01               0
GRID*               6904               01.2626865672E+033.5352597542E+01+
*       3.5358080346E+01               0
GRID*               6905               01.2761194030E+033.5352597542E+01+
*       3.5358080346E+01               0
GRID*               6906               01.2761194030E+032.4999326339E+01+
*       4.3301658462E+01               0
GRID*               6907               01.2626865672E+031.2953687611E+01+
*       4.8292877130E+01               0
GRID*               6908               01.2761194030E+031.2953687612E+01+
*       4.8292877130E+01               0
GRID*               6909               01.2761194030E+03-4.038045611E-14+
*       5.0000000000E+01               0
GRID*               6910               01.2626865672E+03-1.295368757E+01+
*       4.8292877144E+01               0
GRID*               6911               01.2761194030E+03-1.295368757E+01+
*       4.8292877145E+01               0
GRID*               6912               01.2761194030E+03-2.499932634E+01+
*       4.3301658463E+01               0
GRID*               6913               01.2626865672E+03-3.535259754E+01+
*       3.5358080347E+01               0
GRID*               6914               01.2761194030E+03-3.535259754E+01+
*       3.5358080347E+01               0
GRID*               6915               01.2761194030E+03-4.330592075E+01+
*       2.4991942125E+01               0
GRID*               6916               01.2626865672E+03-4.829689400E+01+
*       1.2938702959E+01               0
GRID*               6917               01.2761194030E+03-4.829689400E+01+
*       1.2938702959E+01               0
GRID*               6918               01.2761194030E+03-4.999999898E+01+
*       1.0082229104E-02               0
GRID*               6919               01.2626865672E+03-4.829548892E+01+
*       -1.294394666E+01               0
GRID*               6920               01.2761194030E+03-4.829548892E+01+
*       -1.294394666E+01               0
GRID*               6921               01.2761194030E+03-4.329622646E+01+
*       -2.500873282E+01               0
GRID*               6922               01.2626865672E+03-3.535863142E+01+
*       -3.535204637E+01               0
GRID*               6923               01.2761194030E+03-3.535863142E+01+
*       -3.535204637E+01               0
GRID*               6924               01.2761194030E+03-2.500268502E+01+
*       -4.329971922E+01               0
GRID*               6925               01.2492537313E+032.5002685023E+01+
*       -4.329971922E+01               0
GRID*               6926               01.2358208955E+033.5358631414E+01+
*       -3.535204638E+01               0
GRID*               6927               01.2492537313E+033.5358631414E+01+
*       -3.535204638E+01               0
GRID*               6928               01.2492537313E+034.3296226444E+01+
*       -2.500873284E+01               0
GRID*               6929               01.2358208955E+034.8295488916E+01+
*       -1.294394666E+01               0
GRID*               6930               01.2492537313E+034.8295488916E+01+
*       -1.294394666E+01               0
GRID*               6931               01.2492537313E+034.9999998982E+01+
*       1.0082206279E-02               0
GRID*               6932               01.2358208955E+034.8296894005E+01+
*       1.2938702956E+01               0
GRID*               6933               01.2492537313E+034.8296894005E+01+
*       1.2938702956E+01               0
GRID*               6934               01.2492537313E+034.3305920753E+01+
*       2.4991942114E+01               0
GRID*               6935               01.2358208955E+033.5352597542E+01+
*       3.5358080346E+01               0
GRID*               6936               01.2492537313E+033.5352597542E+01+
*       3.5358080346E+01               0
GRID*               6937               01.2492537313E+032.4999326339E+01+
*       4.3301658462E+01               0
GRID*               6938               01.2358208955E+031.2953687609E+01+
*       4.8292877131E+01               0
GRID*               6939               01.2492537313E+031.2953687610E+01+
*       4.8292877131E+01               0
GRID*               6940               01.2492537313E+03-1.142967760E-15+
*       5.0000000000E+01               0
GRID*               6941               01.2358208955E+03-1.295368757E+01+
*       4.8292877144E+01               0
GRID*               6942               01.2492537313E+03-1.295368757E+01+
*       4.8292877144E+01               0
GRID*               6943               01.2492537313E+03-2.499932634E+01+
*       4.3301658463E+01               0
GRID*               6944               01.2358208955E+03-3.535259754E+01+
*       3.5358080347E+01               0
GRID*               6945               01.2492537313E+03-3.535259754E+01+
*       3.5358080347E+01               0
GRID*               6946               01.2492537313E+03-4.330592075E+01+
*       2.4991942125E+01               0
GRID*               6947               01.2358208955E+03-4.829689400E+01+
*       1.2938702958E+01               0
GRID*               6948               01.2492537313E+03-4.829689400E+01+
*       1.2938702959E+01               0
GRID*               6949               01.2492537313E+03-4.999999898E+01+
*       1.0082228190E-02               0
GRID*               6950               01.2358208955E+03-4.829548892E+01+
*       -1.294394666E+01               0
GRID*               6951               01.2492537313E+03-4.829548892E+01+
*       -1.294394666E+01               0
GRID*               6952               01.2492537313E+03-4.329622646E+01+
*       -2.500873282E+01               0
GRID*               6953               01.2358208955E+03-3.535863142E+01+
*       -3.535204637E+01               0
GRID*               6954               01.2492537313E+03-3.535863142E+01+
*       -3.535204637E+01               0
GRID*               6955               01.2492537313E+03-2.500268502E+01+
*       -4.329971922E+01               0
GRID*               6956               01.2223880597E+032.5002685023E+01+
*       -4.329971922E+01               0
GRID*               6957               01.2089552239E+033.5358631414E+01+
*       -3.535204638E+01               0
GRID*               6958               01.2223880597E+033.5358631414E+01+
*       -3.535204638E+01               0
GRID*               6959               01.2223880597E+034.3296226445E+01+
*       -2.500873284E+01               0
GRID*               6960               01.2089552239E+034.8295488916E+01+
*       -1.294394666E+01               0
GRID*               6961               01.2223880597E+034.8295488916E+01+
*       -1.294394666E+01               0
GRID*               6962               01.2223880597E+034.9999998982E+01+
*       1.0082206949E-02               0
GRID*               6963               01.2089552239E+034.8296894005E+01+
*       1.2938702957E+01               0
GRID*               6964               01.2223880597E+034.8296894005E+01+
*       1.2938702957E+01               0
GRID*               6965               01.2223880597E+034.3305920753E+01+
*       2.4991942115E+01               0
GRID*               6966               01.2089552239E+033.5352597542E+01+
*       3.5358080346E+01               0
GRID*               6967               01.2223880597E+033.5352597542E+01+
*       3.5358080346E+01               0
GRID*               6968               01.2223880597E+032.4999326339E+01+
*       4.3301658462E+01               0
GRID*               6969               01.2089552239E+031.2953687608E+01+
*       4.8292877132E+01               0
GRID*               6970               01.2223880597E+031.2953687609E+01+
*       4.8292877131E+01               0
GRID*               6971               01.2223880597E+03-2.148833209E-14+
*       5.0000000000E+01               0
GRID*               6972               01.2089552239E+03-1.295368757E+01+
*       4.8292877144E+01               0
GRID*               6973               01.2223880597E+03-1.295368757E+01+
*       4.8292877144E+01               0
GRID*               6974               01.2223880597E+03-2.499932634E+01+
*       4.3301658463E+01               0
GRID*               6975               01.2089552239E+03-3.535259754E+01+
*       3.5358080347E+01               0
GRID*               6976               01.2223880597E+03-3.535259754E+01+
*       3.5358080347E+01               0
GRID*               6977               01.2223880597E+03-4.330592075E+01+
*       2.4991942125E+01               0
GRID*               6978               01.2089552239E+03-4.829689400E+01+
*       1.2938702958E+01               0
GRID*               6979               01.2223880597E+03-4.829689400E+01+
*       1.2938702958E+01               0
GRID*               6980               01.2223880597E+03-4.999999898E+01+
*       1.0082227273E-02               0
GRID*               6981               01.2089552239E+03-4.829548892E+01+
*       -1.294394666E+01               0
GRID*               6982               01.2223880597E+03-4.829548892E+01+
*       -1.294394666E+01               0
GRID*               6983               01.2223880597E+03-4.329622646E+01+
*       -2.500873282E+01               0
GRID*               6984               01.2089552239E+03-3.535863142E+01+
*       -3.535204637E+01               0
GRID*               6985               01.2223880597E+03-3.535863142E+01+
*       -3.535204637E+01               0
GRID*               6986               01.2223880597E+03-2.500268502E+01+
*       -4.329971922E+01               0
GRID*               6987               01.1955223881E+032.5002685023E+01+
*       -4.329971922E+01               0
GRID*               6988               01.1820895522E+033.5358631414E+01+
*       -3.535204638E+01               0
GRID*               6989               01.1955223881E+033.5358631414E+01+
*       -3.535204638E+01               0
GRID*               6990               01.1955223881E+034.3296226446E+01+
*       -2.500873284E+01               0
GRID*               6991               01.1820895522E+034.8295488916E+01+
*       -1.294394666E+01               0
GRID*               6992               01.1955223881E+034.8295488916E+01+
*       -1.294394666E+01               0
GRID*               6993               01.1955223881E+034.9999998982E+01+
*       1.0082207640E-02               0
GRID*               6994               01.1820895522E+034.8296894005E+01+
*       1.2938702957E+01               0
GRID*               6995               01.1955223881E+034.8296894005E+01+
*       1.2938702957E+01               0
GRID*               6996               01.1955223881E+034.3305920753E+01+
*       2.4991942115E+01               0
GRID*               6997               01.1820895522E+033.5352597542E+01+
*       3.5358080346E+01               0
GRID*               6998               01.1955223881E+033.5352597542E+01+
*       3.5358080346E+01               0
GRID*               6999               01.1955223881E+032.4999326339E+01+
*       4.3301658462E+01               0
GRID*               7000               01.1820895522E+031.2953687606E+01+
*       4.8292877132E+01               0
GRID*               7001               01.1955223881E+031.2953687607E+01+
*       4.8292877132E+01               0
GRID*               7002               01.1955223881E+03-1.131564993E-14+
*       5.0000000000E+01               0
GRID*               7003               01.1820895522E+03-1.295368757E+01+
*       4.8292877143E+01               0
GRID*               7004               01.1955223881E+03-1.295368757E+01+
*       4.8292877143E+01               0
GRID*               7005               01.1955223881E+03-2.499932634E+01+
*       4.3301658463E+01               0
GRID*               7006               01.1820895522E+03-3.535259754E+01+
*       3.5358080347E+01               0
GRID*               7007               01.1955223881E+03-3.535259754E+01+
*       3.5358080347E+01               0
GRID*               7008               01.1955223881E+03-4.330592075E+01+
*       2.4991942124E+01               0
GRID*               7009               01.1820895522E+03-4.829689400E+01+
*       1.2938702958E+01               0
GRID*               7010               01.1955223881E+03-4.829689400E+01+
*       1.2938702958E+01               0
GRID*               7011               01.1955223881E+03-4.999999898E+01+
*       1.0082226353E-02               0
GRID*               7012               01.1820895522E+03-4.829548892E+01+
*       -1.294394666E+01               0
GRID*               7013               01.1955223881E+03-4.829548892E+01+
*       -1.294394666E+01               0
GRID*               7014               01.1955223881E+03-4.329622646E+01+
*       -2.500873282E+01               0
GRID*               7015               01.1820895522E+03-3.535863142E+01+
*       -3.535204637E+01               0
GRID*               7016               01.1955223881E+03-3.535863142E+01+
*       -3.535204637E+01               0
GRID*               7017               01.1955223881E+03-2.500268502E+01+
*       -4.329971922E+01               0
GRID*               7018               01.1686567164E+032.5002685023E+01+
*       -4.329971922E+01               0
GRID*               7019               01.1552238806E+033.5358631415E+01+
*       -3.535204638E+01               0
GRID*               7020               01.1686567164E+033.5358631414E+01+
*       -3.535204638E+01               0
GRID*               7021               01.1686567164E+034.3296226447E+01+
*       -2.500873284E+01               0
GRID*               7022               01.1552238806E+034.8295488916E+01+
*       -1.294394666E+01               0
GRID*               7023               01.1686567164E+034.8295488916E+01+
*       -1.294394666E+01               0
GRID*               7024               01.1686567164E+034.9999998982E+01+
*       1.0082208352E-02               0
GRID*               7025               01.1552238806E+034.8296894005E+01+
*       1.2938702957E+01               0
GRID*               7026               01.1686567164E+034.8296894005E+01+
*       1.2938702957E+01               0
GRID*               7027               01.1686567164E+034.3305920753E+01+
*       2.4991942116E+01               0
GRID*               7028               01.1552238806E+033.5352597542E+01+
*       3.5358080346E+01               0
GRID*               7029               01.1686567164E+033.5352597542E+01+
*       3.5358080346E+01               0
GRID*               7030               01.1686567164E+032.4999326339E+01+
*       4.3301658462E+01               0
GRID*               7031               01.1552238806E+031.2953687604E+01+
*       4.8292877133E+01               0
GRID*               7032               01.1686567164E+031.2953687605E+01+
*       4.8292877132E+01               0
GRID*               7033               01.1686567164E+03-2.596208069E-15+
*       5.0000000000E+01               0
GRID*               7034               01.1552238806E+03-1.295368757E+01+
*       4.8292877143E+01               0
GRID*               7035               01.1686567164E+03-1.295368757E+01+
*       4.8292877143E+01               0
GRID*               7036               01.1686567164E+03-2.499932634E+01+
*       4.3301658463E+01               0
GRID*               7037               01.1552238806E+03-3.535259754E+01+
*       3.5358080347E+01               0
GRID*               7038               01.1686567164E+03-3.535259754E+01+
*       3.5358080347E+01               0
GRID*               7039               01.1686567164E+03-4.330592075E+01+
*       2.4991942124E+01               0
GRID*               7040               01.1552238806E+03-4.829689400E+01+
*       1.2938702958E+01               0
GRID*               7041               01.1686567164E+03-4.829689400E+01+
*       1.2938702958E+01               0
GRID*               7042               01.1686567164E+03-4.999999898E+01+
*       1.0082225433E-02               0
GRID*               7043               01.1552238806E+03-4.829548892E+01+
*       -1.294394666E+01               0
GRID*               7044               01.1686567164E+03-4.829548892E+01+
*       -1.294394666E+01               0
GRID*               7045               01.1686567164E+03-4.329622646E+01+
*       -2.500873282E+01               0
GRID*               7046               01.1552238806E+03-3.535863142E+01+
*       -3.535204637E+01               0
GRID*               7047               01.1686567164E+03-3.535863142E+01+
*       -3.535204637E+01               0
GRID*               7048               01.1686567164E+03-2.500268502E+01+
*       -4.329971922E+01               0
GRID*               7049               01.1417910448E+032.5002685023E+01+
*       -4.329971922E+01               0
GRID*               7050               01.1283582090E+033.5358631415E+01+
*       -3.535204638E+01               0
GRID*               7051               01.1417910448E+033.5358631415E+01+
*       -3.535204638E+01               0
GRID*               7052               01.1417910448E+034.3296226447E+01+
*       -2.500873284E+01               0
GRID*               7053               01.1283582090E+034.8295488916E+01+
*       -1.294394666E+01               0
GRID*               7054               01.1417910448E+034.8295488916E+01+
*       -1.294394666E+01               0
GRID*               7055               01.1417910448E+034.9999998982E+01+
*       1.0082209084E-02               0
GRID*               7056               01.1283582090E+034.8296894005E+01+
*       1.2938702957E+01               0
GRID*               7057               01.1417910448E+034.8296894005E+01+
*       1.2938702957E+01               0
GRID*               7058               01.1417910448E+034.3305920752E+01+
*       2.4991942116E+01               0
GRID*               7059               01.1283582090E+033.5352597542E+01+
*       3.5358080346E+01               0
GRID*               7060               01.1417910448E+033.5352597542E+01+
*       3.5358080346E+01               0
GRID*               7061               01.1417910448E+032.4999326339E+01+
*       4.3301658462E+01               0
GRID*               7062               01.1283582090E+031.2953687602E+01+
*       4.8292877133E+01               0
GRID*               7063               01.1417910448E+031.2953687603E+01+
*       4.8292877133E+01               0
GRID*               7064               01.1417910448E+03-2.003509178E-14+
*       5.0000000000E+01               0
GRID*               7065               01.1283582090E+03-1.295368757E+01+
*       4.8292877142E+01               0
GRID*               7066               01.1417910448E+03-1.295368757E+01+
*       4.8292877143E+01               0
GRID*               7067               01.1417910448E+03-2.499932634E+01+
*       4.3301658463E+01               0
GRID*               7068               01.1283582090E+03-3.535259754E+01+
*       3.5358080347E+01               0
GRID*               7069               01.1417910448E+03-3.535259754E+01+
*       3.5358080347E+01               0
GRID*               7070               01.1417910448E+03-4.330592075E+01+
*       2.4991942124E+01               0
GRID*               7071               01.1283582090E+03-4.829689400E+01+
*       1.2938702958E+01               0
GRID*               7072               01.1417910448E+03-4.829689400E+01+
*       1.2938702958E+01               0
GRID*               7073               01.1417910448E+03-4.999999898E+01+
*       1.0082224512E-02               0
GRID*               7074               01.1283582090E+03-4.829548892E+01+
*       -1.294394666E+01               0
GRID*               7075               01.1417910448E+03-4.829548892E+01+
*       -1.294394666E+01               0
GRID*               7076               01.1417910448E+03-4.329622646E+01+
*       -2.500873282E+01               0
GRID*               7077               01.1283582090E+03-3.535863142E+01+
*       -3.535204637E+01               0
GRID*               7078               01.1417910448E+03-3.535863142E+01+
*       -3.535204637E+01               0
GRID*               7079               01.1417910448E+03-2.500268502E+01+
*       -4.329971922E+01               0
GRID*               7080               01.1149253731E+032.5002685023E+01+
*       -4.329971922E+01               0
GRID*               7081               01.1014925373E+033.5358631415E+01+
*       -3.535204638E+01               0
GRID*               7082               01.1149253731E+033.5358631415E+01+
*       -3.535204638E+01               0
GRID*               7083               01.1149253731E+034.3296226448E+01+
*       -2.500873284E+01               0
GRID*               7084               01.1014925373E+034.8295488916E+01+
*       -1.294394666E+01               0
GRID*               7085               01.1149253731E+034.8295488916E+01+
*       -1.294394666E+01               0
GRID*               7086               01.1149253731E+034.9999998982E+01+
*       1.0082209834E-02               0
GRID*               7087               01.1014925373E+034.8296894005E+01+
*       1.2938702957E+01               0
GRID*               7088               01.1149253731E+034.8296894005E+01+
*       1.2938702957E+01               0
GRID*               7089               01.1149253731E+034.3305920752E+01+
*       2.4991942116E+01               0
GRID*               7090               01.1014925373E+033.5352597542E+01+
*       3.5358080346E+01               0
GRID*               7091               01.1149253731E+033.5352597542E+01+
*       3.5358080346E+01               0
GRID*               7092               01.1149253731E+032.4999326339E+01+
*       4.3301658462E+01               0
GRID*               7093               01.1014925373E+031.2953687601E+01+
*       4.8292877134E+01               0
GRID*               7094               01.1149253731E+031.2953687602E+01+
*       4.8292877134E+01               0
GRID*               7095               01.1149253731E+03-1.276889023E-14+
*       5.0000000000E+01               0
GRID*               7096               01.1014925373E+03-1.295368758E+01+
*       4.8292877142E+01               0
GRID*               7097               01.1149253731E+03-1.295368758E+01+
*       4.8292877142E+01               0
GRID*               7098               01.1149253731E+03-2.499932634E+01+
*       4.3301658463E+01               0
GRID*               7099               01.1014925373E+03-3.535259754E+01+
*       3.5358080347E+01               0
GRID*               7100               01.1149253731E+03-3.535259754E+01+
*       3.5358080347E+01               0
GRID*               7101               01.1149253731E+03-4.330592075E+01+
*       2.4991942123E+01               0
GRID*               7102               01.1014925373E+03-4.829689400E+01+
*       1.2938702958E+01               0
GRID*               7103               01.1149253731E+03-4.829689400E+01+
*       1.2938702958E+01               0
GRID*               7104               01.1149253731E+03-4.999999898E+01+
*       1.0082223592E-02               0
GRID*               7105               01.1014925373E+03-4.829548892E+01+
*       -1.294394666E+01               0
GRID*               7106               01.1149253731E+03-4.829548892E+01+
*       -1.294394666E+01               0
GRID*               7107               01.1149253731E+03-4.329622646E+01+
*       -2.500873282E+01               0
GRID*               7108               01.1014925373E+03-3.535863142E+01+
*       -3.535204638E+01               0
GRID*               7109               01.1149253731E+03-3.535863142E+01+
*       -3.535204637E+01               0
GRID*               7110               01.1149253731E+03-2.500268502E+01+
*       -4.329971922E+01               0
GRID*               7111               01.0880597015E+032.5002685023E+01+
*       -4.329971922E+01               0
GRID*               7112               01.0746268657E+033.5358631415E+01+
*       -3.535204638E+01               0
GRID*               7113               01.0880597015E+033.5358631415E+01+
*       -3.535204638E+01               0
GRID*               7114               01.0880597015E+034.3296226449E+01+
*       -2.500873283E+01               0
GRID*               7115               01.0746268657E+034.8295488916E+01+
*       -1.294394666E+01               0
GRID*               7116               01.0880597015E+034.8295488916E+01+
*       -1.294394666E+01               0
GRID*               7117               01.0880597015E+034.9999998982E+01+
*       1.0082210602E-02               0
GRID*               7118               01.0746268657E+034.8296894005E+01+
*       1.2938702957E+01               0
GRID*               7119               01.0880597015E+034.8296894005E+01+
*       1.2938702957E+01               0
GRID*               7120               01.0880597015E+034.3305920752E+01+
*       2.4991942117E+01               0
GRID*               7121               01.0746268657E+033.5352597542E+01+
*       3.5358080346E+01               0
GRID*               7122               01.0880597015E+033.5352597542E+01+
*       3.5358080346E+01               0
GRID*               7123               01.0880597015E+032.4999326339E+01+
*       4.3301658462E+01               0
GRID*               7124               01.0746268657E+031.2953687599E+01+
*       4.8292877134E+01               0
GRID*               7125               01.0880597015E+031.2953687600E+01+
*       4.8292877134E+01               0
GRID*               7126               01.0880597015E+03-2.596208069E-15+
*       5.0000000000E+01               0
GRID*               7127               01.0746268657E+03-1.295368758E+01+
*       4.8292877141E+01               0
GRID*               7128               01.0880597015E+03-1.295368758E+01+
*       4.8292877142E+01               0
GRID*               7129               01.0880597015E+03-2.499932634E+01+
*       4.3301658463E+01               0
GRID*               7130               01.0746268657E+03-3.535259754E+01+
*       3.5358080347E+01               0
GRID*               7131               01.0880597015E+03-3.535259754E+01+
*       3.5358080347E+01               0
GRID*               7132               01.0880597015E+03-4.330592075E+01+
*       2.4991942123E+01               0
GRID*               7133               01.0746268657E+03-4.829689400E+01+
*       1.2938702958E+01               0
GRID*               7134               01.0880597015E+03-4.829689400E+01+
*       1.2938702958E+01               0
GRID*               7135               01.0880597015E+03-4.999999898E+01+
*       1.0082222674E-02               0
GRID*               7136               01.0746268657E+03-4.829548892E+01+
*       -1.294394666E+01               0
GRID*               7137               01.0880597015E+03-4.829548892E+01+
*       -1.294394666E+01               0
GRID*               7138               01.0880597015E+03-4.329622646E+01+
*       -2.500873282E+01               0
GRID*               7139               01.0746268657E+03-3.535863142E+01+
*       -3.535204638E+01               0
GRID*               7140               01.0880597015E+03-3.535863142E+01+
*       -3.535204638E+01               0
GRID*               7141               01.0880597015E+03-2.500268502E+01+
*       -4.329971922E+01               0
GRID*               7142               01.0611940299E+032.5002685023E+01+
*       -4.329971922E+01               0
GRID*               7143               01.0477611940E+033.5358631415E+01+
*       -3.535204638E+01               0
GRID*               7144               01.0611940299E+033.5358631415E+01+
*       -3.535204638E+01               0
GRID*               7145               01.0611940299E+034.3296226449E+01+
*       -2.500873283E+01               0
GRID*               7146               01.0477611940E+034.8295488916E+01+
*       -1.294394666E+01               0
GRID*               7147               01.0611940299E+034.8295488916E+01+
*       -1.294394666E+01               0
GRID*               7148               01.0611940299E+034.9999998982E+01+
*       1.0082211386E-02               0
GRID*               7149               01.0477611940E+034.8296894005E+01+
*       1.2938702957E+01               0
GRID*               7150               01.0611940299E+034.8296894005E+01+
*       1.2938702957E+01               0
GRID*               7151               01.0611940299E+034.3305920752E+01+
*       2.4991942117E+01               0
GRID*               7152               01.0477611940E+033.5352597542E+01+
*       3.5358080346E+01               0
GRID*               7153               01.0611940299E+033.5352597542E+01+
*       3.5358080346E+01               0
GRID*               7154               01.0611940299E+032.4999326339E+01+
*       4.3301658462E+01               0
GRID*               7155               01.0477611940E+031.2953687597E+01+
*       4.8292877135E+01               0
GRID*               7156               01.0611940299E+031.2953687598E+01+
*       4.8292877135E+01               0
GRID*               7157               01.0611940299E+03-2.148833209E-14+
*       5.0000000000E+01               0
GRID*               7158               01.0477611940E+03-1.295368758E+01+
*       4.8292877141E+01               0
GRID*               7159               01.0611940299E+03-1.295368758E+01+
*       4.8292877141E+01               0
GRID*               7160               01.0611940299E+03-2.499932634E+01+
*       4.3301658463E+01               0
GRID*               7161               01.0477611940E+03-3.535259754E+01+
*       3.5358080347E+01               0
GRID*               7162               01.0611940299E+03-3.535259754E+01+
*       3.5358080347E+01               0
GRID*               7163               01.0611940299E+03-4.330592075E+01+
*       2.4991942123E+01               0
GRID*               7164               01.0477611940E+03-4.829689400E+01+
*       1.2938702958E+01               0
GRID*               7165               01.0611940299E+03-4.829689400E+01+
*       1.2938702958E+01               0
GRID*               7166               01.0611940299E+03-4.999999898E+01+
*       1.0082221760E-02               0
GRID*               7167               01.0477611940E+03-4.829548892E+01+
*       -1.294394666E+01               0
GRID*               7168               01.0611940299E+03-4.829548892E+01+
*       -1.294394666E+01               0
GRID*               7169               01.0611940299E+03-4.329622646E+01+
*       -2.500873282E+01               0
GRID*               7170               01.0477611940E+03-3.535863142E+01+
*       -3.535204638E+01               0
GRID*               7171               01.0611940299E+03-3.535863142E+01+
*       -3.535204638E+01               0
GRID*               7172               01.0611940299E+03-2.500268502E+01+
*       -4.329971922E+01               0
GRID*               7173               01.0343283582E+032.5002685023E+01+
*       -4.329971922E+01               0
GRID*               7174               01.0208955224E+033.5358631415E+01+
*       -3.535204638E+01               0
GRID*               7175               01.0343283582E+033.5358631415E+01+
*       -3.535204638E+01               0
GRID*               7176               01.0343283582E+034.3296226450E+01+
*       -2.500873283E+01               0
GRID*               7177               01.0208955224E+034.8295488916E+01+
*       -1.294394666E+01               0
GRID*               7178               01.0343283582E+034.8295488916E+01+
*       -1.294394666E+01               0
GRID*               7179               01.0343283582E+034.9999998982E+01+
*       1.0082212187E-02               0
GRID*               7180               01.0208955224E+034.8296894005E+01+
*       1.2938702957E+01               0
GRID*               7181               01.0343283582E+034.8296894005E+01+
*       1.2938702957E+01               0
GRID*               7182               01.0343283582E+034.3305920751E+01+
*       2.4991942118E+01               0
GRID*               7183               01.0208955224E+033.5352597541E+01+
*       3.5358080347E+01               0
GRID*               7184               01.0343283582E+033.5352597542E+01+
*       3.5358080346E+01               0
GRID*               7185               01.0343283582E+032.4999326339E+01+
*       4.3301658462E+01               0
GRID*               7186               01.0208955224E+031.2953687595E+01+
*       4.8292877136E+01               0
GRID*               7187               01.0343283582E+031.2953687596E+01+
*       4.8292877135E+01               0
GRID*               7188               01.0343283582E+03-1.131564993E-14+
*       5.0000000000E+01               0
GRID*               7189               01.0208955224E+03-1.295368758E+01+
*       4.8292877140E+01               0
GRID*               7190               01.0343283582E+03-1.295368758E+01+
*       4.8292877141E+01               0
GRID*               7191               01.0343283582E+03-2.499932634E+01+
*       4.3301658463E+01               0
GRID*               7192               01.0208955224E+03-3.535259754E+01+
*       3.5358080347E+01               0
GRID*               7193               01.0343283582E+03-3.535259754E+01+
*       3.5358080347E+01               0
GRID*               7194               01.0343283582E+03-4.330592075E+01+
*       2.4991942122E+01               0
GRID*               7195               01.0208955224E+03-4.829689400E+01+
*       1.2938702958E+01               0
GRID*               7196               01.0343283582E+03-4.829689400E+01+
*       1.2938702958E+01               0
GRID*               7197               01.0343283582E+03-4.999999898E+01+
*       1.0082220849E-02               0
GRID*               7198               01.0208955224E+03-4.829548892E+01+
*       -1.294394666E+01               0
GRID*               7199               01.0343283582E+03-4.829548892E+01+
*       -1.294394666E+01               0
GRID*               7200               01.0343283582E+03-4.329622646E+01+
*       -2.500873282E+01               0
GRID*               7201               01.0208955224E+03-3.535863142E+01+
*       -3.535204638E+01               0
GRID*               7202               01.0343283582E+03-3.535863142E+01+
*       -3.535204638E+01               0
GRID*               7203               01.0343283582E+03-2.500268502E+01+
*       -4.329971922E+01               0
GRID*               7204               01.0074626866E+032.5002685023E+01+
*       -4.329971922E+01               0
GRID*               7205               09.9402985075E+023.5358631416E+01+
*       -3.535204638E+01               0
GRID*               7206               01.0074626866E+033.5358631415E+01+
*       -3.535204638E+01               0
GRID*               7207               01.0074626866E+034.3296226451E+01+
*       -2.500873283E+01               0
GRID*               7208               09.9402985075E+024.8295488916E+01+
*       -1.294394666E+01               0
GRID*               7209               01.0074626866E+034.8295488916E+01+
*       -1.294394666E+01               0
GRID*               7210               01.0074626866E+034.9999998982E+01+
*       1.0082213002E-02               0
GRID*               7211               09.9402985075E+024.8296894005E+01+
*       1.2938702957E+01               0
GRID*               7212               01.0074626866E+034.8296894005E+01+
*       1.2938702957E+01               0
GRID*               7213               01.0074626866E+034.3305920751E+01+
*       2.4991942118E+01               0
GRID*               7214               09.9402985075E+023.5352597541E+01+
*       3.5358080347E+01               0
GRID*               7215               01.0074626866E+033.5352597541E+01+
*       3.5358080347E+01               0
GRID*               7216               01.0074626866E+032.4999326339E+01+
*       4.3301658462E+01               0
GRID*               7217               09.9402985075E+021.2953687594E+01+
*       4.8292877136E+01               0
GRID*               7218               01.0074626866E+031.2953687595E+01+
*       4.8292877136E+01               0
GRID*               7219               01.0074626866E+03-2.596208069E-15+
*       5.0000000000E+01               0
GRID*               7220               09.9402985075E+02-1.295368758E+01+
*       4.8292877140E+01               0
GRID*               7221               01.0074626866E+03-1.295368758E+01+
*       4.8292877140E+01               0
GRID*               7222               01.0074626866E+03-2.499932634E+01+
*       4.3301658463E+01               0
GRID*               7223               09.9402985075E+02-3.535259754E+01+
*       3.5358080347E+01               0
GRID*               7224               01.0074626866E+03-3.535259754E+01+
*       3.5358080347E+01               0
GRID*               7225               01.0074626866E+03-4.330592075E+01+
*       2.4991942122E+01               0
GRID*               7226               09.9402985075E+02-4.829689400E+01+
*       1.2938702958E+01               0
GRID*               7227               01.0074626866E+03-4.829689400E+01+
*       1.2938702958E+01               0
GRID*               7228               01.0074626866E+03-4.999999898E+01+
*       1.0082219944E-02               0
GRID*               7229               09.9402985075E+02-4.829548892E+01+
*       -1.294394666E+01               0
GRID*               7230               01.0074626866E+03-4.829548892E+01+
*       -1.294394666E+01               0
GRID*               7231               01.0074626866E+03-4.329622646E+01+
*       -2.500873282E+01               0
GRID*               7232               09.9402985075E+02-3.535863142E+01+
*       -3.535204638E+01               0
GRID*               7233               01.0074626866E+03-3.535863142E+01+
*       -3.535204638E+01               0
GRID*               7234               01.0074626866E+03-2.500268502E+01+
*       -4.329971922E+01               0
GRID*               7235               09.8059701493E+022.5002685023E+01+
*       -4.329971922E+01               0
GRID*               7236               09.6716417910E+023.5358631416E+01+
*       -3.535204638E+01               0
GRID*               7237               09.8059701493E+023.5358631416E+01+
*       -3.535204638E+01               0
GRID*               7238               09.8059701493E+024.3296226451E+01+
*       -2.500873283E+01               0
GRID*               7239               09.6716417910E+024.8295488916E+01+
*       -1.294394666E+01               0
GRID*               7240               09.8059701493E+024.8295488916E+01+
*       -1.294394666E+01               0
GRID*               7241               09.8059701493E+024.9999998982E+01+
*       1.0082213832E-02               0
GRID*               7242               09.6716417910E+024.8296894005E+01+
*       1.2938702957E+01               0
GRID*               7243               09.8059701493E+024.8296894005E+01+
*       1.2938702957E+01               0
GRID*               7244               09.8059701493E+024.3305920751E+01+
*       2.4991942119E+01               0
GRID*               7245               09.6716417910E+023.5352597541E+01+
*       3.5358080347E+01               0
GRID*               7246               09.8059701493E+023.5352597541E+01+
*       3.5358080347E+01               0
GRID*               7247               09.8059701493E+022.4999326339E+01+
*       4.3301658463E+01               0
GRID*               7248               09.6716417910E+021.2953687592E+01+
*       4.8292877137E+01               0
GRID*               7249               09.8059701493E+021.2953687593E+01+
*       4.8292877136E+01               0
GRID*               7250               09.8059701493E+027.5764740958E-15+
*       5.0000000000E+01               0
GRID*               7251               09.6716417910E+02-1.295368758E+01+
*       4.8292877139E+01               0
GRID*               7252               09.8059701493E+02-1.295368758E+01+
*       4.8292877140E+01               0
GRID*               7253               09.8059701493E+02-2.499932634E+01+
*       4.3301658463E+01               0
GRID*               7254               09.6716417910E+02-3.535259754E+01+
*       3.5358080347E+01               0
GRID*               7255               09.8059701493E+02-3.535259754E+01+
*       3.5358080347E+01               0
GRID*               7256               09.8059701493E+02-4.330592075E+01+
*       2.4991942121E+01               0
GRID*               7257               09.6716417910E+02-4.829689400E+01+
*       1.2938702958E+01               0
GRID*               7258               09.8059701493E+02-4.829689400E+01+
*       1.2938702958E+01               0
GRID*               7259               09.8059701493E+02-4.999999898E+01+
*       1.0082219044E-02               0
GRID*               7260               09.6716417910E+02-4.829548892E+01+
*       -1.294394666E+01               0
GRID*               7261               09.8059701493E+02-4.829548892E+01+
*       -1.294394666E+01               0
GRID*               7262               09.8059701493E+02-4.329622646E+01+
*       -2.500873283E+01               0
GRID*               7263               09.6716417910E+02-3.535863142E+01+
*       -3.535204638E+01               0
GRID*               7264               09.8059701493E+02-3.535863142E+01+
*       -3.535204638E+01               0
GRID*               7265               09.8059701493E+02-2.500268502E+01+
*       -4.329971922E+01               0
GRID*               7266               09.5373134328E+022.5002685023E+01+
*       -4.329971922E+01               0
GRID*               7267               09.4029850746E+023.5358631416E+01+
*       -3.535204638E+01               0
GRID*               7268               09.5373134328E+023.5358631416E+01+
*       -3.535204638E+01               0
GRID*               7269               09.5373134328E+024.3296226452E+01+
*       -2.500873283E+01               0
GRID*               7270               09.4029850746E+024.8295488916E+01+
*       -1.294394666E+01               0
GRID*               7271               09.5373134328E+024.8295488916E+01+
*       -1.294394666E+01               0
GRID*               7272               09.5373134328E+024.9999998982E+01+
*       1.0082214674E-02               0
GRID*               7273               09.4029850746E+024.8296894005E+01+
*       1.2938702957E+01               0
GRID*               7274               09.5373134328E+024.8296894005E+01+
*       1.2938702957E+01               0
GRID*               7275               09.5373134328E+024.3305920751E+01+
*       2.4991942119E+01               0
GRID*               7276               09.4029850746E+023.5352597541E+01+
*       3.5358080347E+01               0
GRID*               7277               09.5373134328E+023.5352597541E+01+
*       3.5358080347E+01               0
GRID*               7278               09.5373134328E+022.4999326339E+01+
*       4.3301658463E+01               0
GRID*               7279               09.4029850746E+021.2953687590E+01+
*       4.8292877137E+01               0
GRID*               7280               09.5373134328E+021.2953687591E+01+
*       4.8292877137E+01               0
GRID*               7281               09.5373134328E+021.4842675642E-14+
*       5.0000000000E+01               0
GRID*               7282               09.4029850746E+02-1.295368759E+01+
*       4.8292877139E+01               0
GRID*               7283               09.5373134328E+02-1.295368758E+01+
*       4.8292877139E+01               0
GRID*               7284               09.5373134328E+02-2.499932634E+01+
*       4.3301658463E+01               0
GRID*               7285               09.4029850746E+02-3.535259754E+01+
*       3.5358080347E+01               0
GRID*               7286               09.5373134328E+02-3.535259754E+01+
*       3.5358080347E+01               0
GRID*               7287               09.5373134328E+02-4.330592075E+01+
*       2.4991942121E+01               0
GRID*               7288               09.4029850746E+02-4.829689400E+01+
*       1.2938702958E+01               0
GRID*               7289               09.5373134328E+02-4.829689400E+01+
*       1.2938702958E+01               0
GRID*               7290               09.5373134328E+02-4.999999898E+01+
*       1.0082218152E-02               0
GRID*               7291               09.4029850746E+02-4.829548892E+01+
*       -1.294394666E+01               0
GRID*               7292               09.5373134328E+02-4.829548892E+01+
*       -1.294394666E+01               0
GRID*               7293               09.5373134328E+02-4.329622645E+01+
*       -2.500873283E+01               0
GRID*               7294               09.4029850746E+02-3.535863142E+01+
*       -3.535204638E+01               0
GRID*               7295               09.5373134328E+02-3.535863142E+01+
*       -3.535204638E+01               0
GRID*               7296               09.5373134328E+02-2.500268502E+01+
*       -4.329971922E+01               0
GRID*               7297               09.2686567164E+022.5002685023E+01+
*       -4.329971922E+01               0
GRID*               7298               09.1343283582E+023.5358631416E+01+
*       -3.535204638E+01               0
GRID*               7299               09.2686567164E+023.5358631416E+01+
*       -3.535204638E+01               0
GRID*               7300               09.2686567164E+024.3296226453E+01+
*       -2.500873283E+01               0
GRID*               7301               09.1343283582E+024.8295488916E+01+
*       -1.294394666E+01               0
GRID*               7302               09.2686567164E+024.8295488916E+01+
*       -1.294394666E+01               0
GRID*               7303               09.2686567164E+024.9999998982E+01+
*       1.0082215528E-02               0
GRID*               7304               09.1343283582E+024.8296894005E+01+
*       1.2938702958E+01               0
GRID*               7305               09.2686567164E+024.8296894005E+01+
*       1.2938702957E+01               0
GRID*               7306               09.2686567164E+024.3305920750E+01+
*       2.4991942120E+01               0
GRID*               7307               09.1343283582E+023.5352597541E+01+
*       3.5358080347E+01               0
GRID*               7308               09.2686567164E+023.5352597541E+01+
*       3.5358080347E+01               0
GRID*               7309               09.2686567164E+022.4999326339E+01+
*       4.3301658463E+01               0
GRID*               7310               09.1343283582E+021.2953687589E+01+
*       4.8292877138E+01               0
GRID*               7311               09.2686567164E+021.2953687590E+01+
*       4.8292877137E+01               0
GRID*               7312               09.2686567164E+02-2.596208069E-15+
*       5.0000000000E+01               0
GRID*               7313               09.1343283582E+02-1.295368759E+01+
*       4.8292877138E+01               0
GRID*               7314               09.2686567164E+02-1.295368759E+01+
*       4.8292877139E+01               0
GRID*               7315               09.2686567164E+02-2.499932634E+01+
*       4.3301658463E+01               0
GRID*               7316               09.1343283582E+02-3.535259754E+01+
*       3.5358080347E+01               0
GRID*               7317               09.2686567164E+02-3.535259754E+01+
*       3.5358080347E+01               0
GRID*               7318               09.2686567164E+02-4.330592075E+01+
*       2.4991942121E+01               0
GRID*               7319               09.1343283582E+02-4.829689400E+01+
*       1.2938702958E+01               0
GRID*               7320               09.2686567164E+02-4.829689400E+01+
*       1.2938702958E+01               0
GRID*               7321               09.2686567164E+02-4.999999898E+01+
*       1.0082217268E-02               0
GRID*               7322               09.1343283582E+02-4.829548892E+01+
*       -1.294394666E+01               0
GRID*               7323               09.2686567164E+02-4.829548892E+01+
*       -1.294394666E+01               0
GRID*               7324               09.2686567164E+02-4.329622645E+01+
*       -2.500873283E+01               0
GRID*               7325               09.1343283582E+02-3.535863142E+01+
*       -3.535204638E+01               0
GRID*               7326               09.2686567164E+02-3.535863142E+01+
*       -3.535204638E+01               0
GRID*               7327               09.2686567164E+02-2.500268502E+01+
*       -4.329971922E+01               0
GRID*               7328               09.0000000000E+022.5002685023E+01+
*       -4.329971922E+01               0
GRID*               7329               08.8656716418E+023.5358631416E+01+
*       -3.535204638E+01               0
GRID*               7330               09.0000000000E+023.5358631416E+01+
*       -3.535204638E+01               0
GRID*               7331               09.0000000000E+024.3296226453E+01+
*       -2.500873283E+01               0
GRID*               7332               08.8656716418E+024.8295488916E+01+
*       -1.294394666E+01               0
GRID*               7333               09.0000000000E+024.8295488916E+01+
*       -1.294394666E+01               0
GRID*               7334               09.0000000000E+024.9999998982E+01+
*       1.0082216393E-02               0
GRID*               7335               08.8656716418E+024.8296894005E+01+
*       1.2938702958E+01               0
GRID*               7336               09.0000000000E+024.8296894005E+01+
*       1.2938702958E+01               0
GRID*               7337               09.0000000000E+024.3305920750E+01+
*       2.4991942120E+01               0
GRID*               7338               08.8656716418E+023.5352597541E+01+
*       3.5358080347E+01               0
GRID*               7339               09.0000000000E+023.5352597541E+01+
*       3.5358080347E+01               0
GRID*               7340               09.0000000000E+022.4999326339E+01+
*       4.3301658463E+01               0
GRID*               7341               08.8656716418E+021.2953687587E+01+
*       4.8292877138E+01               0
GRID*               7342               09.0000000000E+021.2953687588E+01+
*       4.8292877138E+01               0
GRID*               7343               09.0000000000E+02-2.221495225E-14+
*       5.0000000000E+01               0
GRID*               7344               08.8656716418E+02-1.295368759E+01+
*       4.8292877138E+01               0
GRID*               7345               09.0000000000E+02-1.295368759E+01+
*       4.8292877138E+01               0
GRID*               7346               09.0000000000E+02-2.499932634E+01+
*       4.3301658463E+01               0
GRID*               7347               08.8656716418E+02-3.535259754E+01+
*       3.5358080347E+01               0
GRID*               7348               09.0000000000E+02-3.535259754E+01+
*       3.5358080347E+01               0
GRID*               7349               09.0000000000E+02-4.330592075E+01+
*       2.4991942120E+01               0
GRID*               7350               08.8656716418E+02-4.829689400E+01+
*       1.2938702958E+01               0
GRID*               7351               09.0000000000E+02-4.829689400E+01+
*       1.2938702958E+01               0
GRID*               7352               09.0000000000E+02-4.999999898E+01+
*       1.0082216393E-02               0
GRID*               7353               08.8656716418E+02-4.829548892E+01+
*       -1.294394666E+01               0
GRID*               7354               09.0000000000E+02-4.829548892E+01+
*       -1.294394666E+01               0
GRID*               7355               09.0000000000E+02-4.329622645E+01+
*       -2.500873283E+01               0
GRID*               7356               08.8656716418E+02-3.535863142E+01+
*       -3.535204638E+01               0
GRID*               7357               09.0000000000E+02-3.535863142E+01+
*       -3.535204638E+01               0
GRID*               7358               09.0000000000E+02-2.500268502E+01+
*       -4.329971922E+01               0
GRID*               7359               08.7313432836E+022.5002685023E+01+
*       -4.329971922E+01               0
GRID*               7360               08.5970149254E+023.5358631416E+01+
*       -3.535204638E+01               0
GRID*               7361               08.7313432836E+023.5358631416E+01+
*       -3.535204638E+01               0
GRID*               7362               08.7313432836E+024.3296226454E+01+
*       -2.500873283E+01               0
GRID*               7363               08.5970149254E+024.8295488916E+01+
*       -1.294394666E+01               0
GRID*               7364               08.7313432836E+024.8295488916E+01+
*       -1.294394666E+01               0
GRID*               7365               08.7313432836E+024.9999998982E+01+
*       1.0082217268E-02               0
GRID*               7366               08.5970149254E+024.8296894005E+01+
*       1.2938702958E+01               0
GRID*               7367               08.7313432836E+024.8296894005E+01+
*       1.2938702958E+01               0
GRID*               7368               08.7313432836E+024.3305920750E+01+
*       2.4991942121E+01               0
GRID*               7369               08.5970149254E+023.5352597541E+01+
*       3.5358080347E+01               0
GRID*               7370               08.7313432836E+023.5352597541E+01+
*       3.5358080347E+01               0
GRID*               7371               08.7313432836E+022.4999326339E+01+
*       4.3301658463E+01               0
GRID*               7372               08.5970149254E+021.2953687585E+01+
*       4.8292877139E+01               0
GRID*               7373               08.7313432836E+021.2953687586E+01+
*       4.8292877139E+01               0
GRID*               7374               08.7313432836E+02-1.204227008E-14+
*       5.0000000000E+01               0
GRID*               7375               08.5970149254E+02-1.295368759E+01+
*       4.8292877137E+01               0
GRID*               7376               08.7313432836E+02-1.295368759E+01+
*       4.8292877137E+01               0
GRID*               7377               08.7313432836E+02-2.499932634E+01+
*       4.3301658463E+01               0
GRID*               7378               08.5970149254E+02-3.535259754E+01+
*       3.5358080347E+01               0
GRID*               7379               08.7313432836E+02-3.535259754E+01+
*       3.5358080347E+01               0
GRID*               7380               08.7313432836E+02-4.330592075E+01+
*       2.4991942120E+01               0
GRID*               7381               08.5970149254E+02-4.829689400E+01+
*       1.2938702957E+01               0
GRID*               7382               08.7313432836E+02-4.829689400E+01+
*       1.2938702957E+01               0
GRID*               7383               08.7313432836E+02-4.999999898E+01+
*       1.0082215527E-02               0
GRID*               7384               08.5970149254E+02-4.829548892E+01+
*       -1.294394666E+01               0
GRID*               7385               08.7313432836E+02-4.829548892E+01+
*       -1.294394666E+01               0
GRID*               7386               08.7313432836E+02-4.329622645E+01+
*       -2.500873283E+01               0
GRID*               7387               08.5970149254E+02-3.535863142E+01+
*       -3.535204638E+01               0
GRID*               7388               08.7313432836E+02-3.535863142E+01+
*       -3.535204638E+01               0
GRID*               7389               08.7313432836E+02-2.500268502E+01+
*       -4.329971922E+01               0
GRID*               7390               08.4626865672E+022.5002685023E+01+
*       -4.329971922E+01               0
GRID*               7391               08.3283582090E+023.5358631417E+01+
*       -3.535204638E+01               0
GRID*               7392               08.4626865672E+023.5358631417E+01+
*       -3.535204638E+01               0
GRID*               7393               08.4626865672E+024.3296226454E+01+
*       -2.500873283E+01               0
GRID*               7394               08.3283582090E+024.8295488916E+01+
*       -1.294394666E+01               0
GRID*               7395               08.4626865672E+024.8295488916E+01+
*       -1.294394666E+01               0
GRID*               7396               08.4626865672E+024.9999998982E+01+
*       1.0082218152E-02               0
GRID*               7397               08.3283582090E+024.8296894005E+01+
*       1.2938702958E+01               0
GRID*               7398               08.4626865672E+024.8296894005E+01+
*       1.2938702958E+01               0
GRID*               7399               08.4626865672E+024.3305920750E+01+
*       2.4991942121E+01               0
GRID*               7400               08.3283582090E+023.5352597541E+01+
*       3.5358080347E+01               0
GRID*               7401               08.4626865672E+023.5352597541E+01+
*       3.5358080347E+01               0
GRID*               7402               08.4626865672E+022.4999326339E+01+
*       4.3301658463E+01               0
GRID*               7403               08.3283582090E+021.2953687584E+01+
*       4.8292877139E+01               0
GRID*               7404               08.4626865672E+021.2953687585E+01+
*       4.8292877139E+01               0
GRID*               7405               08.4626865672E+022.5015357807E-14+
*       5.0000000000E+01               0
GRID*               7406               08.3283582090E+02-1.295368759E+01+
*       4.8292877137E+01               0
GRID*               7407               08.4626865672E+02-1.295368759E+01+
*       4.8292877137E+01               0
GRID*               7408               08.4626865672E+02-2.499932634E+01+
*       4.3301658463E+01               0
GRID*               7409               08.3283582090E+02-3.535259754E+01+
*       3.5358080347E+01               0
GRID*               7410               08.4626865672E+02-3.535259754E+01+
*       3.5358080347E+01               0
GRID*               7411               08.4626865672E+02-4.330592075E+01+
*       2.4991942119E+01               0
GRID*               7412               08.3283582090E+02-4.829689400E+01+
*       1.2938702957E+01               0
GRID*               7413               08.4626865672E+02-4.829689400E+01+
*       1.2938702957E+01               0
GRID*               7414               08.4626865672E+02-4.999999898E+01+
*       1.0082214673E-02               0
GRID*               7415               08.3283582090E+02-4.829548892E+01+
*       -1.294394666E+01               0
GRID*               7416               08.4626865672E+02-4.829548892E+01+
*       -1.294394666E+01               0
GRID*               7417               08.4626865672E+02-4.329622645E+01+
*       -2.500873283E+01               0
GRID*               7418               08.3283582090E+02-3.535863142E+01+
*       -3.535204638E+01               0
GRID*               7419               08.4626865672E+02-3.535863142E+01+
*       -3.535204638E+01               0
GRID*               7420               08.4626865672E+02-2.500268502E+01+
*       -4.329971922E+01               0
GRID*               7421               08.1940298507E+022.5002685023E+01+
*       -4.329971922E+01               0
GRID*               7422               08.0597014925E+023.5358631417E+01+
*       -3.535204638E+01               0
GRID*               7423               08.1940298507E+023.5358631417E+01+
*       -3.535204638E+01               0
GRID*               7424               08.1940298507E+024.3296226455E+01+
*       -2.500873283E+01               0
GRID*               7425               08.0597014925E+024.8295488916E+01+
*       -1.294394666E+01               0
GRID*               7426               08.1940298507E+024.8295488916E+01+
*       -1.294394666E+01               0
GRID*               7427               08.1940298507E+024.9999998982E+01+
*       1.0082219045E-02               0
GRID*               7428               08.0597014925E+024.8296894005E+01+
*       1.2938702958E+01               0
GRID*               7429               08.1940298507E+024.8296894005E+01+
*       1.2938702958E+01               0
GRID*               7430               08.1940298507E+024.3305920750E+01+
*       2.4991942121E+01               0
GRID*               7431               08.0597014925E+023.5352597541E+01+
*       3.5358080347E+01               0
GRID*               7432               08.1940298507E+023.5352597541E+01+
*       3.5358080347E+01               0
GRID*               7433               08.1940298507E+022.4999326339E+01+
*       4.3301658463E+01               0
GRID*               7434               08.0597014925E+021.2953687582E+01+
*       4.8292877140E+01               0
GRID*               7435               08.1940298507E+021.2953687583E+01+
*       4.8292877140E+01               0
GRID*               7436               08.1940298507E+026.2799605850E-14+
*       5.0000000000E+01               0
GRID*               7437               08.0597014925E+02-1.295368759E+01+
*       4.8292877136E+01               0
GRID*               7438               08.1940298507E+02-1.295368759E+01+
*       4.8292877136E+01               0
GRID*               7439               08.1940298507E+02-2.499932634E+01+
*       4.3301658463E+01               0
GRID*               7440               08.0597014925E+02-3.535259754E+01+
*       3.5358080347E+01               0
GRID*               7441               08.1940298507E+02-3.535259754E+01+
*       3.5358080347E+01               0
GRID*               7442               08.1940298507E+02-4.330592075E+01+
*       2.4991942119E+01               0
GRID*               7443               08.0597014925E+02-4.829689400E+01+
*       1.2938702957E+01               0
GRID*               7444               08.1940298507E+02-4.829689400E+01+
*       1.2938702957E+01               0
GRID*               7445               08.1940298507E+02-4.999999898E+01+
*       1.0082213831E-02               0
GRID*               7446               08.0597014925E+02-4.829548892E+01+
*       -1.294394666E+01               0
GRID*               7447               08.1940298507E+02-4.829548892E+01+
*       -1.294394666E+01               0
GRID*               7448               08.1940298507E+02-4.329622645E+01+
*       -2.500873283E+01               0
GRID*               7449               08.0597014925E+02-3.535863142E+01+
*       -3.535204638E+01               0
GRID*               7450               08.1940298507E+02-3.535863142E+01+
*       -3.535204638E+01               0
GRID*               7451               08.1940298507E+02-2.500268502E+01+
*       -4.329971922E+01               0
GRID*               7452               07.9253731343E+022.5002685023E+01+
*       -4.329971922E+01               0
GRID*               7453               07.7910447761E+023.5358631417E+01+
*       -3.535204638E+01               0
GRID*               7454               07.9253731343E+023.5358631417E+01+
*       -3.535204638E+01               0
GRID*               7455               07.9253731343E+024.3296226456E+01+
*       -2.500873282E+01               0
GRID*               7456               07.7910447761E+024.8295488916E+01+
*       -1.294394666E+01               0
GRID*               7457               07.9253731343E+024.8295488916E+01+
*       -1.294394666E+01               0
GRID*               7458               07.9253731343E+024.9999998982E+01+
*       1.0082219944E-02               0
GRID*               7459               07.7910447761E+024.8296894005E+01+
*       1.2938702958E+01               0
GRID*               7460               07.9253731343E+024.8296894005E+01+
*       1.2938702958E+01               0
GRID*               7461               07.9253731343E+024.3305920749E+01+
*       2.4991942122E+01               0
GRID*               7462               07.9253731343E+023.5352597541E+01+
*       3.5358080347E+01               0
GRID*               7463               07.7910447761E+023.5352597541E+01+
*       3.5358080347E+01               0
GRID*               7464               07.9253731343E+022.4999326339E+01+
*       4.3301658463E+01               0
GRID*               7465               07.9253731343E+021.2953687581E+01+
*       4.8292877140E+01               0
GRID*               7466               07.7910447761E+021.2953687581E+01+
*       4.8292877140E+01               0
GRID*               7467               07.9253731343E+021.5569295797E-14+
*       5.0000000000E+01               0
GRID*               7468               07.7910447761E+02-1.295368760E+01+
*       4.8292877136E+01               0
GRID*               7469               07.9253731343E+02-1.295368759E+01+
*       4.8292877136E+01               0
GRID*               7470               07.9253731343E+02-2.499932634E+01+
*       4.3301658462E+01               0
GRID*               7471               07.7910447761E+02-3.535259754E+01+
*       3.5358080346E+01               0
GRID*               7472               07.9253731343E+02-3.535259754E+01+
*       3.5358080347E+01               0
GRID*               7473               07.9253731343E+02-4.330592075E+01+
*       2.4991942118E+01               0
GRID*               7474               07.7910447761E+02-4.829689400E+01+
*       1.2938702957E+01               0
GRID*               7475               07.9253731343E+02-4.829689400E+01+
*       1.2938702957E+01               0
GRID*               7476               07.9253731343E+02-4.999999898E+01+
*       1.0082213002E-02               0
GRID*               7477               07.7910447761E+02-4.829548892E+01+
*       -1.294394666E+01               0
GRID*               7478               07.9253731343E+02-4.829548892E+01+
*       -1.294394666E+01               0
GRID*               7479               07.9253731343E+02-4.329622645E+01+
*       -2.500873283E+01               0
GRID*               7480               07.7910447761E+02-3.535863142E+01+
*       -3.535204638E+01               0
GRID*               7481               07.9253731343E+02-3.535863142E+01+
*       -3.535204638E+01               0
GRID*               7482               07.9253731343E+02-2.500268502E+01+
*       -4.329971922E+01               0
GRID*               7483               07.6567164179E+022.5002685023E+01+
*       -4.329971922E+01               0
GRID*               7484               07.5223880597E+023.5358631417E+01+
*       -3.535204638E+01               0
GRID*               7485               07.6567164179E+023.5358631417E+01+
*       -3.535204638E+01               0
GRID*               7486               07.6567164179E+024.3296226456E+01+
*       -2.500873282E+01               0
GRID*               7487               07.5223880597E+024.8295488916E+01+
*       -1.294394666E+01               0
GRID*               7488               07.6567164179E+024.8295488916E+01+
*       -1.294394666E+01               0
GRID*               7489               07.6567164179E+024.9999998982E+01+
*       1.0082220849E-02               0
GRID*               7490               07.6567164179E+024.8296894005E+01+
*       1.2938702958E+01               0
GRID*               7491               07.5223880597E+024.8296894005E+01+
*       1.2938702958E+01               0
GRID*               7492               07.6567164179E+024.3305920749E+01+
*       2.4991942122E+01               0
GRID*               7493               07.6567164179E+023.5352597541E+01+
*       3.5358080347E+01               0
GRID*               7494               07.5223880597E+023.5352597541E+01+
*       3.5358080347E+01               0
GRID*               7495               07.6567164179E+022.4999326339E+01+
*       4.3301658463E+01               0
GRID*               7496               07.6567164179E+021.2953687580E+01+
*       4.8292877141E+01               0
GRID*               7497               07.5223880597E+021.2953687579E+01+
*       4.8292877141E+01               0
GRID*               7498               07.6567164179E+02-4.776068533E-15+
*       5.0000000000E+01               0
GRID*               7499               07.6567164179E+02-1.295368760E+01+
*       4.8292877135E+01               0
GRID*               7500               07.5223880597E+02-1.295368760E+01+
*       4.8292877135E+01               0
GRID*               7501               07.6567164179E+02-2.499932634E+01+
*       4.3301658462E+01               0
GRID*               7502               07.5223880597E+02-3.535259754E+01+
*       3.5358080346E+01               0
GRID*               7503               07.6567164179E+02-3.535259754E+01+
*       3.5358080346E+01               0
GRID*               7504               07.6567164179E+02-4.330592075E+01+
*       2.4991942118E+01               0
GRID*               7505               07.5223880597E+02-4.829689400E+01+
*       1.2938702957E+01               0
GRID*               7506               07.6567164179E+02-4.829689400E+01+
*       1.2938702957E+01               0
GRID*               7507               07.6567164179E+02-4.999999898E+01+
*       1.0082212187E-02               0
GRID*               7508               07.5223880597E+02-4.829548892E+01+
*       -1.294394666E+01               0
GRID*               7509               07.6567164179E+02-4.829548892E+01+
*       -1.294394666E+01               0
GRID*               7510               07.6567164179E+02-4.329622645E+01+
*       -2.500873283E+01               0
GRID*               7511               07.5223880597E+02-3.535863142E+01+
*       -3.535204638E+01               0
GRID*               7512               07.6567164179E+02-3.535863142E+01+
*       -3.535204638E+01               0
GRID*               7513               07.6567164179E+02-2.500268502E+01+
*       -4.329971922E+01               0
GRID*               7514               07.3880597015E+022.5002685023E+01+
*       -4.329971922E+01               0
GRID*               7515               07.2537313433E+023.5358631417E+01+
*       -3.535204638E+01               0
GRID*               7516               07.3880597015E+023.5358631417E+01+
*       -3.535204638E+01               0
GRID*               7517               07.3880597015E+024.3296226457E+01+
*       -2.500873282E+01               0
GRID*               7518               07.3880597015E+024.8295488916E+01+
*       -1.294394666E+01               0
GRID*               7519               07.2537313433E+024.8295488916E+01+
*       -1.294394666E+01               0
GRID*               7520               07.3880597015E+024.9999998982E+01+
*       1.0082221760E-02               0
GRID*               7521               07.3880597015E+024.8296894005E+01+
*       1.2938702958E+01               0
GRID*               7522               07.2537313433E+024.8296894005E+01+
*       1.2938702958E+01               0
GRID*               7523               07.3880597015E+024.3305920749E+01+
*       2.4991942123E+01               0
GRID*               7524               07.3880597015E+023.5352597541E+01+
*       3.5358080347E+01               0
GRID*               7525               07.2537313433E+023.5352597541E+01+
*       3.5358080347E+01               0
GRID*               7526               07.3880597015E+022.4999326339E+01+
*       4.3301658463E+01               0
GRID*               7527               07.3880597015E+021.2953687578E+01+
*       4.8292877141E+01               0
GRID*               7528               07.2537313433E+021.2953687578E+01+
*       4.8292877141E+01               0
GRID*               7529               07.3880597015E+02-2.221495225E-14+
*       5.0000000000E+01               0
GRID*               7530               07.3880597015E+02-1.295368760E+01+
*       4.8292877135E+01               0
GRID*               7531               07.2537313433E+02-1.295368760E+01+
*       4.8292877134E+01               0
GRID*               7532               07.3880597015E+02-2.499932634E+01+
*       4.3301658462E+01               0
GRID*               7533               07.2537313433E+02-3.535259754E+01+
*       3.5358080346E+01               0
GRID*               7534               07.3880597015E+02-3.535259754E+01+
*       3.5358080346E+01               0
GRID*               7535               07.3880597015E+02-4.330592075E+01+
*       2.4991942117E+01               0
GRID*               7536               07.2537313433E+02-4.829689400E+01+
*       1.2938702957E+01               0
GRID*               7537               07.3880597015E+02-4.829689400E+01+
*       1.2938702957E+01               0
GRID*               7538               07.3880597015E+02-4.999999898E+01+
*       1.0082211386E-02               0
GRID*               7539               07.2537313433E+02-4.829548892E+01+
*       -1.294394666E+01               0
GRID*               7540               07.3880597015E+02-4.829548892E+01+
*       -1.294394666E+01               0
GRID*               7541               07.3880597015E+02-4.329622645E+01+
*       -2.500873283E+01               0
GRID*               7542               07.2537313433E+02-3.535863142E+01+
*       -3.535204638E+01               0
GRID*               7543               07.3880597015E+02-3.535863142E+01+
*       -3.535204638E+01               0
GRID*               7544               07.3880597015E+02-2.500268502E+01+
*       -4.329971922E+01               0
GRID*               7545               07.1194029851E+022.5002685023E+01+
*       -4.329971922E+01               0
GRID*               7546               06.9850746269E+023.5358631418E+01+
*       -3.535204638E+01               0
GRID*               7547               07.1194029851E+023.5358631418E+01+
*       -3.535204638E+01               0
GRID*               7548               07.1194029851E+024.3296226457E+01+
*       -2.500873282E+01               0
GRID*               7549               07.1194029851E+024.8295488916E+01+
*       -1.294394666E+01               0
GRID*               7550               06.9850746269E+024.8295488916E+01+
*       -1.294394666E+01               0
GRID*               7551               07.1194029851E+024.9999998982E+01+
*       1.0082222675E-02               0
GRID*               7552               07.1194029851E+024.8296894005E+01+
*       1.2938702958E+01               0
GRID*               7553               06.9850746269E+024.8296894005E+01+
*       1.2938702958E+01               0
GRID*               7554               07.1194029851E+024.3305920749E+01+
*       2.4991942123E+01               0
GRID*               7555               07.1194029851E+023.5352597541E+01+
*       3.5358080347E+01               0
GRID*               7556               06.9850746269E+023.5352597541E+01+
*       3.5358080347E+01               0
GRID*               7557               07.1194029851E+022.4999326339E+01+
*       4.3301658463E+01               0
GRID*               7558               07.1194029851E+021.2953687577E+01+
*       4.8292877142E+01               0
GRID*               7559               06.9850746269E+021.2953687576E+01+
*       4.8292877142E+01               0
GRID*               7560               07.1194029851E+02-4.183369642E-14+
*       5.0000000000E+01               0
GRID*               7561               07.1194029851E+02-1.295368760E+01+
*       4.8292877134E+01               0
GRID*               7562               06.9850746269E+02-1.295368760E+01+
*       4.8292877134E+01               0
GRID*               7563               07.1194029851E+02-2.499932634E+01+
*       4.3301658462E+01               0
GRID*               7564               07.1194029851E+02-3.535259754E+01+
*       3.5358080346E+01               0
GRID*               7565               06.9850746269E+02-3.535259754E+01+
*       3.5358080346E+01               0
GRID*               7566               07.1194029851E+02-4.330592075E+01+
*       2.4991942117E+01               0
GRID*               7567               06.9850746269E+02-4.829689400E+01+
*       1.2938702957E+01               0
GRID*               7568               07.1194029851E+02-4.829689400E+01+
*       1.2938702957E+01               0
GRID*               7569               07.1194029851E+02-4.999999898E+01+
*       1.0082210601E-02               0
GRID*               7570               06.9850746269E+02-4.829548892E+01+
*       -1.294394666E+01               0
GRID*               7571               07.1194029851E+02-4.829548892E+01+
*       -1.294394666E+01               0
GRID*               7572               07.1194029851E+02-4.329622645E+01+
*       -2.500873283E+01               0
GRID*               7573               06.9850746269E+02-3.535863141E+01+
*       -3.535204638E+01               0
GRID*               7574               07.1194029851E+02-3.535863141E+01+
*       -3.535204638E+01               0
GRID*               7575               07.1194029851E+02-2.500268502E+01+
*       -4.329971922E+01               0
GRID*               7576               06.8507462687E+022.5002685023E+01+
*       -4.329971922E+01               0
GRID*               7577               06.8507462687E+023.5358631418E+01+
*       -3.535204637E+01               0
GRID*               7578               06.7164179104E+023.5358631418E+01+
*       -3.535204637E+01               0
GRID*               7579               06.8507462687E+024.3296226458E+01+
*       -2.500873282E+01               0
GRID*               7580               06.8507462687E+024.8295488916E+01+
*       -1.294394666E+01               0
GRID*               7581               06.7164179104E+024.8295488916E+01+
*       -1.294394666E+01               0
GRID*               7582               06.8507462687E+024.9999998982E+01+
*       1.0082223592E-02               0
GRID*               7583               06.8507462687E+024.8296894005E+01+
*       1.2938702958E+01               0
GRID*               7584               06.7164179104E+024.8296894005E+01+
*       1.2938702958E+01               0
GRID*               7585               06.8507462687E+024.3305920749E+01+
*       2.4991942123E+01               0
GRID*               7586               06.8507462687E+023.5352597541E+01+
*       3.5358080347E+01               0
GRID*               7587               06.7164179104E+023.5352597541E+01+
*       3.5358080347E+01               0
GRID*               7588               06.8507462687E+022.4999326339E+01+
*       4.3301658463E+01               0
GRID*               7589               06.8507462687E+021.2953687575E+01+
*       4.8292877142E+01               0
GRID*               7590               06.7164179104E+021.2953687575E+01+
*       4.8292877142E+01               0
GRID*               7591               06.8507462687E+02-4.049448379E-15+
*       5.0000000000E+01               0
GRID*               7592               06.8507462687E+02-1.295368760E+01+
*       4.8292877134E+01               0
GRID*               7593               06.7164179105E+02-1.295368760E+01+
*       4.8292877133E+01               0
GRID*               7594               06.8507462687E+02-2.499932634E+01+
*       4.3301658462E+01               0
GRID*               7595               06.8507462687E+02-3.535259754E+01+
*       3.5358080346E+01               0
GRID*               7596               06.7164179104E+02-3.535259754E+01+
*       3.5358080346E+01               0
GRID*               7597               06.8507462687E+02-4.330592075E+01+
*       2.4991942116E+01               0
GRID*               7598               06.7164179104E+02-4.829689400E+01+
*       1.2938702957E+01               0
GRID*               7599               06.8507462687E+02-4.829689400E+01+
*       1.2938702957E+01               0
GRID*               7600               06.8507462687E+02-4.999999898E+01+
*       1.0082209834E-02               0
GRID*               7601               06.7164179104E+02-4.829548892E+01+
*       -1.294394666E+01               0
GRID*               7602               06.8507462687E+02-4.829548892E+01+
*       -1.294394666E+01               0
GRID*               7603               06.8507462687E+02-4.329622645E+01+
*       -2.500873284E+01               0
GRID*               7604               06.7164179104E+02-3.535863141E+01+
*       -3.535204638E+01               0
GRID*               7605               06.8507462687E+02-3.535863141E+01+
*       -3.535204638E+01               0
GRID*               7606               06.8507462687E+02-2.500268502E+01+
*       -4.329971922E+01               0
GRID*               7607               06.5820895522E+022.5002685023E+01+
*       -4.329971922E+01               0
GRID*               7608               06.5820895522E+023.5358631418E+01+
*       -3.535204637E+01               0
GRID*               7609               06.4477611940E+023.5358631418E+01+
*       -3.535204637E+01               0
GRID*               7610               06.5820895522E+024.3296226459E+01+
*       -2.500873282E+01               0
GRID*               7611               06.5820895522E+024.8295488916E+01+
*       -1.294394666E+01               0
GRID*               7612               06.4477611940E+024.8295488916E+01+
*       -1.294394666E+01               0
GRID*               7613               06.5820895522E+024.9999998982E+01+
*       1.0082224512E-02               0
GRID*               7614               06.5820895522E+024.8296894005E+01+
*       1.2938702958E+01               0
GRID*               7615               06.4477611940E+024.8296894005E+01+
*       1.2938702958E+01               0
GRID*               7616               06.5820895522E+024.3305920748E+01+
*       2.4991942124E+01               0
GRID*               7617               06.5820895522E+023.5352597541E+01+
*       3.5358080347E+01               0
GRID*               7618               06.4477611940E+023.5352597541E+01+
*       3.5358080347E+01               0
GRID*               7619               06.5820895522E+022.4999326339E+01+
*       4.3301658463E+01               0
GRID*               7620               06.5820895522E+021.2953687574E+01+
*       4.8292877143E+01               0
GRID*               7621               06.4477611940E+021.2953687573E+01+
*       4.8292877143E+01               0
GRID*               7622               06.5820895522E+02-2.366819255E-14+
*       5.0000000000E+01               0
GRID*               7623               06.5820895522E+02-1.295368760E+01+
*       4.8292877133E+01               0
GRID*               7624               06.4477611940E+02-1.295368760E+01+
*       4.8292877133E+01               0
GRID*               7625               06.5820895522E+02-2.499932634E+01+
*       4.3301658462E+01               0
GRID*               7626               06.5820895522E+02-3.535259754E+01+
*       3.5358080346E+01               0
GRID*               7627               06.4477611940E+02-3.535259754E+01+
*       3.5358080346E+01               0
GRID*               7628               06.5820895522E+02-4.330592075E+01+
*       2.4991942116E+01               0
GRID*               7629               06.5820895522E+02-4.829689400E+01+
*       1.2938702957E+01               0
GRID*               7630               06.4477611940E+02-4.829689400E+01+
*       1.2938702957E+01               0
GRID*               7631               06.5820895522E+02-4.999999898E+01+
*       1.0082209083E-02               0
GRID*               7632               06.4477611940E+02-4.829548892E+01+
*       -1.294394666E+01               0
GRID*               7633               06.5820895522E+02-4.829548892E+01+
*       -1.294394666E+01               0
GRID*               7634               06.5820895522E+02-4.329622645E+01+
*       -2.500873284E+01               0
GRID*               7635               06.4477611940E+02-3.535863141E+01+
*       -3.535204638E+01               0
GRID*               7636               06.5820895522E+02-3.535863141E+01+
*       -3.535204638E+01               0
GRID*               7637               06.5820895522E+02-2.500268502E+01+
*       -4.329971922E+01               0
GRID*               7638               06.3134328358E+022.5002685023E+01+
*       -4.329971922E+01               0
GRID*               7639               06.3134328358E+023.5358631418E+01+
*       -3.535204637E+01               0
GRID*               7640               06.1791044776E+023.5358631418E+01+
*       -3.535204637E+01               0
GRID*               7641               06.3134328358E+024.3296226459E+01+
*       -2.500873282E+01               0
GRID*               7642               06.3134328358E+024.8295488916E+01+
*       -1.294394666E+01               0
GRID*               7643               06.1791044776E+024.8295488916E+01+
*       -1.294394666E+01               0
GRID*               7644               06.3134328358E+024.9999998982E+01+
*       1.0082225433E-02               0
GRID*               7645               06.3134328358E+024.8296894005E+01+
*       1.2938702958E+01               0
GRID*               7646               06.1791044776E+024.8296894005E+01+
*       1.2938702958E+01               0
GRID*               7647               06.3134328358E+024.3305920748E+01+
*       2.4991942124E+01               0
GRID*               7648               06.3134328358E+023.5352597541E+01+
*       3.5358080347E+01               0
GRID*               7649               06.1791044776E+023.5352597541E+01+
*       3.5358080347E+01               0
GRID*               7650               06.3134328358E+022.4999326339E+01+
*       4.3301658463E+01               0
GRID*               7651               06.3134328358E+021.2953687573E+01+
*       4.8292877143E+01               0
GRID*               7652               06.1791044776E+021.2953687572E+01+
*       4.8292877143E+01               0
GRID*               7653               06.3134328358E+02-4.328693673E-14+
*       5.0000000000E+01               0
GRID*               7654               06.3134328358E+02-1.295368761E+01+
*       4.8292877132E+01               0
GRID*               7655               06.1791044776E+02-1.295368761E+01+
*       4.8292877132E+01               0
GRID*               7656               06.3134328358E+02-2.499932634E+01+
*       4.3301658462E+01               0
GRID*               7657               06.3134328358E+02-3.535259754E+01+
*       3.5358080346E+01               0
GRID*               7658               06.1791044776E+02-3.535259754E+01+
*       3.5358080346E+01               0
GRID*               7659               06.3134328358E+02-4.330592075E+01+
*       2.4991942116E+01               0
GRID*               7660               06.3134328358E+02-4.829689400E+01+
*       1.2938702957E+01               0
GRID*               7661               06.1791044776E+02-4.829689400E+01+
*       1.2938702957E+01               0
GRID*               7662               06.3134328358E+02-4.999999898E+01+
*       1.0082208352E-02               0
GRID*               7663               06.1791044776E+02-4.829548892E+01+
*       -1.294394666E+01               0
GRID*               7664               06.3134328358E+02-4.829548892E+01+
*       -1.294394666E+01               0
GRID*               7665               06.3134328358E+02-4.329622645E+01+
*       -2.500873284E+01               0
GRID*               7666               06.1791044776E+02-3.535863141E+01+
*       -3.535204638E+01               0
GRID*               7667               06.3134328358E+02-3.535863141E+01+
*       -3.535204638E+01               0
GRID*               7668               06.3134328358E+02-2.500268502E+01+
*       -4.329971922E+01               0
GRID*               7669               06.0447761194E+022.5002685023E+01+
*       -4.329971922E+01               0
GRID*               7670               06.0447761194E+023.5358631418E+01+
*       -3.535204637E+01               0
GRID*               7671               05.9104477612E+023.5358631418E+01+
*       -3.535204637E+01               0
GRID*               7672               06.0447761194E+024.3296226460E+01+
*       -2.500873282E+01               0
GRID*               7673               06.0447761194E+024.8295488916E+01+
*       -1.294394666E+01               0
GRID*               7674               05.9104477612E+024.8295488916E+01+
*       -1.294394666E+01               0
GRID*               7675               06.0447761194E+024.9999998982E+01+
*       1.0082226354E-02               0
GRID*               7676               06.0447761194E+024.8296894005E+01+
*       1.2938702958E+01               0
GRID*               7677               05.9104477612E+024.8296894005E+01+
*       1.2938702958E+01               0
GRID*               7678               06.0447761194E+024.3305920748E+01+
*       2.4991942124E+01               0
GRID*               7679               06.0447761194E+023.5352597541E+01+
*       3.5358080347E+01               0
GRID*               7680               05.9104477612E+023.5352597541E+01+
*       3.5358080347E+01               0
GRID*               7681               06.0447761194E+022.4999326339E+01+
*       4.3301658463E+01               0
GRID*               7682               06.0447761194E+021.2953687571E+01+
*       4.8292877143E+01               0
GRID*               7683               05.9104477612E+021.2953687571E+01+
*       4.8292877144E+01               0
GRID*               7684               06.0447761194E+02-3.384087472E-14+
*       5.0000000000E+01               0
GRID*               7685               06.0447761194E+02-1.295368761E+01+
*       4.8292877132E+01               0
GRID*               7686               05.9104477612E+02-1.295368761E+01+
*       4.8292877132E+01               0
GRID*               7687               06.0447761194E+02-2.499932634E+01+
*       4.3301658462E+01               0
GRID*               7688               06.0447761194E+02-3.535259754E+01+
*       3.5358080346E+01               0
GRID*               7689               05.9104477612E+02-3.535259754E+01+
*       3.5358080346E+01               0
GRID*               7690               06.0447761194E+02-4.330592075E+01+
*       2.4991942115E+01               0
GRID*               7691               06.0447761194E+02-4.829689400E+01+
*       1.2938702957E+01               0
GRID*               7692               05.9104477612E+02-4.829689400E+01+
*       1.2938702957E+01               0
GRID*               7693               06.0447761194E+02-4.999999898E+01+
*       1.0082207640E-02               0
GRID*               7694               06.0447761194E+02-4.829548892E+01+
*       -1.294394666E+01               0
GRID*               7695               05.9104477612E+02-4.829548892E+01+
*       -1.294394666E+01               0
GRID*               7696               06.0447761194E+02-4.329622645E+01+
*       -2.500873284E+01               0
GRID*               7697               05.9104477612E+02-3.535863141E+01+
*       -3.535204638E+01               0
GRID*               7698               06.0447761194E+02-3.535863141E+01+
*       -3.535204638E+01               0
GRID*               7699               06.0447761194E+02-2.500268502E+01+
*       -4.329971922E+01               0
GRID*               7700               05.7761194030E+022.5002685023E+01+
*       -4.329971922E+01               0
GRID*               7701               05.7761194030E+023.5358631418E+01+
*       -3.535204637E+01               0
GRID*               7702               05.6417910448E+023.5358631419E+01+
*       -3.535204637E+01               0
GRID*               7703               05.7761194030E+024.3296226460E+01+
*       -2.500873282E+01               0
GRID*               7704               05.7761194030E+024.8295488916E+01+
*       -1.294394666E+01               0
GRID*               7705               05.6417910448E+024.8295488916E+01+
*       -1.294394666E+01               0
GRID*               7706               05.7761194030E+024.9999998981E+01+
*       1.0082227273E-02               0
GRID*               7707               05.7761194030E+024.8296894004E+01+
*       1.2938702958E+01               0
GRID*               7708               05.6417910448E+024.8296894004E+01+
*       1.2938702959E+01               0
GRID*               7709               05.7761194030E+024.3305920748E+01+
*       2.4991942125E+01               0
GRID*               7710               05.7761194030E+023.5352597541E+01+
*       3.5358080347E+01               0
GRID*               7711               05.6417910448E+023.5352597541E+01+
*       3.5358080347E+01               0
GRID*               7712               05.7761194030E+022.4999326339E+01+
*       4.3301658463E+01               0
GRID*               7713               05.7761194030E+021.2953687570E+01+
*       4.8292877144E+01               0
GRID*               7714               05.6417910448E+021.2953687569E+01+
*       4.8292877144E+01               0
GRID*               7715               05.7761194030E+023.9433733225E-15+
*       5.0000000000E+01               0
GRID*               7716               05.7761194030E+02-1.295368761E+01+
*       4.8292877131E+01               0
GRID*               7717               05.6417910448E+02-1.295368761E+01+
*       4.8292877131E+01               0
GRID*               7718               05.7761194030E+02-2.499932634E+01+
*       4.3301658462E+01               0
GRID*               7719               05.7761194030E+02-3.535259754E+01+
*       3.5358080346E+01               0
GRID*               7720               05.6417910448E+02-3.535259754E+01+
*       3.5358080346E+01               0
GRID*               7721               05.7761194030E+02-4.330592075E+01+
*       2.4991942115E+01               0
GRID*               7722               05.7761194030E+02-4.829689400E+01+
*       1.2938702956E+01               0
GRID*               7723               05.6417910448E+02-4.829689400E+01+
*       1.2938702956E+01               0
GRID*               7724               05.7761194030E+02-4.999999898E+01+
*       1.0082206948E-02               0
GRID*               7725               05.7761194030E+02-4.829548892E+01+
*       -1.294394666E+01               0
GRID*               7726               05.6417910448E+02-4.829548892E+01+
*       -1.294394666E+01               0
GRID*               7727               05.7761194030E+02-4.329622645E+01+
*       -2.500873284E+01               0
GRID*               7728               05.6417910448E+02-3.535863141E+01+
*       -3.535204638E+01               0
GRID*               7729               05.7761194030E+02-3.535863141E+01+
*       -3.535204638E+01               0
GRID*               7730               05.7761194030E+02-2.500268502E+01+
*       -4.329971922E+01               0
GRID*               7731               05.5074626866E+022.5002685023E+01+
*       -4.329971922E+01               0
GRID*               7732               05.5074626866E+023.5358631419E+01+
*       -3.535204637E+01               0
GRID*               7733               05.3731343284E+023.5358631419E+01+
*       -3.535204637E+01               0
GRID*               7734               05.5074626866E+024.3296226461E+01+
*       -2.500873282E+01               0
GRID*               7735               05.5074626866E+024.8295488916E+01+
*       -1.294394666E+01               0
GRID*               7736               05.3731343284E+024.8295488916E+01+
*       -1.294394666E+01               0
GRID*               7737               05.5074626866E+024.9999998981E+01+
*       1.0082228191E-02               0
GRID*               7738               05.5074626866E+024.8296894004E+01+
*       1.2938702959E+01               0
GRID*               7739               05.3731343284E+024.8296894004E+01+
*       1.2938702959E+01               0
GRID*               7740               05.5074626866E+024.3305920748E+01+
*       2.4991942125E+01               0
GRID*               7741               05.5074626866E+023.5352597541E+01+
*       3.5358080347E+01               0
GRID*               7742               05.3731343284E+023.5352597541E+01+
*       3.5358080347E+01               0
GRID*               7743               05.5074626866E+022.4999326339E+01+
*       4.3301658463E+01               0
GRID*               7744               05.5074626866E+021.2953687569E+01+
*       4.8292877144E+01               0
GRID*               7745               05.3731343284E+021.2953687568E+01+
*       4.8292877144E+01               0
GRID*               7746               05.5074626866E+02-1.422213054E-14+
*       5.0000000000E+01               0
GRID*               7747               05.5074626866E+02-1.295368761E+01+
*       4.8292877131E+01               0
GRID*               7748               05.3731343284E+02-1.295368761E+01+
*       4.8292877130E+01               0
GRID*               7749               05.5074626866E+02-2.499932634E+01+
*       4.3301658462E+01               0
GRID*               7750               05.5074626866E+02-3.535259754E+01+
*       3.5358080346E+01               0
GRID*               7751               05.3731343284E+02-3.535259754E+01+
*       3.5358080346E+01               0
GRID*               7752               05.5074626866E+02-4.330592075E+01+
*       2.4991942114E+01               0
GRID*               7753               05.5074626866E+02-4.829689400E+01+
*       1.2938702956E+01               0
GRID*               7754               05.3731343284E+02-4.829689400E+01+
*       1.2938702956E+01               0
GRID*               7755               05.5074626866E+02-4.999999898E+01+
*       1.0082206279E-02               0
GRID*               7756               05.5074626866E+02-4.829548892E+01+
*       -1.294394666E+01               0
GRID*               7757               05.3731343284E+02-4.829548892E+01+
*       -1.294394666E+01               0
GRID*               7758               05.5074626866E+02-4.329622644E+01+
*       -2.500873284E+01               0
GRID*               7759               05.3731343284E+02-3.535863141E+01+
*       -3.535204638E+01               0
GRID*               7760               05.5074626866E+02-3.535863141E+01+
*       -3.535204638E+01               0
GRID*               7761               05.5074626866E+02-2.500268502E+01+
*       -4.329971922E+01               0
GRID*               7762               05.2388059701E+022.5002685023E+01+
*       -4.329971922E+01               0
GRID*               7763               05.2388059701E+023.5358631419E+01+
*       -3.535204637E+01               0
GRID*               7764               05.1044776119E+023.5358631419E+01+
*       -3.535204637E+01               0
GRID*               7765               05.2388059701E+024.3296226461E+01+
*       -2.500873282E+01               0
GRID*               7766               05.2388059701E+024.8295488916E+01+
*       -1.294394666E+01               0
GRID*               7767               05.1044776119E+024.8295488916E+01+
*       -1.294394666E+01               0
GRID*               7768               05.2388059702E+024.9999998981E+01+
*       1.0082229104E-02               0
GRID*               7769               05.2388059701E+024.8296894004E+01+
*       1.2938702959E+01               0
GRID*               7770               05.1044776119E+024.8296894004E+01+
*       1.2938702959E+01               0
GRID*               7771               05.2388059701E+024.3305920747E+01+
*       2.4991942125E+01               0
GRID*               7772               05.2388059702E+023.5352597541E+01+
*       3.5358080347E+01               0
GRID*               7773               05.1044776119E+023.5352597541E+01+
*       3.5358080347E+01               0
GRID*               7774               05.2388059701E+022.4999326339E+01+
*       4.3301658463E+01               0
GRID*               7775               05.2388059701E+021.2953687567E+01+
*       4.8292877145E+01               0
GRID*               7776               05.1044776119E+021.2953687567E+01+
*       4.8292877145E+01               0
GRID*               7777               05.2388059701E+02-5.502688688E-15+
*       5.0000000000E+01               0
GRID*               7778               05.2388059702E+02-1.295368761E+01+
*       4.8292877130E+01               0
GRID*               7779               05.1044776119E+02-1.295368761E+01+
*       4.8292877130E+01               0
GRID*               7780               05.2388059701E+02-2.499932634E+01+
*       4.3301658462E+01               0
GRID*               7781               05.2388059701E+02-3.535259754E+01+
*       3.5358080346E+01               0
GRID*               7782               05.1044776119E+02-3.535259754E+01+
*       3.5358080346E+01               0
GRID*               7783               05.2388059702E+02-4.330592075E+01+
*       2.4991942114E+01               0
GRID*               7784               05.2388059701E+02-4.829689400E+01+
*       1.2938702956E+01               0
GRID*               7785               05.1044776119E+02-4.829689400E+01+
*       1.2938702956E+01               0
GRID*               7786               05.2388059701E+02-4.999999898E+01+
*       1.0082205631E-02               0
GRID*               7787               05.2388059701E+02-4.829548892E+01+
*       -1.294394666E+01               0
GRID*               7788               05.1044776119E+02-4.829548892E+01+
*       -1.294394666E+01               0
GRID*               7789               05.2388059702E+02-4.329622644E+01+
*       -2.500873284E+01               0
GRID*               7790               05.1044776119E+02-3.535863141E+01+
*       -3.535204638E+01               0
GRID*               7791               05.2388059701E+02-3.535863141E+01+
*       -3.535204638E+01               0
GRID*               7792               05.2388059701E+02-2.500268502E+01+
*       -4.329971922E+01               0
GRID*               7793               04.9701492537E+022.5002685023E+01+
*       -4.329971922E+01               0
GRID*               7794               04.9701492537E+023.5358631419E+01+
*       -3.535204637E+01               0
GRID*               7795               04.8358208955E+023.5358631419E+01+
*       -3.535204637E+01               0
GRID*               7796               04.9701492537E+024.3296226462E+01+
*       -2.500873282E+01               0
GRID*               7797               04.9701492537E+024.8295488916E+01+
*       -1.294394666E+01               0
GRID*               7798               04.8358208955E+024.8295488916E+01+
*       -1.294394666E+01               0
GRID*               7799               04.9701492537E+024.9999998981E+01+
*       1.0082230014E-02               0
GRID*               7800               04.9701492537E+024.8296894004E+01+
*       1.2938702959E+01               0
GRID*               7801               04.8358208955E+024.8296894004E+01+
*       1.2938702959E+01               0
GRID*               7802               04.9701492537E+024.3305920747E+01+
*       2.4991942126E+01               0
GRID*               7803               04.9701492537E+023.5352597541E+01+
*       3.5358080347E+01               0
GRID*               7804               04.8358208955E+023.5352597541E+01+
*       3.5358080347E+01               0
GRID*               7805               04.9701492537E+022.4999326339E+01+
*       4.3301658463E+01               0
GRID*               7806               04.9701492537E+021.2953687566E+01+
*       4.8292877145E+01               0
GRID*               7807               04.8358208955E+021.2953687566E+01+
*       4.8292877145E+01               0
GRID*               7808               04.9701492537E+024.6699934772E-15+
*       5.0000000000E+01               0
GRID*               7809               04.9701492537E+02-1.295368761E+01+
*       4.8292877130E+01               0
GRID*               7810               04.8358208955E+02-1.295368761E+01+
*       4.8292877129E+01               0
GRID*               7811               04.9701492537E+02-2.499932634E+01+
*       4.3301658462E+01               0
GRID*               7812               04.9701492537E+02-3.535259754E+01+
*       3.5358080346E+01               0
GRID*               7813               04.8358208955E+02-3.535259754E+01+
*       3.5358080346E+01               0
GRID*               7814               04.9701492537E+02-4.330592075E+01+
*       2.4991942113E+01               0
GRID*               7815               04.9701492537E+02-4.829689400E+01+
*       1.2938702956E+01               0
GRID*               7816               04.8358208955E+02-4.829689400E+01+
*       1.2938702956E+01               0
GRID*               7817               04.9701492537E+02-4.999999898E+01+
*       1.0082205007E-02               0
GRID*               7818               04.9701492537E+02-4.829548892E+01+
*       -1.294394666E+01               0
GRID*               7819               04.8358208955E+02-4.829548892E+01+
*       -1.294394666E+01               0
GRID*               7820               04.9701492537E+02-4.329622644E+01+
*       -2.500873284E+01               0
GRID*               7821               04.9701492537E+02-3.535863141E+01+
*       -3.535204638E+01               0
GRID*               7822               04.8358208955E+02-3.535863141E+01+
*       -3.535204638E+01               0
GRID*               7823               04.9701492537E+02-2.500268502E+01+
*       -4.329971922E+01               0
GRID*               7824               04.7014925373E+022.5002685023E+01+
*       -4.329971922E+01               0
GRID*               7825               04.7014925373E+023.5358631419E+01+
*       -3.535204637E+01               0
GRID*               7826               04.5671641791E+023.5358631419E+01+
*       -3.535204637E+01               0
GRID*               7827               04.7014925373E+024.3296226462E+01+
*       -2.500873281E+01               0
GRID*               7828               04.7014925373E+024.8295488916E+01+
*       -1.294394666E+01               0
GRID*               7829               04.5671641791E+024.8295488916E+01+
*       -1.294394666E+01               0
GRID*               7830               04.7014925373E+024.9999998981E+01+
*       1.0082230917E-02               0
GRID*               7831               04.7014925373E+024.8296894004E+01+
*       1.2938702959E+01               0
GRID*               7832               04.5671641791E+024.8296894004E+01+
*       1.2938702959E+01               0
GRID*               7833               04.7014925373E+024.3305920747E+01+
*       2.4991942126E+01               0
GRID*               7834               04.7014925373E+023.5352597541E+01+
*       3.5358080347E+01               0
GRID*               7835               04.5671641791E+023.5352597540E+01+
*       3.5358080347E+01               0
GRID*               7836               04.7014925373E+022.4999326339E+01+
*       4.3301658463E+01               0
GRID*               7837               04.7014925373E+021.2953687565E+01+
*       4.8292877145E+01               0
GRID*               7838               04.5671641791E+021.2953687565E+01+
*       4.8292877146E+01               0
GRID*               7839               04.7014925373E+021.2662815178E-14+
*       5.0000000000E+01               0
GRID*               7840               04.7014925373E+02-1.295368762E+01+
*       4.8292877129E+01               0
GRID*               7841               04.5671641791E+02-1.295368762E+01+
*       4.8292877129E+01               0
GRID*               7842               04.7014925373E+02-2.499932634E+01+
*       4.3301658462E+01               0
GRID*               7843               04.7014925373E+02-3.535259754E+01+
*       3.5358080346E+01               0
GRID*               7844               04.5671641791E+02-3.535259754E+01+
*       3.5358080346E+01               0
GRID*               7845               04.7014925373E+02-4.330592075E+01+
*       2.4991942113E+01               0
GRID*               7846               04.7014925373E+02-4.829689400E+01+
*       1.2938702956E+01               0
GRID*               7847               04.5671641791E+02-4.829689400E+01+
*       1.2938702956E+01               0
GRID*               7848               04.7014925373E+02-4.999999898E+01+
*       1.0082204407E-02               0
GRID*               7849               04.7014925373E+02-4.829548892E+01+
*       -1.294394666E+01               0
GRID*               7850               04.5671641791E+02-4.829548892E+01+
*       -1.294394666E+01               0
GRID*               7851               04.7014925373E+02-4.329622644E+01+
*       -2.500873284E+01               0
GRID*               7852               04.7014925373E+02-3.535863141E+01+
*       -3.535204638E+01               0
GRID*               7853               04.5671641791E+02-3.535863141E+01+
*       -3.535204638E+01               0
GRID*               7854               04.7014925373E+02-2.500268502E+01+
*       -4.329971922E+01               0
GRID*               7855               04.4328358209E+022.5002685023E+01+
*       -4.329971922E+01               0
GRID*               7856               04.4328358209E+023.5358631419E+01+
*       -3.535204637E+01               0
GRID*               7857               04.2985074627E+023.5358631420E+01+
*       -3.535204637E+01               0
GRID*               7858               04.4328358209E+024.3296226462E+01+
*       -2.500873281E+01               0
GRID*               7859               04.4328358209E+024.8295488916E+01+
*       -1.294394666E+01               0
GRID*               7860               04.2985074627E+024.8295488916E+01+
*       -1.294394666E+01               0
GRID*               7861               04.4328358209E+024.9999998981E+01+
*       1.0082231814E-02               0
GRID*               7862               04.4328358209E+024.8296894004E+01+
*       1.2938702959E+01               0
GRID*               7863               04.2985074627E+024.8296894004E+01+
*       1.2938702959E+01               0
GRID*               7864               04.4328358209E+024.3305920747E+01+
*       2.4991942126E+01               0
GRID*               7865               04.4328358209E+023.5352597540E+01+
*       3.5358080348E+01               0
GRID*               7866               04.2985074627E+023.5352597540E+01+
*       3.5358080348E+01               0
GRID*               7867               04.4328358209E+022.4999326339E+01+
*       4.3301658463E+01               0
GRID*               7868               04.4328358209E+021.2953687564E+01+
*       4.8292877146E+01               0
GRID*               7869               04.2985074627E+021.2953687564E+01+
*       4.8292877146E+01               0
GRID*               7870               04.4328358209E+022.2108877189E-14+
*       5.0000000000E+01               0
GRID*               7871               04.4328358209E+02-1.295368762E+01+
*       4.8292877128E+01               0
GRID*               7872               04.2985074627E+02-1.295368762E+01+
*       4.8292877128E+01               0
GRID*               7873               04.4328358209E+02-2.499932634E+01+
*       4.3301658462E+01               0
GRID*               7874               04.4328358209E+02-3.535259754E+01+
*       3.5358080346E+01               0
GRID*               7875               04.2985074627E+02-3.535259754E+01+
*       3.5358080346E+01               0
GRID*               7876               04.4328358209E+02-4.330592075E+01+
*       2.4991942112E+01               0
GRID*               7877               04.4328358209E+02-4.829689400E+01+
*       1.2938702956E+01               0
GRID*               7878               04.2985074627E+02-4.829689400E+01+
*       1.2938702956E+01               0
GRID*               7879               04.4328358209E+02-4.999999898E+01+
*       1.0082203833E-02               0
GRID*               7880               04.4328358209E+02-4.829548892E+01+
*       -1.294394666E+01               0
GRID*               7881               04.2985074627E+02-4.829548892E+01+
*       -1.294394666E+01               0
GRID*               7882               04.4328358209E+02-4.329622644E+01+
*       -2.500873285E+01               0
GRID*               7883               04.4328358209E+02-3.535863141E+01+
*       -3.535204638E+01               0
GRID*               7884               04.2985074627E+02-3.535863141E+01+
*       -3.535204638E+01               0
GRID*               7885               04.4328358209E+02-2.500268502E+01+
*       -4.329971922E+01               0
GRID*               7886               04.1641791045E+022.5002685023E+01+
*       -4.329971922E+01               0
GRID*               7887               04.1641791045E+023.5358631420E+01+
*       -3.535204637E+01               0
GRID*               7888               04.0298507463E+023.5358631420E+01+
*       -3.535204637E+01               0
GRID*               7889               04.1641791045E+024.3296226463E+01+
*       -2.500873281E+01               0
GRID*               7890               04.1641791045E+024.8295488916E+01+
*       -1.294394666E+01               0
GRID*               7891               04.0298507463E+024.8295488916E+01+
*       -1.294394666E+01               0
GRID*               7892               04.1641791045E+024.9999998981E+01+
*       1.0082232701E-02               0
GRID*               7893               04.1641791045E+024.8296894004E+01+
*       1.2938702959E+01               0
GRID*               7894               04.0298507463E+024.8296894004E+01+
*       1.2938702959E+01               0
GRID*               7895               04.1641791045E+024.3305920747E+01+
*       2.4991942127E+01               0
GRID*               7896               04.1641791045E+023.5352597540E+01+
*       3.5358080348E+01               0
GRID*               7897               04.0298507463E+023.5352597540E+01+
*       3.5358080348E+01               0
GRID*               7898               04.1641791045E+022.4999326339E+01+
*       4.3301658463E+01               0
GRID*               7899               04.1641791045E+021.2953687563E+01+
*       4.8292877146E+01               0
GRID*               7900               04.0298507463E+021.2953687563E+01+
*       4.8292877146E+01               0
GRID*               7901               04.1641791045E+02-2.366819255E-14+
*       5.0000000000E+01               0
GRID*               7902               04.1641791045E+02-1.295368762E+01+
*       4.8292877128E+01               0
GRID*               7903               04.0298507463E+02-1.295368762E+01+
*       4.8292877128E+01               0
GRID*               7904               04.1641791045E+02-2.499932634E+01+
*       4.3301658462E+01               0
GRID*               7905               04.1641791045E+02-3.535259754E+01+
*       3.5358080346E+01               0
GRID*               7906               04.0298507463E+02-3.535259754E+01+
*       3.5358080346E+01               0
GRID*               7907               04.1641791045E+02-4.330592075E+01+
*       2.4991942112E+01               0
GRID*               7908               04.1641791045E+02-4.829689400E+01+
*       1.2938702956E+01               0
GRID*               7909               04.0298507463E+02-4.829689400E+01+
*       1.2938702956E+01               0
GRID*               7910               04.1641791045E+02-4.999999898E+01+
*       1.0082203285E-02               0
GRID*               7911               04.1641791045E+02-4.829548892E+01+
*       -1.294394666E+01               0
GRID*               7912               04.0298507463E+02-4.829548892E+01+
*       -1.294394666E+01               0
GRID*               7913               04.1641791045E+02-4.329622644E+01+
*       -2.500873285E+01               0
GRID*               7914               04.1641791045E+02-3.535863141E+01+
*       -3.535204638E+01               0
GRID*               7915               04.0298507463E+02-3.535863141E+01+
*       -3.535204638E+01               0
GRID*               7916               04.1641791045E+02-2.500268502E+01+
*       -4.329971922E+01               0
GRID*               7917               03.8955223881E+022.5002685023E+01+
*       -4.329971922E+01               0
GRID*               7918               03.8955223881E+023.5358631420E+01+
*       -3.535204637E+01               0
GRID*               7919               03.7611940299E+023.5358631420E+01+
*       -3.535204637E+01               0
GRID*               7920               03.8955223881E+024.3296226463E+01+
*       -2.500873281E+01               0
GRID*               7921               03.8955223881E+024.8295488916E+01+
*       -1.294394666E+01               0
GRID*               7922               03.7611940298E+024.8295488916E+01+
*       -1.294394666E+01               0
GRID*               7923               03.8955223881E+024.9999998981E+01+
*       1.0082233579E-02               0
GRID*               7924               03.8955223881E+024.8296894004E+01+
*       1.2938702959E+01               0
GRID*               7925               03.7611940299E+024.8296894004E+01+
*       1.2938702959E+01               0
GRID*               7926               03.8955223881E+024.3305920747E+01+
*       2.4991942127E+01               0
GRID*               7927               03.8955223881E+023.5352597540E+01+
*       3.5358080348E+01               0
GRID*               7928               03.7611940299E+023.5352597540E+01+
*       3.5358080348E+01               0
GRID*               7929               03.8955223881E+022.4999326339E+01+
*       4.3301658463E+01               0
GRID*               7930               03.8955223881E+021.2953687562E+01+
*       4.8292877146E+01               0
GRID*               7931               03.7611940298E+021.2953687562E+01+
*       4.8292877147E+01               0
GRID*               7932               03.8955223881E+021.3752745410E-14+
*       5.0000000000E+01               0
GRID*               7933               03.8955223881E+02-1.295368762E+01+
*       4.8292877127E+01               0
GRID*               7934               03.7611940299E+02-1.295368762E+01+
*       4.8292877127E+01               0
GRID*               7935               03.8955223881E+02-2.499932634E+01+
*       4.3301658462E+01               0
GRID*               7936               03.8955223881E+02-3.535259754E+01+
*       3.5358080346E+01               0
GRID*               7937               03.7611940298E+02-3.535259754E+01+
*       3.5358080346E+01               0
GRID*               7938               03.8955223881E+02-4.330592075E+01+
*       2.4991942111E+01               0
GRID*               7939               03.8955223881E+02-4.829689400E+01+
*       1.2938702956E+01               0
GRID*               7940               03.7611940299E+02-4.829689400E+01+
*       1.2938702956E+01               0
GRID*               7941               03.8955223881E+02-4.999999898E+01+
*       1.0082202764E-02               0
GRID*               7942               03.8955223881E+02-4.829548892E+01+
*       -1.294394666E+01               0
GRID*               7943               03.7611940299E+02-4.829548892E+01+
*       -1.294394666E+01               0
GRID*               7944               03.8955223881E+02-4.329622644E+01+
*       -2.500873285E+01               0
GRID*               7945               03.8955223881E+02-3.535863141E+01+
*       -3.535204638E+01               0
GRID*               7946               03.7611940299E+02-3.535863141E+01+
*       -3.535204638E+01               0
GRID*               7947               03.8955223881E+02-2.500268502E+01+
*       -4.329971922E+01               0
GRID*               7948               03.6268656716E+022.5002685023E+01+
*       -4.329971922E+01               0
GRID*               7949               03.6268656716E+023.5358631420E+01+
*       -3.535204637E+01               0
GRID*               7950               03.4925373134E+023.5358631420E+01+
*       -3.535204637E+01               0
GRID*               7951               03.6268656716E+024.3296226464E+01+
*       -2.500873281E+01               0
GRID*               7952               03.6268656716E+024.8295488916E+01+
*       -1.294394666E+01               0
GRID*               7953               03.4925373134E+024.8295488916E+01+
*       -1.294394666E+01               0
GRID*               7954               03.6268656716E+024.9999998981E+01+
*       1.0082234444E-02               0
GRID*               7955               03.6268656716E+024.8296894004E+01+
*       1.2938702959E+01               0
GRID*               7956               03.4925373134E+024.8296894004E+01+
*       1.2938702959E+01               0
GRID*               7957               03.6268656716E+024.3305920746E+01+
*       2.4991942127E+01               0
GRID*               7958               03.6268656716E+023.5352597540E+01+
*       3.5358080348E+01               0
GRID*               7959               03.4925373134E+023.5352597540E+01+
*       3.5358080348E+01               0
GRID*               7960               03.6268656716E+022.4999326339E+01+
*       4.3301658463E+01               0
GRID*               7961               03.6268656716E+021.2953687561E+01+
*       4.8292877147E+01               0
GRID*               7962               03.4925373134E+021.2953687561E+01+
*       4.8292877147E+01               0
GRID*               7963               03.6268656716E+022.1745567112E-14+
*       5.0000000000E+01               0
GRID*               7964               03.6268656716E+02-1.295368762E+01+
*       4.8292877127E+01               0
GRID*               7965               03.4925373134E+02-1.295368762E+01+
*       4.8292877127E+01               0
GRID*               7966               03.6268656716E+02-2.499932634E+01+
*       4.3301658462E+01               0
GRID*               7967               03.6268656716E+02-3.535259754E+01+
*       3.5358080346E+01               0
GRID*               7968               03.4925373134E+02-3.535259754E+01+
*       3.5358080346E+01               0
GRID*               7969               03.6268656716E+02-4.330592076E+01+
*       2.4991942111E+01               0
GRID*               7970               03.6268656716E+02-4.829689400E+01+
*       1.2938702956E+01               0
GRID*               7971               03.4925373134E+02-4.829689400E+01+
*       1.2938702956E+01               0
GRID*               7972               03.6268656716E+02-4.999999898E+01+
*       1.0082202271E-02               0
GRID*               7973               03.6268656716E+02-4.829548892E+01+
*       -1.294394666E+01               0
GRID*               7974               03.4925373134E+02-4.829548892E+01+
*       -1.294394666E+01               0
GRID*               7975               03.6268656716E+02-4.329622644E+01+
*       -2.500873285E+01               0
GRID*               7976               03.6268656716E+02-3.535863141E+01+
*       -3.535204638E+01               0
GRID*               7977               03.4925373134E+02-3.535863141E+01+
*       -3.535204638E+01               0
GRID*               7978               03.6268656716E+02-2.500268502E+01+
*       -4.329971922E+01               0
GRID*               7979               03.3582089552E+022.5002685023E+01+
*       -4.329971922E+01               0
GRID*               7980               03.3582089552E+023.5358631420E+01+
*       -3.535204637E+01               0
GRID*               7981               03.2238805970E+023.5358631420E+01+
*       -3.535204637E+01               0
GRID*               7982               03.3582089552E+024.3296226464E+01+
*       -2.500873281E+01               0
GRID*               7983               03.3582089552E+024.8295488916E+01+
*       -1.294394666E+01               0
GRID*               7984               03.2238805970E+024.8295488916E+01+
*       -1.294394666E+01               0
GRID*               7985               03.3582089552E+024.9999998981E+01+
*       1.0082235295E-02               0
GRID*               7986               03.3582089552E+024.8296894004E+01+
*       1.2938702959E+01               0
GRID*               7987               03.2238805970E+024.8296894004E+01+
*       1.2938702959E+01               0
GRID*               7988               03.3582089552E+024.3305920746E+01+
*       2.4991942127E+01               0
GRID*               7989               03.3582089552E+023.5352597540E+01+
*       3.5358080348E+01               0
GRID*               7990               03.2238805970E+023.5352597540E+01+
*       3.5358080348E+01               0
GRID*               7991               03.3582089552E+022.4999326339E+01+
*       4.3301658463E+01               0
GRID*               7992               03.3582089552E+021.2953687560E+01+
*       4.8292877147E+01               0
GRID*               7993               03.2238805970E+021.2953687560E+01+
*       4.8292877147E+01               0
GRID*               7994               03.3582089552E+023.9433733225E-15+
*       5.0000000000E+01               0
GRID*               7995               03.3582089552E+02-1.295368762E+01+
*       4.8292877126E+01               0
GRID*               7996               03.2238805970E+02-1.295368762E+01+
*       4.8292877126E+01               0
GRID*               7997               03.3582089552E+02-2.499932634E+01+
*       4.3301658462E+01               0
GRID*               7998               03.3582089552E+02-3.535259754E+01+
*       3.5358080346E+01               0
GRID*               7999               03.2238805970E+02-3.535259754E+01+
*       3.5358080346E+01               0
GRID*               8000               03.3582089552E+02-4.330592076E+01+
*       2.4991942111E+01               0
GRID*               8001               03.3582089552E+02-4.829689400E+01+
*       1.2938702956E+01               0
GRID*               8002               03.2238805970E+02-4.829689401E+01+
*       1.2938702956E+01               0
GRID*               8003               03.3582089552E+02-4.999999898E+01+
*       1.0082201807E-02               0
GRID*               8004               03.3582089552E+02-4.829548892E+01+
*       -1.294394666E+01               0
GRID*               8005               03.2238805970E+02-4.829548892E+01+
*       -1.294394666E+01               0
GRID*               8006               03.3582089552E+02-4.329622644E+01+
*       -2.500873285E+01               0
GRID*               8007               03.3582089552E+02-3.535863141E+01+
*       -3.535204638E+01               0
GRID*               8008               03.2238805970E+02-3.535863141E+01+
*       -3.535204638E+01               0
GRID*               8009               03.3582089552E+02-2.500268502E+01+
*       -4.329971922E+01               0
GRID*               8010               03.0895522388E+022.5002685024E+01+
*       -4.329971922E+01               0
GRID*               8011               03.0895522388E+023.5358631420E+01+
*       -3.535204637E+01               0
GRID*               8012               02.9552238806E+023.5358631421E+01+
*       -3.535204637E+01               0
GRID*               8013               03.0895522388E+024.3296226464E+01+
*       -2.500873281E+01               0
GRID*               8014               03.0895522388E+024.8295488916E+01+
*       -1.294394666E+01               0
GRID*               8015               02.9552238806E+024.8295488916E+01+
*       -1.294394666E+01               0
GRID*               8016               03.0895522388E+024.9999998981E+01+
*       1.0082236130E-02               0
GRID*               8017               03.0895522388E+024.8296894004E+01+
*       1.2938702959E+01               0
GRID*               8018               02.9552238806E+024.8296894004E+01+
*       1.2938702959E+01               0
GRID*               8019               03.0895522388E+024.3305920746E+01+
*       2.4991942128E+01               0
GRID*               8020               03.0895522388E+023.5352597540E+01+
*       3.5358080348E+01               0
GRID*               8021               02.9552238806E+023.5352597540E+01+
*       3.5358080348E+01               0
GRID*               8022               03.0895522388E+022.4999326339E+01+
*       4.3301658463E+01               0
GRID*               8023               03.0895522388E+021.2953687559E+01+
*       4.8292877147E+01               0
GRID*               8024               02.9552238806E+021.2953687559E+01+
*       4.8292877147E+01               0
GRID*               8025               03.0895522388E+021.2299505101E-14+
*       5.0000000000E+01               0
GRID*               8026               03.0895522388E+02-1.295368763E+01+
*       4.8292877126E+01               0
GRID*               8027               02.9552238806E+02-1.295368763E+01+
*       4.8292877125E+01               0
GRID*               8028               03.0895522388E+02-2.499932634E+01+
*       4.3301658462E+01               0
GRID*               8029               03.0895522388E+02-3.535259754E+01+
*       3.5358080346E+01               0
GRID*               8030               02.9552238806E+02-3.535259754E+01+
*       3.5358080346E+01               0
GRID*               8031               03.0895522388E+02-4.330592076E+01+
*       2.4991942110E+01               0
GRID*               8032               03.0895522388E+02-4.829689401E+01+
*       1.2938702956E+01               0
GRID*               8033               02.9552238806E+02-4.829689401E+01+
*       1.2938702956E+01               0
GRID*               8034               03.0895522388E+02-4.999999898E+01+
*       1.0082201374E-02               0
GRID*               8035               03.0895522388E+02-4.829548892E+01+
*       -1.294394666E+01               0
GRID*               8036               02.9552238806E+02-4.829548892E+01+
*       -1.294394666E+01               0
GRID*               8037               03.0895522388E+02-4.329622644E+01+
*       -2.500873285E+01               0
GRID*               8038               03.0895522388E+02-3.535863141E+01+
*       -3.535204638E+01               0
GRID*               8039               02.9552238806E+02-3.535863141E+01+
*       -3.535204638E+01               0
GRID*               8040               03.0895522388E+02-2.500268502E+01+
*       -4.329971922E+01               0
GRID*               8041               02.8208955224E+022.5002685024E+01+
*       -4.329971922E+01               0
GRID*               8042               02.8208955224E+023.5358631421E+01+
*       -3.535204637E+01               0
GRID*               8043               02.6865671642E+023.5358631421E+01+
*       -3.535204637E+01               0
GRID*               8044               02.8208955224E+024.3296226465E+01+
*       -2.500873281E+01               0
GRID*               8045               02.8208955224E+024.8295488916E+01+
*       -1.294394666E+01               0
GRID*               8046               02.6865671642E+024.8295488916E+01+
*       -1.294394666E+01               0
GRID*               8047               02.8208955224E+024.9999998981E+01+
*       1.0082236946E-02               0
GRID*               8048               02.8208955224E+024.8296894004E+01+
*       1.2938702959E+01               0
GRID*               8049               02.6865671642E+024.8296894004E+01+
*       1.2938702959E+01               0
GRID*               8050               02.8208955224E+024.3305920746E+01+
*       2.4991942128E+01               0
GRID*               8051               02.8208955224E+023.5352597540E+01+
*       3.5358080348E+01               0
GRID*               8052               02.6865671642E+023.5352597540E+01+
*       3.5358080348E+01               0
GRID*               8053               02.8208955224E+022.4999326339E+01+
*       4.3301658463E+01               0
GRID*               8054               02.8208955224E+021.2953687559E+01+
*       4.8292877148E+01               0
GRID*               8055               02.6865671642E+021.2953687558E+01+
*       4.8292877148E+01               0
GRID*               8056               02.8208955224E+022.1382257034E-14+
*       5.0000000000E+01               0
GRID*               8057               02.8208955224E+02-1.295368763E+01+
*       4.8292877125E+01               0
GRID*               8058               02.6865671642E+02-1.295368763E+01+
*       4.8292877125E+01               0
GRID*               8059               02.8208955224E+02-2.499932634E+01+
*       4.3301658462E+01               0
GRID*               8060               02.8208955224E+02-3.535259754E+01+
*       3.5358080346E+01               0
GRID*               8061               02.6865671642E+02-3.535259754E+01+
*       3.5358080346E+01               0
GRID*               8062               02.8208955224E+02-4.330592076E+01+
*       2.4991942110E+01               0
GRID*               8063               02.8208955224E+02-4.829689401E+01+
*       1.2938702956E+01               0
GRID*               8064               02.6865671642E+02-4.829689401E+01+
*       1.2938702955E+01               0
GRID*               8065               02.8208955224E+02-4.999999898E+01+
*       1.0082200971E-02               0
GRID*               8066               02.8208955224E+02-4.829548892E+01+
*       -1.294394666E+01               0
GRID*               8067               02.6865671642E+02-4.829548892E+01+
*       -1.294394666E+01               0
GRID*               8068               02.8208955224E+02-4.329622644E+01+
*       -2.500873285E+01               0
GRID*               8069               02.8208955224E+02-3.535863141E+01+
*       -3.535204638E+01               0
GRID*               8070               02.6865671642E+02-3.535863141E+01+
*       -3.535204638E+01               0
GRID*               8071               02.8208955224E+02-2.500268502E+01+
*       -4.329971922E+01               0
GRID*               8072               02.5522388060E+022.5002685024E+01+
*       -4.329971922E+01               0
GRID*               8073               02.5522388060E+023.5358631421E+01+
*       -3.535204637E+01               0
GRID*               8074               02.4179104478E+023.5358631421E+01+
*       -3.535204637E+01               0
GRID*               8075               02.5522388060E+024.3296226465E+01+
*       -2.500873281E+01               0
GRID*               8076               02.5522388060E+024.8295488916E+01+
*       -1.294394666E+01               0
GRID*               8077               02.4179104478E+024.8295488916E+01+
*       -1.294394666E+01               0
GRID*               8078               02.5522388060E+024.9999998981E+01+
*       1.0082237739E-02               0
GRID*               8079               02.5522388060E+024.8296894004E+01+
*       1.2938702959E+01               0
GRID*               8080               02.4179104478E+024.8296894004E+01+
*       1.2938702959E+01               0
GRID*               8081               02.5522388060E+024.3305920746E+01+
*       2.4991942128E+01               0
GRID*               8082               02.5522388060E+023.5352597540E+01+
*       3.5358080348E+01               0
GRID*               8083               02.4179104478E+023.5352597540E+01+
*       3.5358080348E+01               0
GRID*               8084               02.5522388060E+022.4999326339E+01+
*       4.3301658463E+01               0
GRID*               8085               02.5522388060E+021.2953687558E+01+
*       4.8292877148E+01               0
GRID*               8086               02.4179104478E+021.2953687558E+01+
*       4.8292877148E+01               0
GRID*               8087               02.5522388060E+023.0828319045E-14+
*       5.0000000000E+01               0
GRID*               8088               02.5522388060E+02-1.295368763E+01+
*       4.8292877125E+01               0
GRID*               8089               02.4179104478E+02-1.295368763E+01+
*       4.8292877125E+01               0
GRID*               8090               02.5522388060E+02-2.499932634E+01+
*       4.3301658462E+01               0
GRID*               8091               02.5522388060E+02-3.535259754E+01+
*       3.5358080346E+01               0
GRID*               8092               02.4179104478E+02-3.535259754E+01+
*       3.5358080346E+01               0
GRID*               8093               02.5522388060E+02-4.330592076E+01+
*       2.4991942109E+01               0
GRID*               8094               02.5522388060E+02-4.829689401E+01+
*       1.2938702955E+01               0
GRID*               8095               02.4179104478E+02-4.829689401E+01+
*       1.2938702955E+01               0
GRID*               8096               02.5522388060E+02-4.999999898E+01+
*       1.0082200600E-02               0
GRID*               8097               02.5522388060E+02-4.829548892E+01+
*       -1.294394666E+01               0
GRID*               8098               02.4179104478E+02-4.829548892E+01+
*       -1.294394666E+01               0
GRID*               8099               02.5522388060E+02-4.329622644E+01+
*       -2.500873285E+01               0
GRID*               8100               02.5522388060E+02-3.535863141E+01+
*       -3.535204638E+01               0
GRID*               8101               02.4179104478E+02-3.535863141E+01+
*       -3.535204638E+01               0
GRID*               8102               02.5522388060E+02-2.500268502E+01+
*       -4.329971922E+01               0
GRID*               8103               02.2835820896E+022.5002685024E+01+
*       -4.329971922E+01               0
GRID*               8104               02.2835820896E+023.5358631421E+01+
*       -3.535204637E+01               0
GRID*               8105               02.1492537313E+023.5358631421E+01+
*       -3.535204637E+01               0
GRID*               8106               02.2835820895E+024.3296226465E+01+
*       -2.500873281E+01               0
GRID*               8107               02.2835820895E+024.8295488916E+01+
*       -1.294394666E+01               0
GRID*               8108               02.1492537313E+024.8295488916E+01+
*       -1.294394666E+01               0
GRID*               8109               02.2835820896E+024.9999998981E+01+
*       1.0082238503E-02               0
GRID*               8110               02.2835820896E+024.8296894004E+01+
*       1.2938702959E+01               0
GRID*               8111               02.1492537313E+024.8296894004E+01+
*       1.2938702959E+01               0
GRID*               8112               02.2835820895E+024.3305920746E+01+
*       2.4991942128E+01               0
GRID*               8113               02.2835820896E+023.5352597540E+01+
*       3.5358080348E+01               0
GRID*               8114               02.1492537313E+023.5352597540E+01+
*       3.5358080348E+01               0
GRID*               8115               02.2835820896E+022.4999326339E+01+
*       4.3301658463E+01               0
GRID*               8116               02.2835820895E+021.2953687557E+01+
*       4.8292877148E+01               0
GRID*               8117               02.1492537313E+021.2953687557E+01+
*       4.8292877148E+01               0
GRID*               8118               02.2835820896E+02-1.785523132E-14+
*       5.0000000000E+01               0
GRID*               8119               02.2835820896E+02-1.295368763E+01+
*       4.8292877124E+01               0
GRID*               8120               02.1492537313E+02-1.295368763E+01+
*       4.8292877124E+01               0
GRID*               8121               02.2835820896E+02-2.499932634E+01+
*       4.3301658462E+01               0
GRID*               8122               02.2835820895E+02-3.535259754E+01+
*       3.5358080346E+01               0
GRID*               8123               02.1492537313E+02-3.535259754E+01+
*       3.5358080346E+01               0
GRID*               8124               02.2835820896E+02-4.330592076E+01+
*       2.4991942109E+01               0
GRID*               8125               02.2835820896E+02-4.829689401E+01+
*       1.2938702955E+01               0
GRID*               8126               02.1492537313E+02-4.829689401E+01+
*       1.2938702955E+01               0
GRID*               8127               02.2835820896E+02-4.999999898E+01+
*       1.0082200262E-02               0
GRID*               8128               02.2835820896E+02-4.829548892E+01+
*       -1.294394666E+01               0
GRID*               8129               02.1492537313E+02-4.829548892E+01+
*       -1.294394666E+01               0
GRID*               8130               02.2835820896E+02-4.329622644E+01+
*       -2.500873285E+01               0
GRID*               8131               02.2835820896E+02-3.535863141E+01+
*       -3.535204638E+01               0
GRID*               8132               02.1492537313E+02-3.535863141E+01+
*       -3.535204638E+01               0
GRID*               8133               02.2835820896E+02-2.500268502E+01+
*       -4.329971922E+01               0
GRID*               8134               02.0149253731E+022.5002685024E+01+
*       -4.329971922E+01               0
GRID*               8135               02.0149253731E+023.5358631421E+01+
*       -3.535204637E+01               0
GRID*               8136               01.8805970149E+023.5358631421E+01+
*       -3.535204637E+01               0
GRID*               8137               02.0149253731E+024.3296226465E+01+
*       -2.500873281E+01               0
GRID*               8138               02.0149253731E+024.8295488916E+01+
*       -1.294394666E+01               0
GRID*               8139               01.8805970149E+024.8295488916E+01+
*       -1.294394666E+01               0
GRID*               8140               02.0149253731E+024.9999998981E+01+
*       1.0082239231E-02               0
GRID*               8141               02.0149253731E+024.8296894004E+01+
*       1.2938702959E+01               0
GRID*               8142               01.8805970149E+024.8296894004E+01+
*       1.2938702959E+01               0
GRID*               8143               02.0149253731E+024.3305920746E+01+
*       2.4991942128E+01               0
GRID*               8144               02.0149253731E+023.5352597540E+01+
*       3.5358080348E+01               0
GRID*               8145               01.8805970149E+023.5352597540E+01+
*       3.5358080348E+01               0
GRID*               8146               02.0149253731E+022.4999326339E+01+
*       4.3301658463E+01               0
GRID*               8147               02.0149253731E+021.2953687557E+01+
*       4.8292877148E+01               0
GRID*               8148               01.8805970149E+021.2953687557E+01+
*       4.8292877148E+01               0
GRID*               8149               02.0149253731E+02-6.774273959E-15+
*       5.0000000000E+01               0
GRID*               8150               02.0149253731E+02-1.295368763E+01+
*       4.8292877124E+01               0
GRID*               8151               01.8805970149E+02-1.295368763E+01+
*       4.8292877124E+01               0
GRID*               8152               02.0149253731E+02-2.499932634E+01+
*       4.3301658462E+01               0
GRID*               8153               02.0149253731E+02-3.535259754E+01+
*       3.5358080346E+01               0
GRID*               8154               01.8805970149E+02-3.535259754E+01+
*       3.5358080346E+01               0
GRID*               8155               02.0149253731E+02-4.330592076E+01+
*       2.4991942109E+01               0
GRID*               8156               02.0149253731E+02-4.829689401E+01+
*       1.2938702955E+01               0
GRID*               8157               01.8805970149E+02-4.829689401E+01+
*       1.2938702955E+01               0
GRID*               8158               02.0149253731E+02-4.999999898E+01+
*       1.0082199958E-02               0
GRID*               8159               02.0149253731E+02-4.829548892E+01+
*       -1.294394666E+01               0
GRID*               8160               01.8805970149E+02-4.829548892E+01+
*       -1.294394666E+01               0
GRID*               8161               02.0149253731E+02-4.329622644E+01+
*       -2.500873285E+01               0
GRID*               8162               02.0149253731E+02-3.535863141E+01+
*       -3.535204638E+01               0
GRID*               8163               01.8805970149E+02-3.535863141E+01+
*       -3.535204638E+01               0
GRID*               8164               02.0149253731E+02-2.500268502E+01+
*       -4.329971922E+01               0
GRID*               8165               01.7462686567E+022.5002685024E+01+
*       -4.329971922E+01               0
GRID*               8166               01.7462686567E+023.5358631421E+01+
*       -3.535204637E+01               0
GRID*               8167               01.6119402985E+023.5358631421E+01+
*       -3.535204637E+01               0
GRID*               8168               01.7462686567E+024.3296226465E+01+
*       -2.500873281E+01               0
GRID*               8169               01.7462686567E+024.8295488916E+01+
*       -1.294394666E+01               0
GRID*               8170               01.6119402985E+024.8295488916E+01+
*       -1.294394666E+01               0
GRID*               8171               01.7462686567E+024.9999998981E+01+
*       1.0082239913E-02               0
GRID*               8172               01.7462686567E+024.8296894004E+01+
*       1.2938702959E+01               0
GRID*               8173               01.6119402985E+024.8296894004E+01+
*       1.2938702959E+01               0
GRID*               8174               01.7462686567E+024.3305920746E+01+
*       2.4991942128E+01               0
GRID*               8175               01.7462686567E+023.5352597540E+01+
*       3.5358080348E+01               0
GRID*               8176               01.6119402985E+023.5352597540E+01+
*       3.5358080348E+01               0
GRID*               8177               01.7462686567E+022.4999326339E+01+
*       4.3301658463E+01               0
GRID*               8178               01.7462686567E+021.2953687556E+01+
*       4.8292877148E+01               0
GRID*               8179               01.6119402985E+021.2840181459E+01+
*       4.7882365169E+01               0
GRID*               8180               01.7462686567E+021.2185477426E-15+
*       5.0000000000E+01               0
GRID*               8181               01.7462686567E+02-1.295368763E+01+
*       4.8292877123E+01               0
GRID*               8182               01.6119402985E+02-1.295368763E+01+
*       4.8292877123E+01               0
GRID*               8183               01.7462686567E+02-2.499932634E+01+
*       4.3301658462E+01               0
GRID*               8184               01.7462686567E+02-3.535259754E+01+
*       3.5358080346E+01               0
GRID*               8185               01.6119402985E+02-3.535259754E+01+
*       3.5358080346E+01               0
GRID*               8186               01.7462686567E+02-4.330592076E+01+
*       2.4991942108E+01               0
GRID*               8187               01.7462686567E+02-4.829689401E+01+
*       1.2938702955E+01               0
GRID*               8188               01.6119402985E+02-4.829689401E+01+
*       1.2938702955E+01               0
GRID*               8189               01.7462686567E+02-4.999999898E+01+
*       1.0082199689E-02               0
GRID*               8190               01.7462686567E+02-4.829548892E+01+
*       -1.294394666E+01               0
GRID*               8191               01.6119402985E+02-4.829548892E+01+
*       -1.294394666E+01               0
GRID*               8192               01.7462686567E+02-4.329622644E+01+
*       -2.500873285E+01               0
GRID*               8193               01.7462686567E+02-3.535863141E+01+
*       -3.535204638E+01               0
GRID*               8194               01.6119402985E+02-3.535863141E+01+
*       -3.535204638E+01               0
GRID*               8195               01.7462686567E+02-2.500268502E+01+
*       -4.329971922E+01               0
GRID*               8196               01.4776119403E+022.5002685024E+01+
*       -4.329971922E+01               0
GRID*               8197               01.4776119403E+023.5358631421E+01+
*       -3.535204637E+01               0
GRID*               8198               01.3432835821E+023.5358631422E+01+
*       -3.535204637E+01               0
GRID*               8199               01.4776119403E+024.3296226466E+01+
*       -2.500873281E+01               0
GRID*               8200               01.4776119403E+024.8295488916E+01+
*       -1.294394666E+01               0
GRID*               8201               01.3432835821E+024.8295488916E+01+
*       -1.294394666E+01               0
GRID*               8202               01.4776119403E+024.9999998981E+01+
*       1.0082240528E-02               0
GRID*               8203               01.4776119403E+024.8296894004E+01+
*       1.2938702959E+01               0
GRID*               8204               01.3432835821E+024.8296894004E+01+
*       1.2938702959E+01               0
GRID*               8205               01.4776119403E+024.3305920746E+01+
*       2.4991942128E+01               0
GRID*               8206               01.4776119403E+023.5352597540E+01+
*       3.5358080348E+01               0
GRID*               8207               01.3432835821E+023.5352597540E+01+
*       3.5358080348E+01               0
GRID*               8208               01.4776119403E+022.4999326339E+01+
*       4.3301658463E+01               0
GRID*               8209               01.4776119403E+021.2953687556E+01+
*       4.8292877148E+01               0
GRID*               8210               01.3432835821E+021.2953687556E+01+
*       4.8292877149E+01               0
GRID*               8211               01.4776119403E+021.2117850062E-14+
*       5.0000000000E+01               0
GRID*               8212               01.4776119403E+02-1.295368763E+01+
*       4.8292877123E+01               0
GRID*               8213               01.3432835821E+02-1.295368763E+01+
*       4.8292877123E+01               0
GRID*               8214               01.4776119403E+02-2.499932634E+01+
*       4.3301658462E+01               0
GRID*               8215               01.4776119403E+02-3.535259754E+01+
*       3.5358080346E+01               0
GRID*               8216               01.3432835821E+02-3.535259754E+01+
*       3.5358080346E+01               0
GRID*               8217               01.4776119403E+02-4.330592076E+01+
*       2.4991942108E+01               0
GRID*               8218               01.4776119403E+02-4.829689401E+01+
*       1.2938702955E+01               0
GRID*               8219               01.3432835821E+02-4.829689401E+01+
*       1.2938702955E+01               0
GRID*               8220               01.4776119403E+02-4.999999898E+01+
*       1.0082199455E-02               0
GRID*               8221               01.4776119403E+02-4.829548892E+01+
*       -1.294394666E+01               0
GRID*               8222               01.3432835821E+02-4.829548892E+01+
*       -1.294394666E+01               0
GRID*               8223               01.4776119403E+02-4.329622644E+01+
*       -2.500873286E+01               0
GRID*               8224               01.4776119403E+02-3.535863141E+01+
*       -3.535204638E+01               0
GRID*               8225               01.3432835821E+02-3.535863141E+01+
*       -3.535204638E+01               0
GRID*               8226               01.4776119403E+02-2.500268502E+01+
*       -4.329971922E+01               0
GRID*               8227               01.2089552239E+022.5002685024E+01+
*       -4.329971922E+01               0
GRID*               8228               01.2089552239E+023.5358631422E+01+
*       -3.535204637E+01               0
GRID*               8229               01.0746268657E+023.5358631422E+01+
*       -3.535204637E+01               0
GRID*               8230               01.2089552239E+024.3296226466E+01+
*       -2.500873281E+01               0
GRID*               8231               01.2089552239E+024.8295488916E+01+
*       -1.294394666E+01               0
GRID*               8232               01.0746268657E+024.8295488916E+01+
*       -1.294394666E+01               0
GRID*               8233               01.2089552239E+024.9999998981E+01+
*       1.0082241042E-02               0
GRID*               8234               01.2089552239E+024.8296894004E+01+
*       1.2938702959E+01               0
GRID*               8235               01.0746268657E+024.8296894004E+01+
*       1.2938702959E+01               0
GRID*               8236               01.2089552239E+024.3305920746E+01+
*       2.4991942129E+01               0
GRID*               8237               01.2089552239E+023.5352597540E+01+
*       3.5358080348E+01               0
GRID*               8238               01.0746268657E+023.5352597540E+01+
*       3.5358080348E+01               0
GRID*               8239               01.2089552239E+022.4999326339E+01+
*       4.3301658463E+01               0
GRID*               8240               01.2089552239E+021.2953687555E+01+
*       4.8292877149E+01               0
GRID*               8241               01.0746268657E+021.2953687555E+01+
*       4.8292877149E+01               0
GRID*               8242               01.2089552239E+022.0473981841E-14+
*       5.0000000000E+01               0
GRID*               8243               01.2089552239E+02-1.295368763E+01+
*       4.8292877123E+01               0
GRID*               8244               01.0746268657E+02-1.295368763E+01+
*       4.8292877123E+01               0
GRID*               8245               01.2089552239E+02-2.499932634E+01+
*       4.3301658462E+01               0
GRID*               8246               01.2089552239E+02-3.535259754E+01+
*       3.5358080346E+01               0
GRID*               8247               01.0746268657E+02-3.535259754E+01+
*       3.5358080346E+01               0
GRID*               8248               01.2089552239E+02-4.330592076E+01+
*       2.4991942108E+01               0
GRID*               8249               01.2089552239E+02-4.829689401E+01+
*       1.2938702955E+01               0
GRID*               8250               01.0746268657E+02-4.829689401E+01+
*       1.2938702955E+01               0
GRID*               8251               01.2089552239E+02-4.999999898E+01+
*       1.0082199258E-02               0
GRID*               8252               01.2089552239E+02-4.829548892E+01+
*       -1.294394666E+01               0
GRID*               8253               01.0746268657E+02-4.829548892E+01+
*       -1.294394666E+01               0
GRID*               8254               01.2089552239E+02-4.329622643E+01+
*       -2.500873286E+01               0
GRID*               8255               01.2089552239E+02-3.535863141E+01+
*       -3.535204638E+01               0
GRID*               8256               01.0746268657E+02-3.535863141E+01+
*       -3.535204638E+01               0
GRID*               8257               01.2089552239E+02-2.500268502E+01+
*       -4.329971922E+01               0
GRID*               8258               09.4029850746E+012.5002685024E+01+
*       -4.329971922E+01               0
GRID*               8259               09.4029850746E+013.5358631422E+01+
*       -3.535204637E+01               0
GRID*               8260               08.0597014925E+013.5358631422E+01+
*       -3.535204637E+01               0
GRID*               8261               09.4029850746E+014.3296226466E+01+
*       -2.500873281E+01               0
GRID*               8262               09.4029850746E+014.8295488916E+01+
*       -1.294394666E+01               0
GRID*               8263               08.0597014925E+014.8295488916E+01+
*       -1.294394666E+01               0
GRID*               8264               09.4029850746E+014.9999998981E+01+
*       1.0082241380E-02               0
GRID*               8265               09.4029850746E+014.8296894004E+01+
*       1.2938702959E+01               0
GRID*               8266               08.0597014925E+014.8296894004E+01+
*       1.2938702959E+01               0
GRID*               8267               09.4029850746E+014.3305920746E+01+
*       2.4991942129E+01               0
GRID*               8268               09.4029850746E+013.5352597540E+01+
*       3.5358080348E+01               0
GRID*               8269               08.0597014925E+013.5352597540E+01+
*       3.5358080348E+01               0
GRID*               8270               09.4029850746E+012.4999326339E+01+
*       4.3301658463E+01               0
GRID*               8271               09.4029850746E+011.2953687555E+01+
*       4.8292877149E+01               0
GRID*               8272               08.0597014925E+011.2953687555E+01+
*       4.8292877149E+01               0
GRID*               8273               09.4029850746E+01-2.766460340E-14+
*       5.0000000000E+01               0
GRID*               8274               09.4029850747E+01-1.295368764E+01+
*       4.8292877123E+01               0
GRID*               8275               08.0597014926E+01-1.295368764E+01+
*       4.8292877123E+01               0
GRID*               8276               09.4029850746E+01-2.499932634E+01+
*       4.3301658462E+01               0
GRID*               8277               09.4029850746E+01-3.535259754E+01+
*       3.5358080346E+01               0
GRID*               8278               08.0597014925E+01-3.535259754E+01+
*       3.5358080346E+01               0
GRID*               8279               09.4029850746E+01-4.330592076E+01+
*       2.4991942108E+01               0
GRID*               8280               09.4029850746E+01-4.829689401E+01+
*       1.2938702955E+01               0
GRID*               8281               08.0597014925E+01-4.829689401E+01+
*       1.2938702955E+01               0
GRID*               8282               09.4029850746E+01-4.999999898E+01+
*       1.0082199098E-02               0
GRID*               8283               09.4029850747E+01-4.829548892E+01+
*       -1.294394666E+01               0
GRID*               8284               08.0597014926E+01-4.829548892E+01+
*       -1.294394666E+01               0
GRID*               8285               09.4029850746E+01-4.329622643E+01+
*       -2.500873286E+01               0
GRID*               8286               09.4029850746E+01-3.535863141E+01+
*       -3.535204638E+01               0
GRID*               8287               08.0597014925E+01-3.535863141E+01+
*       -3.535204638E+01               0
GRID*               8288               09.4029850746E+01-2.500268502E+01+
*       -4.329971922E+01               0
GRID*               8289               06.7164179104E+012.5002685024E+01+
*       -4.329971922E+01               0
GRID*               8290               06.7164179105E+013.5358631422E+01+
*       -3.535204637E+01               0
GRID*               8291               05.3731343284E+013.5358631422E+01+
*       -3.535204637E+01               0
GRID*               8292               06.7164179104E+014.3296226466E+01+
*       -2.500873281E+01               0
GRID*               8293               06.7164179104E+014.8295488916E+01+
*       -1.294394666E+01               0
GRID*               8294               05.3731343283E+014.8295488916E+01+
*       -1.294394666E+01               0
GRID*               8295               06.7164179105E+014.9999998981E+01+
*       1.0082241352E-02               0
GRID*               8296               06.7164179104E+014.8296894004E+01+
*       1.2938702959E+01               0
GRID*               8297               05.3731343284E+014.8296894004E+01+
*       1.2938702959E+01               0
GRID*               8298               06.7164179104E+014.3305920746E+01+
*       2.4991942129E+01               0
GRID*               8299               06.7164179105E+013.5352597540E+01+
*       3.5358080348E+01               0
GRID*               8300               05.3731343284E+013.5352597540E+01+
*       3.5358080348E+01               0
GRID*               8301               06.7164179104E+012.4999326339E+01+
*       4.3301658463E+01               0
GRID*               8302               06.7164179104E+011.2953687555E+01+
*       4.8292877149E+01               0
GRID*               8303               05.3731343283E+011.2953687555E+01+
*       4.8292877149E+01               0
GRID*               8304               06.7164179104E+01-7.344167315E-14+
*       5.0000000000E+01               0
GRID*               8305               06.7164179105E+01-1.295368763E+01+
*       4.8292877123E+01               0
GRID*               8306               05.3731343284E+01-1.295368763E+01+
*       4.8292877123E+01               0
GRID*               8307               06.7164179104E+01-2.499932634E+01+
*       4.3301658462E+01               0
GRID*               8308               06.7164179104E+01-3.535259754E+01+
*       3.5358080346E+01               0
GRID*               8309               05.3731343283E+01-3.535259754E+01+
*       3.5358080346E+01               0
GRID*               8310               06.7164179105E+01-4.330592076E+01+
*       2.4991942108E+01               0
GRID*               8311               06.7164179105E+01-4.829689401E+01+
*       1.2938702955E+01               0
GRID*               8312               05.3731343284E+01-4.829689401E+01+
*       1.2938702955E+01               0
GRID*               8313               06.7164179104E+01-4.999999898E+01+
*       1.0082198977E-02               0
GRID*               8314               06.7164179105E+01-4.829548892E+01+
*       -1.294394666E+01               0
GRID*               8315               05.3731343284E+01-4.829548892E+01+
*       -1.294394666E+01               0
GRID*               8316               06.7164179105E+01-4.329622643E+01+
*       -2.500873286E+01               0
GRID*               8317               06.7164179104E+01-3.535863141E+01+
*       -3.535204638E+01               0
GRID*               8318               05.3731343284E+01-3.535863141E+01+
*       -3.535204638E+01               0
GRID*               8319               06.7164179104E+01-2.500268502E+01+
*       -4.329971922E+01               0
GRID*               8320               04.0298507463E+012.5002685024E+01+
*       -4.329971922E+01               0
GRID*               8321               04.0298507463E+013.5358631422E+01+
*       -3.535204637E+01               0
GRID*               8322               02.6865671642E+013.5358631422E+01+
*       -3.535204637E+01               0
GRID*               8323               04.0298507462E+014.3296226466E+01+
*       -2.500873281E+01               0
GRID*               8324               04.0298507462E+014.8295488916E+01+
*       -1.294394666E+01               0
GRID*               8325               02.6865671641E+014.8295488916E+01+
*       -1.294394666E+01               0
GRID*               8326               04.0298507463E+014.9999998981E+01+
*       1.0082240259E-02               0
GRID*               8327               04.0298507463E+014.8296894004E+01+
*       1.2938702959E+01               0
GRID*               8328               02.6865671642E+014.8296894004E+01+
*       1.2938702959E+01               0
GRID*               8329               04.0298507462E+014.3305920746E+01+
*       2.4991942129E+01               0
GRID*               8330               04.0298507463E+013.5352597540E+01+
*       3.5358080348E+01               0
GRID*               8331               02.6865671642E+013.5352597540E+01+
*       3.5358080348E+01               0
GRID*               8332               04.0298507463E+012.4999326339E+01+
*       4.3301658463E+01               0
GRID*               8333               04.0298507462E+011.2953687555E+01+
*       4.8292877149E+01               0
GRID*               8334               02.6865671641E+011.2953687555E+01+
*       4.8292877149E+01               0
GRID*               8335               04.0298507463E+01-3.529411503E-14+
*       5.0000000000E+01               0
GRID*               8336               04.0298507463E+01-1.295368763E+01+
*       4.8292877123E+01               0
GRID*               8337               02.6865671642E+01-1.295368763E+01+
*       4.8292877125E+01               0
GRID*               8338               04.0298507463E+01-2.499932634E+01+
*       4.3301658462E+01               0
GRID*               8339               04.0298507462E+01-3.535259754E+01+
*       3.5358080346E+01               0
GRID*               8340               02.6865671642E+01-3.535259754E+01+
*       3.5358080346E+01               0
GRID*               8341               04.0298507463E+01-4.330592076E+01+
*       2.4991942109E+01               0
GRID*               8342               04.0298507463E+01-4.829689401E+01+
*       1.2938702955E+01               0
GRID*               8343               02.6865671642E+01-4.829689401E+01+
*       1.2938702955E+01               0
GRID*               8344               04.0298507463E+01-4.999999898E+01+
*       1.0082198895E-02               0
GRID*               8345               04.0298507463E+01-4.829548892E+01+
*       -1.294394666E+01               0
GRID*               8346               02.6865671642E+01-4.829548892E+01+
*       -1.294394666E+01               0
GRID*               8347               04.0298507463E+01-4.329622643E+01+
*       -2.500873286E+01               0
GRID*               8348               04.0298507463E+01-3.535863141E+01+
*       -3.535204638E+01               0
GRID*               8349               02.6865671642E+01-3.535863141E+01+
*       -3.535204638E+01               0
GRID*               8350               04.0298507463E+01-2.500268502E+01+
*       -4.329971922E+01               0
GRID*               8351               01.7731343284E+031.2931214921E+01+
*       -4.829889942E+01               0
GRID*               8352               01.7865671642E+031.2931214927E+01+
*       -4.829889942E+01               0
GRID*               8353               01.7865671642E+032.5002685023E+01+
*       -4.329971922E+01               0
GRID*               8354               01.7462686567E+031.2931214918E+01+
*       -4.829889942E+01               0
GRID*               8355               01.7597014925E+031.2931214919E+01+
*       -4.829889942E+01               0
GRID*               8356               01.7194029851E+031.2931214917E+01+
*       -4.829889942E+01               0
GRID*               8357               01.7328358209E+031.2931214917E+01+
*       -4.829889942E+01               0
GRID*               8358               01.6925373134E+031.2931214917E+01+
*       -4.829889942E+01               0
GRID*               8359               01.7059701493E+031.2931214917E+01+
*       -4.829889942E+01               0
GRID*               8360               01.6656716418E+031.2931214918E+01+
*       -4.829889942E+01               0
GRID*               8361               01.6791044776E+031.2931214918E+01+
*       -4.829889942E+01               0
GRID*               8362               01.6388059701E+031.2931214918E+01+
*       -4.829889942E+01               0
GRID*               8363               01.6522388060E+031.2931214918E+01+
*       -4.829889942E+01               0
GRID*               8364               01.6119402985E+031.2931214919E+01+
*       -4.829889942E+01               0
GRID*               8365               01.6253731343E+031.2931214918E+01+
*       -4.829889942E+01               0
GRID*               8366               01.5850746269E+031.2931214919E+01+
*       -4.829889942E+01               0
GRID*               8367               01.5985074627E+031.2931214919E+01+
*       -4.829889942E+01               0
GRID*               8368               01.5582089552E+031.2931214920E+01+
*       -4.829889942E+01               0
GRID*               8369               01.5716417910E+031.2931214919E+01+
*       -4.829889942E+01               0
GRID*               8370               01.5313432836E+031.2931214920E+01+
*       -4.829889942E+01               0
GRID*               8371               01.5447761194E+031.2931214920E+01+
*       -4.829889942E+01               0
GRID*               8372               01.5044776119E+031.2931214921E+01+
*       -4.829889942E+01               0
GRID*               8373               01.5179104478E+031.2931214921E+01+
*       -4.829889942E+01               0
GRID*               8374               01.4776119403E+031.2931214922E+01+
*       -4.829889942E+01               0
GRID*               8375               01.4910447761E+031.2931214921E+01+
*       -4.829889942E+01               0
GRID*               8376               01.4507462687E+031.2931214922E+01+
*       -4.829889942E+01               0
GRID*               8377               01.4641791045E+031.2931214922E+01+
*       -4.829889942E+01               0
GRID*               8378               01.4238805970E+031.2931214923E+01+
*       -4.829889942E+01               0
GRID*               8379               01.4373134328E+031.2931214923E+01+
*       -4.829889942E+01               0
GRID*               8380               01.3970149254E+031.2931214924E+01+
*       -4.829889942E+01               0
GRID*               8381               01.4104477612E+031.2931214923E+01+
*       -4.829889942E+01               0
GRID*               8382               01.3701492537E+031.2931214925E+01+
*       -4.829889942E+01               0
GRID*               8383               01.3835820896E+031.2931214924E+01+
*       -4.829889942E+01               0
GRID*               8384               01.3432835821E+031.2931214925E+01+
*       -4.829889942E+01               0
GRID*               8385               01.3567164179E+031.2931214925E+01+
*       -4.829889942E+01               0
GRID*               8386               01.3164179104E+031.2931214926E+01+
*       -4.829889942E+01               0
GRID*               8387               01.3298507463E+031.2931214926E+01+
*       -4.829889942E+01               0
GRID*               8388               01.2895522388E+031.2931214927E+01+
*       -4.829889942E+01               0
GRID*               8389               01.3029850746E+031.2931214926E+01+
*       -4.829889942E+01               0
GRID*               8390               01.2626865672E+031.2931214927E+01+
*       -4.829889942E+01               0
GRID*               8391               01.2761194030E+031.2931214927E+01+
*       -4.829889942E+01               0
GRID*               8392               01.2358208955E+031.2931214928E+01+
*       -4.829889942E+01               0
GRID*               8393               01.2492537313E+031.2931214928E+01+
*       -4.829889942E+01               0
GRID*               8394               01.2089552239E+031.2931214929E+01+
*       -4.829889942E+01               0
GRID*               8395               01.2223880597E+031.2931214929E+01+
*       -4.829889942E+01               0
GRID*               8396               01.1820895522E+031.2931214930E+01+
*       -4.829889942E+01               0
GRID*               8397               01.1955223881E+031.2931214929E+01+
*       -4.829889942E+01               0
GRID*               8398               01.1552238806E+031.2931214930E+01+
*       -4.829889942E+01               0
GRID*               8399               01.1686567164E+031.2931214930E+01+
*       -4.829889942E+01               0
GRID*               8400               01.1283582090E+031.2931214931E+01+
*       -4.829889942E+01               0
GRID*               8401               01.1417910448E+031.2931214931E+01+
*       -4.829889942E+01               0
GRID*               8402               01.1014925373E+031.2931214932E+01+
*       -4.829889942E+01               0
GRID*               8403               01.1149253731E+031.2931214932E+01+
*       -4.829889942E+01               0
GRID*               8404               01.0746268657E+031.2931214933E+01+
*       -4.829889942E+01               0
GRID*               8405               01.0880597015E+031.2931214932E+01+
*       -4.829889942E+01               0
GRID*               8406               01.0477611940E+031.2931214933E+01+
*       -4.829889942E+01               0
GRID*               8407               01.0611940299E+031.2931214933E+01+
*       -4.829889942E+01               0
GRID*               8408               01.0208955224E+031.2931214934E+01+
*       -4.829889942E+01               0
GRID*               8409               01.0343283582E+031.2931214934E+01+
*       -4.829889942E+01               0
GRID*               8410               09.9402985075E+021.2931214935E+01+
*       -4.829889942E+01               0
GRID*               8411               01.0074626866E+031.2931214935E+01+
*       -4.829889942E+01               0
GRID*               8412               09.6716417910E+021.2931214936E+01+
*       -4.829889942E+01               0
GRID*               8413               09.8059701493E+021.2931214935E+01+
*       -4.829889942E+01               0
GRID*               8414               09.4029850746E+021.2931214936E+01+
*       -4.829889942E+01               0
GRID*               8415               09.5373134328E+021.2931214936E+01+
*       -4.829889942E+01               0
GRID*               8416               09.1343283582E+021.2931214937E+01+
*       -4.829889942E+01               0
GRID*               8417               09.2686567164E+021.2931214937E+01+
*       -4.829889942E+01               0
GRID*               8418               08.8656716418E+021.2931214938E+01+
*       -4.829889942E+01               0
GRID*               8419               09.0000000000E+021.2931214937E+01+
*       -4.829889942E+01               0
GRID*               8420               08.5970149254E+021.2931214939E+01+
*       -4.829889942E+01               0
GRID*               8421               08.7313432836E+021.2931214938E+01+
*       -4.829889942E+01               0
GRID*               8422               08.3283582090E+021.2931214939E+01+
*       -4.829889942E+01               0
GRID*               8423               08.4626865672E+021.2931214939E+01+
*       -4.829889942E+01               0
GRID*               8424               08.0597014925E+021.2931214940E+01+
*       -4.829889942E+01               0
GRID*               8425               08.1940298507E+021.2931214940E+01+
*       -4.829889942E+01               0
GRID*               8426               07.7910447761E+021.2931214941E+01+
*       -4.829889942E+01               0
GRID*               8427               07.9253731343E+021.2931214940E+01+
*       -4.829889942E+01               0
GRID*               8428               07.5223880597E+021.2931214941E+01+
*       -4.829889942E+01               0
GRID*               8429               07.6567164179E+021.2931214941E+01+
*       -4.829889942E+01               0
GRID*               8430               07.2537313433E+021.2931214942E+01+
*       -4.829889942E+01               0
GRID*               8431               07.3880597015E+021.2931214942E+01+
*       -4.829889942E+01               0
GRID*               8432               07.1194029851E+021.2931214942E+01+
*       -4.829889942E+01               0
GRID*               8433               06.9850746269E+021.2931214942E+01+
*       -4.829889942E+01               0
GRID*               8434               06.8507462687E+021.2931214943E+01+
*       -4.829889942E+01               0
GRID*               8435               06.7164179104E+021.2931214943E+01+
*       -4.829889942E+01               0
GRID*               8436               06.5820895522E+021.2931214943E+01+
*       -4.829889942E+01               0
GRID*               8437               06.4477611940E+021.2931214944E+01+
*       -4.829889942E+01               0
GRID*               8438               06.3134328358E+021.2931214944E+01+
*       -4.829889942E+01               0
GRID*               8439               06.1791044776E+021.2931214944E+01+
*       -4.829889942E+01               0
GRID*               8440               06.0447761194E+021.2931214945E+01+
*       -4.829889942E+01               0
GRID*               8441               05.9104477612E+021.2931214945E+01+
*       -4.829889942E+01               0
GRID*               8442               05.7761194030E+021.2931214945E+01+
*       -4.829889942E+01               0
GRID*               8443               05.6417910448E+021.2931214945E+01+
*       -4.829889942E+01               0
GRID*               8444               05.5074626866E+021.2931214946E+01+
*       -4.829889942E+01               0
GRID*               8445               05.3731343284E+021.2931214946E+01+
*       -4.829889941E+01               0
GRID*               8446               05.2388059701E+021.2931214946E+01+
*       -4.829889941E+01               0
GRID*               8447               05.1044776119E+021.2931214946E+01+
*       -4.829889941E+01               0
GRID*               8448               04.9701492537E+021.2931214947E+01+
*       -4.829889941E+01               0
GRID*               8449               04.8358208955E+021.2931214947E+01+
*       -4.829889941E+01               0
GRID*               8450               04.7014925373E+021.2931214947E+01+
*       -4.829889941E+01               0
GRID*               8451               04.5671641791E+021.2931214947E+01+
*       -4.829889941E+01               0
GRID*               8452               04.4328358209E+021.2931214948E+01+
*       -4.829889941E+01               0
GRID*               8453               04.2985074627E+021.2931214948E+01+
*       -4.829889941E+01               0
GRID*               8454               04.1641791045E+021.2931214948E+01+
*       -4.829889941E+01               0
GRID*               8455               04.0298507463E+021.2931214948E+01+
*       -4.829889941E+01               0
GRID*               8456               03.8955223881E+021.2931214948E+01+
*       -4.829889941E+01               0
GRID*               8457               03.7611940298E+021.2931214949E+01+
*       -4.829889941E+01               0
GRID*               8458               03.6268656716E+021.2931214949E+01+
*       -4.829889941E+01               0
GRID*               8459               03.4925373134E+021.2931214949E+01+
*       -4.829889941E+01               0
GRID*               8460               03.3582089552E+021.2931214949E+01+
*       -4.829889941E+01               0
GRID*               8461               03.2238805970E+021.2931214949E+01+
*       -4.829889941E+01               0
GRID*               8462               03.0895522388E+021.2931214950E+01+
*       -4.829889941E+01               0
GRID*               8463               02.9552238806E+021.2931214950E+01+
*       -4.829889941E+01               0
GRID*               8464               02.8208955224E+021.2931214950E+01+
*       -4.829889941E+01               0
GRID*               8465               02.6865671642E+021.2931214950E+01+
*       -4.829889941E+01               0
GRID*               8466               02.5522388060E+021.2931214950E+01+
*       -4.829889941E+01               0
GRID*               8467               02.4179104478E+021.2931214950E+01+
*       -4.829889941E+01               0
GRID*               8468               02.2835820895E+021.2931214950E+01+
*       -4.829889941E+01               0
GRID*               8469               02.1492537313E+021.2931214951E+01+
*       -4.829889941E+01               0
GRID*               8470               02.0149253731E+021.2931214951E+01+
*       -4.829889941E+01               0
GRID*               8471               01.8805970149E+021.2931214951E+01+
*       -4.829889941E+01               0
GRID*               8472               01.7462686567E+021.2931214951E+01+
*       -4.829889941E+01               0
GRID*               8473               01.6119402985E+021.2931214951E+01+
*       -4.829889941E+01               0
GRID*               8474               01.4776119403E+021.2931214951E+01+
*       -4.829889941E+01               0
GRID*               8475               01.3432835821E+021.2931214951E+01+
*       -4.829889941E+01               0
GRID*               8476               01.2089552239E+021.2931214951E+01+
*       -4.829889941E+01               0
GRID*               8477               01.0746268657E+021.2931214951E+01+
*       -4.829889941E+01               0
GRID*               8478               09.4029850746E+011.2931214951E+01+
*       -4.829889941E+01               0
GRID*               8479               08.0597014925E+011.2931214951E+01+
*       -4.829889941E+01               0
GRID*               8480               06.7164179104E+011.2931214951E+01+
*       -4.829889941E+01               0
GRID*               8481               05.3731343283E+011.2931214952E+01+
*       -4.829889941E+01               0
GRID*               8482               04.0298507462E+011.2931214952E+01+
*       -4.829889941E+01               0
GRID*               8483               02.6865671641E+011.2931214952E+01+
*       -4.829889941E+01               0
GRID*               8484               01.3432835820E+011.2931214952E+01+
*       -4.829889941E+01               0
GRID*               8485               01.3432835821E+012.5002685023E+01+
*       -4.329971922E+01               0
GRID*               8486               01.3432835821E+013.5358631421E+01+
*       -3.535204637E+01               0
GRID*               8487               01.3432835821E+014.3296226466E+01+
*       -2.500873281E+01               0
GRID*               8488               01.3432835820E+014.8295488916E+01+
*       -1.294394666E+01               0
GRID*               8489               01.3432835821E+014.9999998981E+01+
*       1.0082231824E-02               0
GRID*               8490               01.3432835821E+014.8296894004E+01+
*       1.2938702959E+01               0
GRID*               8491               01.3432835820E+014.3305920746E+01+
*       2.4991942129E+01               0
GRID*               8492               01.3432835821E+013.5352597540E+01+
*       3.5358080348E+01               0
GRID*               8493               01.3432835821E+012.4999326339E+01+
*       4.3301658463E+01               0
GRID*               8494               01.3432835821E+011.2953687555E+01+
*       4.8292877149E+01               0
GRID*               8495               01.3432835821E+012.0814091762E-15+
*       5.0000000000E+01               0
GRID*               8496               01.3432835821E+01-1.295368761E+01+
*       4.8292877129E+01               0
GRID*               8497               01.3432835821E+01-2.499932634E+01+
*       4.3301658462E+01               0
GRID*               8498               01.3432835821E+01-3.535259754E+01+
*       3.5358080346E+01               0
GRID*               8499               01.3432835821E+01-4.330592075E+01+
*       2.4991942115E+01               0
GRID*               8500               01.3432835821E+01-4.829689401E+01+
*       1.2938702955E+01               0
GRID*               8501               01.3432835821E+01-4.999999898E+01+
*       1.0082198854E-02               0
GRID*               8502               01.3432835821E+01-4.829548892E+01+
*       -1.294394666E+01               0
GRID*               8503               01.3432835821E+01-4.329622644E+01+
*       -2.500873285E+01               0
GRID*               8504               01.3432835821E+01-3.535863141E+01+
*       -3.535204638E+01               0
GRID*               8505               01.3432835821E+01-2.500268502E+01+
*       -4.329971922E+01               0
GRID*               8506               01.3432835821E+01-1.293121493E+01+
*       -4.829889942E+01               0
GRID*               8507               02.6865671642E+01-1.293121492E+01+
*       -4.829889942E+01               0
GRID*               8508               04.0298507463E+01-1.293121492E+01+
*       -4.829889942E+01               0
GRID*               8509               05.3731343284E+01-1.293121492E+01+
*       -4.829889942E+01               0
GRID*               8510               06.7164179105E+01-1.293121492E+01+
*       -4.829889942E+01               0
GRID*               8511               08.0597014925E+01-1.293121492E+01+
*       -4.829889942E+01               0
GRID*               8512               09.4029850746E+01-1.293121492E+01+
*       -4.829889942E+01               0
GRID*               8513               01.0746268657E+02-1.293121492E+01+
*       -4.829889942E+01               0
GRID*               8514               01.2089552239E+02-1.293121492E+01+
*       -4.829889942E+01               0
GRID*               8515               01.3432835821E+02-1.293121492E+01+
*       -4.829889942E+01               0
GRID*               8516               01.4776119403E+02-1.293121492E+01+
*       -4.829889942E+01               0
GRID*               8517               01.6119402985E+02-1.282374682E+01+
*       -4.788663947E+01               0
GRID*               8518               01.7462686567E+02-1.293121492E+01+
*       -4.829889942E+01               0
GRID*               8519               01.8805970149E+02-1.282374682E+01+
*       -4.788663947E+01               0
GRID*               8520               02.0149253731E+02-1.293121492E+01+
*       -4.829889942E+01               0
GRID*               8521               02.1492537313E+02-1.293121492E+01+
*       -4.829889942E+01               0
GRID*               8522               02.2835820896E+02-1.293121492E+01+
*       -4.829889942E+01               0
GRID*               8523               02.4179104478E+02-1.293121492E+01+
*       -4.829889942E+01               0
GRID*               8524               02.5522388060E+02-1.293121492E+01+
*       -4.829889942E+01               0
GRID*               8525               02.6865671642E+02-1.293121492E+01+
*       -4.829889942E+01               0
GRID*               8526               02.8208955224E+02-1.293121492E+01+
*       -4.829889942E+01               0
GRID*               8527               02.9552238806E+02-1.293121492E+01+
*       -4.829889942E+01               0
GRID*               8528               03.0895522388E+02-1.293121492E+01+
*       -4.829889942E+01               0
GRID*               8529               03.2238805970E+02-1.293121492E+01+
*       -4.829889942E+01               0
GRID*               8530               03.3582089552E+02-1.293121492E+01+
*       -4.829889942E+01               0
GRID*               8531               03.4925373134E+02-1.293121492E+01+
*       -4.829889942E+01               0
GRID*               8532               03.6268656716E+02-1.293121492E+01+
*       -4.829889942E+01               0
GRID*               8533               03.7611940299E+02-1.293121492E+01+
*       -4.829889942E+01               0
GRID*               8534               03.8955223881E+02-1.293121492E+01+
*       -4.829889942E+01               0
GRID*               8535               04.0298507463E+02-1.293121492E+01+
*       -4.829889942E+01               0
GRID*               8536               04.1641791045E+02-1.293121492E+01+
*       -4.829889942E+01               0
GRID*               8537               04.2985074627E+02-1.293121492E+01+
*       -4.829889942E+01               0
GRID*               8538               04.4328358209E+02-1.293121492E+01+
*       -4.829889942E+01               0
GRID*               8539               04.5671641791E+02-1.293121493E+01+
*       -4.829889942E+01               0
GRID*               8540               04.7014925373E+02-1.293121493E+01+
*       -4.829889942E+01               0
GRID*               8541               04.8358208955E+02-1.293121493E+01+
*       -4.829889942E+01               0
GRID*               8542               04.9701492537E+02-1.293121493E+01+
*       -4.829889942E+01               0
GRID*               8543               05.1044776119E+02-1.293121493E+01+
*       -4.829889942E+01               0
GRID*               8544               05.2388059702E+02-1.293121493E+01+
*       -4.829889942E+01               0
GRID*               8545               05.3731343284E+02-1.293121493E+01+
*       -4.829889942E+01               0
GRID*               8546               05.5074626866E+02-1.293121493E+01+
*       -4.829889942E+01               0
GRID*               8547               05.6417910448E+02-1.293121493E+01+
*       -4.829889942E+01               0
GRID*               8548               05.7761194030E+02-1.293121493E+01+
*       -4.829889942E+01               0
GRID*               8549               05.9104477612E+02-1.293121493E+01+
*       -4.829889942E+01               0
GRID*               8550               06.0447761194E+02-1.293121493E+01+
*       -4.829889942E+01               0
GRID*               8551               06.1791044776E+02-1.293121493E+01+
*       -4.829889942E+01               0
GRID*               8552               06.3134328358E+02-1.293121493E+01+
*       -4.829889942E+01               0
GRID*               8553               06.4477611940E+02-1.293121493E+01+
*       -4.829889942E+01               0
GRID*               8554               06.5820895522E+02-1.293121493E+01+
*       -4.829889942E+01               0
GRID*               8555               06.7164179104E+02-1.293121493E+01+
*       -4.829889942E+01               0
GRID*               8556               06.8507462687E+02-1.293121493E+01+
*       -4.829889942E+01               0
GRID*               8557               06.9850746269E+02-1.293121493E+01+
*       -4.829889942E+01               0
GRID*               8558               07.1194029851E+02-1.293121493E+01+
*       -4.829889942E+01               0
GRID*               8559               07.2537313433E+02-1.293121493E+01+
*       -4.829889942E+01               0
GRID*               8560               07.3880597015E+02-1.293121493E+01+
*       -4.829889942E+01               0
GRID*               8561               07.5223880597E+02-1.293121493E+01+
*       -4.829889942E+01               0
GRID*               8562               07.6567164179E+02-1.293121493E+01+
*       -4.829889942E+01               0
GRID*               8563               07.7910447761E+02-1.293121493E+01+
*       -4.829889942E+01               0
GRID*               8564               07.9253731343E+02-1.293121493E+01+
*       -4.829889942E+01               0
GRID*               8565               08.0597014925E+02-1.293121493E+01+
*       -4.829889942E+01               0
GRID*               8566               08.1940298507E+02-1.293121494E+01+
*       -4.829889942E+01               0
GRID*               8567               08.3283582090E+02-1.293121494E+01+
*       -4.829889942E+01               0
GRID*               8568               08.4626865672E+02-1.293121494E+01+
*       -4.829889942E+01               0
GRID*               8569               08.5970149254E+02-1.293121494E+01+
*       -4.829889942E+01               0
GRID*               8570               08.7313432836E+02-1.293121494E+01+
*       -4.829889942E+01               0
GRID*               8571               08.8656716418E+02-1.293121494E+01+
*       -4.829889942E+01               0
GRID*               8572               09.0000000000E+02-1.293121494E+01+
*       -4.829889942E+01               0
GRID*               8573               09.1343283582E+02-1.293121494E+01+
*       -4.829889942E+01               0
GRID*               8574               09.2686567164E+02-1.293121494E+01+
*       -4.829889942E+01               0
GRID*               8575               09.4029850746E+02-1.293121494E+01+
*       -4.829889942E+01               0
GRID*               8576               09.5373134328E+02-1.293121494E+01+
*       -4.829889942E+01               0
GRID*               8577               09.6716417910E+02-1.293121494E+01+
*       -4.829889942E+01               0
GRID*               8578               09.8059701493E+02-1.293121494E+01+
*       -4.829889942E+01               0
GRID*               8579               09.9402985075E+02-1.293121494E+01+
*       -4.829889942E+01               0
GRID*               8580               01.0074626866E+03-1.293121494E+01+
*       -4.829889942E+01               0
GRID*               8581               01.0208955224E+03-1.293121494E+01+
*       -4.829889942E+01               0
GRID*               8582               01.0343283582E+03-1.293121494E+01+
*       -4.829889942E+01               0
GRID*               8583               01.0477611940E+03-1.293121494E+01+
*       -4.829889942E+01               0
GRID*               8584               01.0611940299E+03-1.293121494E+01+
*       -4.829889942E+01               0
GRID*               8585               01.0746268657E+03-1.293121494E+01+
*       -4.829889942E+01               0
GRID*               8586               01.0880597015E+03-1.293121494E+01+
*       -4.829889942E+01               0
GRID*               8587               01.1014925373E+03-1.293121494E+01+
*       -4.829889942E+01               0
GRID*               8588               01.1149253731E+03-1.293121494E+01+
*       -4.829889942E+01               0
GRID*               8589               01.1283582090E+03-1.293121494E+01+
*       -4.829889942E+01               0
GRID*               8590               01.1417910448E+03-1.293121494E+01+
*       -4.829889942E+01               0
GRID*               8591               01.1552238806E+03-1.293121494E+01+
*       -4.829889942E+01               0
GRID*               8592               01.1686567164E+03-1.293121494E+01+
*       -4.829889942E+01               0
GRID*               8593               01.1820895522E+03-1.293121494E+01+
*       -4.829889942E+01               0
GRID*               8594               01.1955223881E+03-1.293121494E+01+
*       -4.829889942E+01               0
GRID*               8595               01.2089552239E+03-1.293121494E+01+
*       -4.829889942E+01               0
GRID*               8596               01.2223880597E+03-1.293121495E+01+
*       -4.829889942E+01               0
GRID*               8597               01.2358208955E+03-1.293121495E+01+
*       -4.829889942E+01               0
GRID*               8598               01.2492537313E+03-1.293121495E+01+
*       -4.829889942E+01               0
GRID*               8599               01.2626865672E+03-1.293121495E+01+
*       -4.829889941E+01               0
GRID*               8600               01.2761194030E+03-1.293121495E+01+
*       -4.829889941E+01               0
GRID*               8601               01.2895522388E+03-1.293121495E+01+
*       -4.829889941E+01               0
GRID*               8602               01.3029850746E+03-1.293121495E+01+
*       -4.829889941E+01               0
GRID*               8603               01.3164179104E+03-1.293121495E+01+
*       -4.829889941E+01               0
GRID*               8604               01.3298507463E+03-1.293121495E+01+
*       -4.829889941E+01               0
GRID*               8605               01.3432835821E+03-1.293121495E+01+
*       -4.829889941E+01               0
GRID*               8606               01.3567164179E+03-1.293121495E+01+
*       -4.829889941E+01               0
GRID*               8607               01.3701492537E+03-1.293121495E+01+
*       -4.829889941E+01               0
GRID*               8608               01.3835820896E+03-1.293121495E+01+
*       -4.829889941E+01               0
GRID*               8609               01.3970149254E+03-1.293121495E+01+
*       -4.829889941E+01               0
GRID*               8610               01.4104477612E+03-1.293121495E+01+
*       -4.829889941E+01               0
GRID*               8611               01.4238805970E+03-1.293121495E+01+
*       -4.829889941E+01               0
GRID*               8612               01.4373134328E+03-1.293121495E+01+
*       -4.829889941E+01               0
GRID*               8613               01.4507462687E+03-1.293121495E+01+
*       -4.829889941E+01               0
GRID*               8614               01.4641791045E+03-1.293121495E+01+
*       -4.829889941E+01               0
GRID*               8615               01.4776119403E+03-1.293121495E+01+
*       -4.829889941E+01               0
GRID*               8616               01.4910447761E+03-1.293121495E+01+
*       -4.829889941E+01               0
GRID*               8617               01.5044776119E+03-1.293121495E+01+
*       -4.829889941E+01               0
GRID*               8618               01.5179104478E+03-1.293121495E+01+
*       -4.829889941E+01               0
GRID*               8619               01.5313432836E+03-1.293121495E+01+
*       -4.829889941E+01               0
GRID*               8620               01.5447761194E+03-1.293121495E+01+
*       -4.829889941E+01               0
GRID*               8621               01.5582089552E+03-1.293121495E+01+
*       -4.829889941E+01               0
GRID*               8622               01.5716417910E+03-1.293121495E+01+
*       -4.829889941E+01               0
GRID*               8623               01.5850746269E+03-1.293121495E+01+
*       -4.829889941E+01               0
GRID*               8624               01.5985074627E+03-1.293121495E+01+
*       -4.829889941E+01               0
GRID*               8625               01.6119402985E+03-1.293121495E+01+
*       -4.829889941E+01               0
GRID*               8626               01.6253731343E+03-1.293121495E+01+
*       -4.829889941E+01               0
GRID*               8627               01.6388059701E+03-1.293121495E+01+
*       -4.829889941E+01               0
GRID*               8628               01.6522388060E+03-1.293121495E+01+
*       -4.829889941E+01               0
GRID*               8629               01.6656716418E+03-1.293121495E+01+
*       -4.829889941E+01               0
GRID*               8630               01.6791044776E+03-1.293121495E+01+
*       -4.829889941E+01               0
GRID*               8631               01.6925373134E+03-1.293121495E+01+
*       -4.829889941E+01               0
GRID*               8632               01.7059701493E+03-1.293121495E+01+
*       -4.829889941E+01               0
GRID*               8633               01.7194029851E+03-1.293121495E+01+
*       -4.829889941E+01               0
GRID*               8634               01.7328358209E+03-1.293121495E+01+
*       -4.829889941E+01               0
GRID*               8635               01.7462686567E+03-1.293121495E+01+
*       -4.829889941E+01               0
GRID*               8636               01.7597014925E+03-1.293121495E+01+
*       -4.829889941E+01               0
GRID*               8637               01.7731343284E+03-1.293121495E+01+
*       -4.829889941E+01               0
GRID*               8638               01.7865671642E+03-2.500268502E+01+
*       -4.329971922E+01               0
GRID*               8639               01.7865671642E+03-1.293121495E+01+
*       -4.829889941E+01               0
GRID*               8640               01.7865671642E+03-4.329622647E+01+
*       -2.500873281E+01               0
GRID*               8641               01.7865671642E+03-3.535863142E+01+
*       -3.535204637E+01               0
GRID*               8642               01.7865671642E+03-4.999999898E+01+
*       1.0082231823E-02               0
GRID*               8643               01.7865671642E+03-4.829548892E+01+
*       -1.294394666E+01               0
GRID*               8644               01.7865671642E+03-4.330592075E+01+
*       2.4991942129E+01               0
GRID*               8645               01.7865671642E+03-4.829689400E+01+
*       1.2938702959E+01               0
GRID*               8646               01.7865671642E+03-2.499932634E+01+
*       4.3301658463E+01               0
GRID*               8647               01.7865671642E+03-3.535259754E+01+
*       3.5358080348E+01               0
GRID*               8648               01.7865671642E+03-2.162457337E-14+
*       5.0000000000E+01               0
GRID*               8649               01.7865671642E+03-1.295368755E+01+
*       4.8292877149E+01               0
GRID*               8650               01.7865671642E+032.4999326339E+01+
*       4.3301658462E+01               0
GRID*               8651               01.7865671642E+031.2953687614E+01+
*       4.8292877129E+01               0
GRID*               8652               01.7865671642E+034.3305920753E+01+
*       2.4991942115E+01               0
GRID*               8653               01.7865671642E+033.5352597542E+01+
*       3.5358080346E+01               0
GRID*               8654               01.7865671642E+034.9999998983E+01+
*       1.0082198854E-02               0
GRID*               8655               01.7865671642E+034.8296894005E+01+
*       1.2938702955E+01               0
GRID*               8656               01.7865671642E+034.3296226439E+01+
*       -2.500873285E+01               0
GRID*               8657               01.7865671642E+034.8295488916E+01+
*       -1.294394666E+01               0
GRID*               8658               01.7865671642E+033.5358631413E+01+
*       -3.535204638E+01               0
GRID*               8659               01.8000000000E+034.2337671165E+01+
*       1.9219404614E+01               0
GRID*               8660               01.8000000000E+034.5684710283E+01+
*       6.7284746512E+00               0
GRID*               8661               01.8000000000E+031.2501342512E+01+
*       -4.339985961E+01               0
GRID*               8662               01.8000000000E+032.5283546071E+01+
*       -3.924722000E+01               0
GRID*               8663               01.8000000000E+032.6636066992E-15+
*       -4.675000000E+01               0
GRID*               8664               01.8000000000E+034.5684710283E+01+
*       -6.718392449E+00               0
GRID*               8665               01.8000000000E+034.2332824022E+01+
*       -1.922779996E+01               0
GRID*               8666               01.8000000000E+033.4430316782E+01+
*       -3.010172679E+01               0
GRID*               8667               01.8000000000E+031.2499663169E+01+
*       4.3400829232E+01               0
GRID*               8668               01.8000000000E+03-9.274281901E-15+
*       4.6750000000E+01               0
GRID*               8669               01.8000000000E+032.5281866728E+01+
*       3.9248189621E+01               0
GRID*               8670               01.8000000000E+033.4435163925E+01+
*       3.0093331440E+01               0
GRID*               8671               01.8000000000E+03-1.250134251E+01+
*       -4.339985961E+01               0
GRID*               8672               01.8000000000E+03-2.528354607E+01+
*       -3.924722000E+01               0
GRID*               8673               01.8000000000E+03-3.443031678E+01+
*       -3.010172679E+01               0
GRID*               8674               01.8000000000E+03-4.233282402E+01+
*       -1.922779996E+01               0
GRID*               8675               01.8000000000E+03-4.568471028E+01+
*       -6.718392449E+00               0
GRID*               8676               01.8000000000E+03-1.249966317E+01+
*       4.3400829232E+01               0
GRID*               8677               01.8000000000E+03-2.528186673E+01+
*       3.9248189621E+01               0
GRID*               8678               01.8000000000E+03-4.568471028E+01+
*       6.7284746512E+00               0
GRID*               8679               01.8000000000E+03-4.233767116E+01+
*       1.9219404614E+01               0
GRID*               8680               01.8000000000E+03-3.443516393E+01+
*       3.0093331440E+01               0
GRID*               8681               00.0000000000E+002.5564407165E+01+
*       -3.519472086E+01               0
GRID*               8682               00.0000000000E+004.1369421482E+01+
*       -1.344686706E+01               0
GRID*               8683               00.0000000000E+004.1369421482E+01+
*       1.3446867063E+01               0
GRID*               8684               00.0000000000E+002.5564407165E+01+
*       3.5194720855E+01               0
GRID*               8685               00.0000000000E+005.3272133985E-15+
*       4.3500000000E+01               0
GRID*               8686               00.0000000000E+00-2.556440716E+01+
*       3.5194720855E+01               0
GRID*               8687               00.0000000000E+00-4.136942148E+01+
*       1.3446867063E+01               0
GRID*               8688               00.0000000000E+00-4.136942148E+01+
*       -1.344686706E+01               0
GRID*               8689               00.0000000000E+00-2.556440716E+01+
*       -3.519472086E+01               0
GRID*               8690               00.0000000000E+00-1.328070119E+01+
*       -4.086390622E+01               0
GRID*               8691               00.0000000000E+00-4.350000000E+01+
*       -7.496225862E-13               0
GRID*               8692               00.0000000000E+00-3.519472086E+01+
*       -2.556440716E+01               0
GRID*               8693               00.0000000000E+00-1.328070119E+01+
*       4.0863906219E+01               0
GRID*               8694               00.0000000000E+00-3.519472086E+01+
*       2.5564407165E+01               0
GRID*               8695               00.0000000000E+001.3280701193E+01+
*       -4.086390622E+01               0
GRID*               8696               00.0000000000E+003.5194720855E+01+
*       -2.556440716E+01               0
GRID*               8697               00.0000000000E+001.3280701193E+01+
*       4.0863906219E+01               0
GRID*               8698               00.0000000000E+004.3500000000E+01+
*       -7.605916333E-13               0
GRID*               8699               00.0000000000E+003.5194720855E+01+
*       2.5564407165E+01               0
GRID*               8700               00.0000000000E+002.5002685022E+01+
*       -4.329971922E+01               0
GRID*               8701               00.0000000000E+004.3296226460E+01+
*       -2.500873282E+01               0
GRID*               8702               00.0000000000E+004.9999998983E+01+
*       1.0082202646E-02               0
GRID*               8703               00.0000000000E+004.3305920746E+01+
*       2.4991942128E+01               0
GRID*               8704               00.0000000000E+002.4999326337E+01+
*       4.3301658464E+01               0
GRID*               8705               00.0000000000E+00-2.237975799E-14+
*       5.0000000000E+01               0
GRID*               8706               00.0000000000E+00-2.499932634E+01+
*       4.3301658464E+01               0
GRID*               8707               00.0000000000E+00-4.330592075E+01+
*       2.4991942128E+01               0
GRID*               8708               00.0000000000E+00-4.999999898E+01+
*       1.0082202646E-02               0
GRID*               8709               00.0000000000E+00-4.329622646E+01+
*       -2.500873282E+01               0
GRID*               8710               00.0000000000E+00-2.500268502E+01+
*       -4.329971922E+01               0
GRID*               8711               00.0000000000E+00-4.829689401E+01+
*       1.2938702950E+01               0
GRID*               8712               00.0000000000E+00-1.293121495E+01+
*       -4.829889941E+01               0
GRID*               8713               00.0000000000E+00-4.829548892E+01+
*       -1.294394666E+01               0
GRID*               8714               00.0000000000E+00-3.535863142E+01+
*       -3.535204637E+01               0
GRID*               8715               00.0000000000E+00-1.295368756E+01+
*       4.8292877146E+01               0
GRID*               8716               00.0000000000E+00-3.535259754E+01+
*       3.5358080346E+01               0
GRID*               8717               00.0000000000E+001.2931214950E+01+
*       -4.829889941E+01               0
GRID*               8718               00.0000000000E+003.5358631419E+01+
*       -3.535204637E+01               0
GRID*               8719               00.0000000000E+004.8295488916E+01+
*       -1.294394666E+01               0
GRID*               8720               00.0000000000E+001.2953687564E+01+
*       4.8292877146E+01               0
GRID*               8721               00.0000000000E+004.8296894007E+01+
*       1.2938702950E+01               0
GRID*               8722               00.0000000000E+003.5352597542E+01+
*       3.5358080346E+01               0
GRID*               8723               01.8000000000E+032.5564407165E+01+
*       -3.519472086E+01               0
GRID*               8724               01.8000000000E+034.1369421482E+01+
*       -1.344686706E+01               0
GRID*               8725               01.8000000000E+034.1369421482E+01+
*       1.3446867063E+01               0
GRID*               8726               01.8000000000E+032.5564407165E+01+
*       3.5194720855E+01               0
GRID*               8727               01.8000000000E+035.3272133985E-15+
*       4.3500000000E+01               0
GRID*               8728               01.8000000000E+03-2.556440716E+01+
*       3.5194720855E+01               0
GRID*               8729               01.8000000000E+03-4.136942148E+01+
*       1.3446867063E+01               0
GRID*               8730               01.8000000000E+03-4.136942148E+01+
*       -1.344686706E+01               0
GRID*               8731               01.8000000000E+03-2.556440716E+01+
*       -3.519472086E+01               0
GRID*               8732               01.8000000000E+03-1.328070119E+01+
*       -4.086390622E+01               0
GRID*               8733               01.8000000000E+031.3280701193E+01+
*       -4.086390622E+01               0
GRID*               8734               01.8000000000E+033.5194720855E+01+
*       -2.556440716E+01               0
GRID*               8735               01.8000000000E+034.3500000000E+01+
*       -7.605916333E-13               0
GRID*               8736               01.8000000000E+033.5194720855E+01+
*       2.5564407165E+01               0
GRID*               8737               01.8000000000E+031.3280701193E+01+
*       4.0863906219E+01               0
GRID*               8738               01.8000000000E+03-1.328070119E+01+
*       4.0863906219E+01               0
GRID*               8739               01.8000000000E+03-3.519472086E+01+
*       2.5564407165E+01               0
GRID*               8740               01.8000000000E+03-4.350000000E+01+
*       -7.496225862E-13               0
GRID*               8741               01.8000000000E+03-3.519472086E+01+
*       -2.556440716E+01               0
GRID*               8742               01.8000000000E+032.5002685022E+01+
*       -4.329971922E+01               0
GRID*               8743               01.8000000000E+034.3296226460E+01+
*       -2.500873282E+01               0
GRID*               8744               01.8000000000E+034.9999998983E+01+
*       1.0082202646E-02               0
GRID*               8745               01.8000000000E+034.3305920746E+01+
*       2.4991942128E+01               0
GRID*               8746               01.8000000000E+032.4999326337E+01+
*       4.3301658464E+01               0
GRID*               8747               01.8000000000E+03-2.237975799E-14+
*       5.0000000000E+01               0
GRID*               8748               01.8000000000E+03-2.499932634E+01+
*       4.3301658464E+01               0
GRID*               8749               01.8000000000E+03-4.330592075E+01+
*       2.4991942128E+01               0
GRID*               8750               01.8000000000E+03-4.999999898E+01+
*       1.0082202646E-02               0
GRID*               8751               01.8000000000E+03-4.329622646E+01+
*       -2.500873282E+01               0
GRID*               8752               01.8000000000E+03-2.500268502E+01+
*       -4.329971922E+01               0
GRID*               8753               01.8000000000E+031.2931214950E+01+
*       -4.829889941E+01               0
GRID*               8754               01.8000000000E+03-1.293121495E+01+
*       -4.829889941E+01               0
GRID*               8755               01.8000000000E+03-3.535863142E+01+
*       -3.535204637E+01               0
GRID*               8756               01.8000000000E+03-4.829548892E+01+
*       -1.294394666E+01               0
GRID*               8757               01.8000000000E+03-4.829689401E+01+
*       1.2938702950E+01               0
GRID*               8758               01.8000000000E+03-3.535259754E+01+
*       3.5358080346E+01               0
GRID*               8759               01.8000000000E+03-1.295368756E+01+
*       4.8292877146E+01               0
GRID*               8760               01.8000000000E+031.2953687564E+01+
*       4.8292877146E+01               0
GRID*               8761               01.8000000000E+033.5352597542E+01+
*       3.5358080346E+01               0
GRID*               8762               01.8000000000E+034.8296894007E+01+
*       1.2938702950E+01               0
GRID*               8763               01.8000000000E+034.8295488916E+01+
*       -1.294394666E+01               0
GRID*               8764               01.8000000000E+033.5358631419E+01+
*       -3.535204637E+01               0
GRID*               8765               02.6865671642E+016.0318422374E-15+
*       -5.000000000E+01               0
GRID*               8766               05.3731343284E+015.9404506884E-15+
*       -5.000000000E+01               0
GRID*               8767               08.0597014925E+015.8490591393E-15+
*       -5.000000000E+01               0
GRID*               8768               01.0746268657E+025.7576675903E-15+
*       -5.000000000E+01               0
GRID*               8769               01.3432835821E+025.6662760412E-15+
*       -5.000000000E+01               0
GRID*               8770               01.6119402985E+025.5748844922E-15+
*       -5.000000000E+01               0
GRID*               8771               01.8805970149E+025.4834929431E-15+
*       -5.000000000E+01               0
GRID*               8772               02.1492537313E+025.3921013941E-15+
*       -5.000000000E+01               0
GRID*               8773               02.4179104478E+025.3007098450E-15+
*       -5.000000000E+01               0
GRID*               8774               02.6865671642E+025.2093182960E-15+
*       -5.000000000E+01               0
GRID*               8775               02.9552238806E+025.1179267469E-15+
*       -5.000000000E+01               0
GRID*               8776               03.2238805970E+025.0265351978E-15+
*       -5.000000000E+01               0
GRID*               8777               03.4925373134E+024.9351436488E-15+
*       -5.000000000E+01               0
GRID*               8778               03.7611940299E+024.8437520997E-15+
*       -5.000000000E+01               0
GRID*               8779               04.0298507463E+024.7523605507E-15+
*       -5.000000000E+01               0
GRID*               8780               04.2985074627E+024.6609690016E-15+
*       -5.000000000E+01               0
GRID*               8781               04.5671641791E+024.5695774526E-15+
*       -5.000000000E+01               0
GRID*               8782               04.8358208955E+024.4781859035E-15+
*       -5.000000000E+01               0
GRID*               8783               05.1044776119E+024.3867943545E-15+
*       -5.000000000E+01               0
GRID*               8784               05.3731343284E+024.2954028054E-15+
*       -5.000000000E+01               0
GRID*               8785               05.6417910448E+024.2040112564E-15+
*       -5.000000000E+01               0
GRID*               8786               05.9104477612E+024.1126197073E-15+
*       -5.000000000E+01               0
GRID*               8787               06.1791044776E+024.0212281583E-15+
*       -5.000000000E+01               0
GRID*               8788               06.4477611940E+023.9298366092E-15+
*       -5.000000000E+01               0
GRID*               8789               06.7164179104E+023.8384450602E-15+
*       -5.000000000E+01               0
GRID*               8790               06.9850746269E+023.7470535111E-15+
*       -5.000000000E+01               0
GRID*               8791               07.2537313433E+023.6556619621E-15+
*       -5.000000000E+01               0
GRID*               8792               07.5223880597E+023.5642704130E-15+
*       -5.000000000E+01               0
GRID*               8793               07.7910447761E+023.4728788640E-15+
*       -5.000000000E+01               0
GRID*               8794               08.0597014925E+023.3814873149E-15+
*       -5.000000000E+01               0
GRID*               8795               08.3283582090E+023.2900957659E-15+
*       -5.000000000E+01               0
GRID*               8796               08.5970149254E+023.1987042168E-15+
*       -5.000000000E+01               0
GRID*               8797               08.8656716418E+023.1073126678E-15+
*       -5.000000000E+01               0
GRID*               8798               09.1343283582E+023.0159211187E-15+
*       -5.000000000E+01               0
GRID*               8799               09.4029850746E+022.9245295697E-15+
*       -5.000000000E+01               0
GRID*               8800               09.6716417910E+022.8331380206E-15+
*       -5.000000000E+01               0
GRID*               8801               09.9402985075E+022.7417464716E-15+
*       -5.000000000E+01               0
GRID*               8802               01.0208955224E+032.6503549225E-15+
*       -5.000000000E+01               0
GRID*               8803               01.0477611940E+032.5589633735E-15+
*       -5.000000000E+01               0
GRID*               8804               01.0746268657E+032.4675718244E-15+
*       -5.000000000E+01               0
GRID*               8805               01.1014925373E+032.3761802753E-15+
*       -5.000000000E+01               0
GRID*               8806               01.1283582090E+032.2847887263E-15+
*       -5.000000000E+01               0
GRID*               8807               01.1552238806E+032.1933971772E-15+
*       -5.000000000E+01               0
GRID*               8808               01.1820895522E+032.1020056282E-15+
*       -5.000000000E+01               0
GRID*               8809               01.2089552239E+032.0106140791E-15+
*       -5.000000000E+01               0
GRID*               8810               01.2358208955E+031.9192225301E-15+
*       -5.000000000E+01               0
GRID*               8811               01.2626865672E+031.8278309810E-15+
*       -5.000000000E+01               0
GRID*               8812               01.2895522388E+031.7364394320E-15+
*       -5.000000000E+01               0
GRID*               8813               01.3164179104E+031.6450478829E-15+
*       -5.000000000E+01               0
GRID*               8814               01.3432835821E+031.5536563339E-15+
*       -5.000000000E+01               0
GRID*               8815               01.3701492537E+031.4622647848E-15+
*       -5.000000000E+01               0
GRID*               8816               01.3970149254E+031.3708732358E-15+
*       -5.000000000E+01               0
GRID*               8817               01.4238805970E+031.2794816867E-15+
*       -5.000000000E+01               0
GRID*               8818               01.4507462687E+031.1880901377E-15+
*       -5.000000000E+01               0
GRID*               8819               01.4776119403E+031.0966985886E-15+
*       -5.000000000E+01               0
GRID*               8820               01.5044776119E+031.0053070396E-15+
*       -5.000000000E+01               0
GRID*               8821               01.5313432836E+030.0000000000E+00+
*       -5.000000000E+01               0
GRID*               8822               01.5582089552E+030.0000000000E+00+
*       -5.000000000E+01               0
GRID*               8823               01.5850746269E+030.0000000000E+00+
*       -5.000000000E+01               0
GRID*               8824               01.6119402985E+030.0000000000E+00+
*       -5.000000000E+01               0
GRID*               8825               01.6388059701E+030.0000000000E+00+
*       -5.000000000E+01               0
GRID*               8826               01.6656716418E+030.0000000000E+00+
*       -5.000000000E+01               0
GRID*               8827               01.6925373134E+030.0000000000E+00+
*       -5.000000000E+01               0
GRID*               8828               01.7194029851E+030.0000000000E+00+
*       -5.000000000E+01               0
GRID*               8829               01.7462686567E+030.0000000000E+00+
*       -5.000000000E+01               0
GRID*               8830               01.7731343284E+030.0000000000E+00+
*       -5.000000000E+01               0
GRID*               8831               01.7865671642E+030.0000000000E+00+
*       -5.000000000E+01               0
GRID*               8832               01.7597014925E+030.0000000000E+00+
*       -5.000000000E+01               0
GRID*               8833               01.7328358209E+030.0000000000E+00+
*       -5.000000000E+01               0
GRID*               8834               01.7059701493E+030.0000000000E+00+
*       -5.000000000E+01               0
GRID*               8835               01.6791044776E+030.0000000000E+00+
*       -5.000000000E+01               0
GRID*               8836               01.6522388060E+030.0000000000E+00+
*       -5.000000000E+01               0
GRID*               8837               01.6253731343E+030.0000000000E+00+
*       -5.000000000E+01               0
GRID*               8838               01.5985074627E+030.0000000000E+00+
*       -5.000000000E+01               0
GRID*               8839               01.5716417910E+030.0000000000E+00+
*       -5.000000000E+01               0
GRID*               8840               01.5447761194E+030.0000000000E+00+
*       -5.000000000E+01               0
GRID*               8841               01.5179104478E+030.0000000000E+00+
*       -5.000000000E+01               0
GRID*               8842               01.4910447761E+031.0510028141E-15+
*       -5.000000000E+01               0
GRID*               8843               01.4641791045E+031.1423943631E-15+
*       -5.000000000E+01               0
GRID*               8844               01.4373134328E+031.2337859122E-15+
*       -5.000000000E+01               0
GRID*               8845               01.4104477612E+031.3251774613E-15+
*       -5.000000000E+01               0
GRID*               8846               01.3835820896E+031.4165690103E-15+
*       -5.000000000E+01               0
GRID*               8847               01.3567164179E+031.5079605594E-15+
*       -5.000000000E+01               0
GRID*               8848               01.3298507463E+031.5993521084E-15+
*       -5.000000000E+01               0
GRID*               8849               01.3029850746E+031.6907436575E-15+
*       -5.000000000E+01               0
GRID*               8850               01.2761194030E+031.7821352065E-15+
*       -5.000000000E+01               0
GRID*               8851               01.2492537313E+031.8735267556E-15+
*       -5.000000000E+01               0
GRID*               8852               01.2223880597E+031.9649183046E-15+
*       -5.000000000E+01               0
GRID*               8853               01.1955223881E+032.0563098537E-15+
*       -5.000000000E+01               0
GRID*               8854               01.1686567164E+032.1477014027E-15+
*       -5.000000000E+01               0
GRID*               8855               01.1417910448E+032.2390929518E-15+
*       -5.000000000E+01               0
GRID*               8856               01.1149253731E+032.3304845008E-15+
*       -5.000000000E+01               0
GRID*               8857               01.0880597015E+032.4218760499E-15+
*       -5.000000000E+01               0
GRID*               8858               01.0611940299E+032.5132675989E-15+
*       -5.000000000E+01               0
GRID*               8859               01.0343283582E+032.6046591480E-15+
*       -5.000000000E+01               0
GRID*               8860               01.0074626866E+032.6960506970E-15+
*       -5.000000000E+01               0
GRID*               8861               09.8059701493E+022.7874422461E-15+
*       -5.000000000E+01               0
GRID*               8862               09.5373134328E+022.8788337951E-15+
*       -5.000000000E+01               0
GRID*               8863               09.2686567164E+022.9702253442E-15+
*       -5.000000000E+01               0
GRID*               8864               09.0000000000E+023.0616168932E-15+
*       -5.000000000E+01               0
GRID*               8865               08.7313432836E+023.1530084423E-15+
*       -5.000000000E+01               0
GRID*               8866               08.4626865672E+023.2443999913E-15+
*       -5.000000000E+01               0
GRID*               8867               08.1940298507E+023.3357915404E-15+
*       -5.000000000E+01               0
GRID*               8868               07.9253731343E+023.4271830894E-15+
*       -5.000000000E+01               0
GRID*               8869               07.6567164179E+023.5185746385E-15+
*       -5.000000000E+01               0
GRID*               8870               07.3880597015E+023.6099661875E-15+
*       -5.000000000E+01               0
GRID*               8871               07.1194029851E+023.7013577366E-15+
*       -5.000000000E+01               0
GRID*               8872               06.8507462687E+023.7927492856E-15+
*       -5.000000000E+01               0
GRID*               8873               06.5820895522E+023.8841408347E-15+
*       -5.000000000E+01               0
GRID*               8874               06.3134328358E+023.9755323838E-15+
*       -5.000000000E+01               0
GRID*               8875               06.0447761194E+024.0669239328E-15+
*       -5.000000000E+01               0
GRID*               8876               05.7761194030E+024.1583154819E-15+
*       -5.000000000E+01               0
GRID*               8877               05.5074626866E+024.2497070309E-15+
*       -5.000000000E+01               0
GRID*               8878               05.2388059701E+024.3410985800E-15+
*       -5.000000000E+01               0
GRID*               8879               04.9701492537E+024.4324901290E-15+
*       -5.000000000E+01               0
GRID*               8880               04.7014925373E+024.5238816781E-15+
*       -5.000000000E+01               0
GRID*               8881               04.4328358209E+024.6152732271E-15+
*       -5.000000000E+01               0
GRID*               8882               04.1641791045E+024.7066647762E-15+
*       -5.000000000E+01               0
GRID*               8883               03.8955223881E+024.7980563252E-15+
*       -5.000000000E+01               0
GRID*               8884               03.6268656716E+024.8894478743E-15+
*       -5.000000000E+01               0
GRID*               8885               03.3582089552E+024.9808394233E-15+
*       -5.000000000E+01               0
GRID*               8886               03.0895522388E+025.0722309724E-15+
*       -5.000000000E+01               0
GRID*               8887               02.8208955224E+025.1636225214E-15+
*       -5.000000000E+01               0
GRID*               8888               02.5522388060E+025.2550140705E-15+
*       -5.000000000E+01               0
GRID*               8889               02.2835820896E+025.3464056195E-15+
*       -5.000000000E+01               0
GRID*               8890               02.0149253731E+025.4377971686E-15+
*       -5.000000000E+01               0
GRID*               8891               01.7462686567E+025.5291887176E-15+
*       -5.000000000E+01               0
GRID*               8892               01.4776119403E+025.6205802667E-15+
*       -5.000000000E+01               0
GRID*               8893               01.2089552239E+025.7119718157E-15+
*       -5.000000000E+01               0
GRID*               8894               09.4029850746E+015.8033633648E-15+
*       -5.000000000E+01               0
GRID*               8895               06.7164179104E+015.8947549138E-15+
*       -5.000000000E+01               0
GRID*               8896               04.0298507463E+015.9861464629E-15+
*       -5.000000000E+01               0
GRID*               8897               01.3432835821E+016.0775380119E-15+
*       -5.000000000E+01               0
GRID*               8898               02.7272727273E+010.0000000000E+00+
*       -4.350000000E+01               0
GRID*               8899               05.4545454545E+010.0000000000E+00+
*       -4.350000000E+01               0
GRID*               8900               08.1818181818E+010.0000000000E+00+
*       -4.350000000E+01               0
GRID*               8901               01.0909090909E+020.0000000000E+00+
*       -4.350000000E+01               0
GRID*               8902               01.3636363636E+020.0000000000E+00+
*       -4.350000000E+01               0
GRID*               8903               01.6363636364E+020.0000000000E+00+
*       -4.350000000E+01               0
GRID*               8904               01.9090909091E+020.0000000000E+00+
*       -4.350000000E+01               0
GRID*               8905               02.1818181818E+020.0000000000E+00+
*       -4.350000000E+01               0
GRID*               8906               02.4545454545E+020.0000000000E+00+
*       -4.350000000E+01               0
GRID*               8907               02.7272727273E+020.0000000000E+00+
*       -4.350000000E+01               0
GRID*               8908               03.0000000000E+020.0000000000E+00+
*       -4.350000000E+01               0
GRID*               8909               03.2727272727E+020.0000000000E+00+
*       -4.350000000E+01               0
GRID*               8910               03.5454545455E+021.0492996088E-15+
*       -4.350000000E+01               0
GRID*               8911               03.8181818182E+021.1300149633E-15+
*       -4.350000000E+01               0
GRID*               8912               04.0909090909E+021.2107303178E-15+
*       -4.350000000E+01               0
GRID*               8913               04.3636363636E+021.2914456724E-15+
*       -4.350000000E+01               0
GRID*               8914               04.6363636364E+021.3721610269E-15+
*       -4.350000000E+01               0
GRID*               8915               04.9090909091E+021.4528763814E-15+
*       -4.350000000E+01               0
GRID*               8916               05.1818181818E+021.5335917359E-15+
*       -4.350000000E+01               0
GRID*               8917               05.4545454545E+021.6143070904E-15+
*       -4.350000000E+01               0
GRID*               8918               05.7272727273E+021.6950224450E-15+
*       -4.350000000E+01               0
GRID*               8919               06.0000000000E+021.7757377995E-15+
*       -4.350000000E+01               0
GRID*               8920               06.2727272727E+021.8564531540E-15+
*       -4.350000000E+01               0
GRID*               8921               06.5454545455E+021.9371685085E-15+
*       -4.350000000E+01               0
GRID*               8922               06.8181818182E+022.0178838631E-15+
*       -4.350000000E+01               0
GRID*               8923               07.0909090909E+022.0985992176E-15+
*       -4.350000000E+01               0
GRID*               8924               07.3636363636E+022.1793145721E-15+
*       -4.350000000E+01               0
GRID*               8925               07.6363636364E+022.2600299266E-15+
*       -4.350000000E+01               0
GRID*               8926               07.9090909091E+022.3407452811E-15+
*       -4.350000000E+01               0
GRID*               8927               08.1818181818E+022.4214606357E-15+
*       -4.350000000E+01               0
GRID*               8928               08.4545454545E+022.5021759902E-15+
*       -4.350000000E+01               0
GRID*               8929               08.7272727273E+022.5828913447E-15+
*       -4.350000000E+01               0
GRID*               8930               09.0000000000E+022.6636066992E-15+
*       -4.350000000E+01               0
GRID*               8931               09.2727272727E+022.7443220538E-15+
*       -4.350000000E+01               0
GRID*               8932               09.5454545455E+022.8250374083E-15+
*       -4.350000000E+01               0
GRID*               8933               09.8181818182E+022.9057527628E-15+
*       -4.350000000E+01               0
GRID*               8934               01.0090909091E+032.9864681173E-15+
*       -4.350000000E+01               0
GRID*               8935               01.0363636364E+033.0671834718E-15+
*       -4.350000000E+01               0
GRID*               8936               01.0636363636E+033.1478988264E-15+
*       -4.350000000E+01               0
GRID*               8937               01.0909090909E+033.2286141809E-15+
*       -4.350000000E+01               0
GRID*               8938               01.1181818182E+033.3093295354E-15+
*       -4.350000000E+01               0
GRID*               8939               01.1454545455E+033.3900448899E-15+
*       -4.350000000E+01               0
GRID*               8940               01.1727272727E+033.4707602445E-15+
*       -4.350000000E+01               0
GRID*               8941               01.2000000000E+033.5514755990E-15+
*       -4.350000000E+01               0
GRID*               8942               01.2272727273E+033.6321909535E-15+
*       -4.350000000E+01               0
GRID*               8943               01.2545454545E+033.7129063080E-15+
*       -4.350000000E+01               0
GRID*               8944               01.2818181818E+033.7936216625E-15+
*       -4.350000000E+01               0
GRID*               8945               01.3090909091E+033.8743370171E-15+
*       -4.350000000E+01               0
GRID*               8946               01.3363636364E+033.9550523716E-15+
*       -4.350000000E+01               0
GRID*               8947               01.3636363636E+034.0357677261E-15+
*       -4.350000000E+01               0
GRID*               8948               01.3909090909E+034.1164830806E-15+
*       -4.350000000E+01               0
GRID*               8949               01.4181818182E+034.1971984352E-15+
*       -4.350000000E+01               0
GRID*               8950               01.4454545455E+034.2779137897E-15+
*       -4.350000000E+01               0
GRID*               8951               01.4727272727E+034.3586291442E-15+
*       -4.350000000E+01               0
GRID*               8952               01.5000000000E+034.4393444987E-15+
*       -4.350000000E+01               0
GRID*               8953               01.5272727273E+034.5200598532E-15+
*       -4.350000000E+01               0
GRID*               8954               01.5545454545E+034.6007752078E-15+
*       -4.350000000E+01               0
GRID*               8955               01.5818181818E+034.6814905623E-15+
*       -4.350000000E+01               0
GRID*               8956               01.6090909091E+034.7622059168E-15+
*       -4.350000000E+01               0
GRID*               8957               01.6363636364E+034.8429212713E-15+
*       -4.350000000E+01               0
GRID*               8958               01.6636363636E+034.9236366259E-15+
*       -4.350000000E+01               0
GRID*               8959               01.6909090909E+035.0043519804E-15+
*       -4.350000000E+01               0
GRID*               8960               01.7181818182E+035.0850673349E-15+
*       -4.350000000E+01               0
GRID*               8961               01.7454545455E+035.1657826894E-15+
*       -4.350000000E+01               0
GRID*               8962               01.7727272727E+035.2464980439E-15+
*       -4.350000000E+01               0
GRID*               8963               01.7863636364E+035.2868557212E-15+
*       -4.350000000E+01               0
GRID*               8964               01.7590909091E+035.2061403667E-15+
*       -4.350000000E+01               0
GRID*               8965               01.7318181818E+035.1254250122E-15+
*       -4.350000000E+01               0
GRID*               8966               01.7045454545E+035.0447096576E-15+
*       -4.350000000E+01               0
GRID*               8967               01.6772727273E+034.9639943031E-15+
*       -4.350000000E+01               0
GRID*               8968               01.6500000000E+034.8832789486E-15+
*       -4.350000000E+01               0
GRID*               8969               01.6227272727E+034.8025635941E-15+
*       -4.350000000E+01               0
GRID*               8970               01.5954545455E+034.7218482395E-15+
*       -4.350000000E+01               0
GRID*               8971               01.5681818182E+034.6411328850E-15+
*       -4.350000000E+01               0
GRID*               8972               01.5409090909E+034.5604175305E-15+
*       -4.350000000E+01               0
GRID*               8973               01.5136363636E+034.4797021760E-15+
*       -4.350000000E+01               0
GRID*               8974               01.4863636364E+034.3989868215E-15+
*       -4.350000000E+01               0
GRID*               8975               01.4590909091E+034.3182714669E-15+
*       -4.350000000E+01               0
GRID*               8976               01.4318181818E+034.2375561124E-15+
*       -4.350000000E+01               0
GRID*               8977               01.4045454545E+034.1568407579E-15+
*       -4.350000000E+01               0
GRID*               8978               01.3772727273E+034.0761254034E-15+
*       -4.350000000E+01               0
GRID*               8979               01.3500000000E+033.9954100488E-15+
*       -4.350000000E+01               0
GRID*               8980               01.3227272727E+033.9146946943E-15+
*       -4.350000000E+01               0
GRID*               8981               01.2954545455E+033.8339793398E-15+
*       -4.350000000E+01               0
GRID*               8982               01.2681818182E+033.7532639853E-15+
*       -4.350000000E+01               0
GRID*               8983               01.2409090909E+033.6725486308E-15+
*       -4.350000000E+01               0
GRID*               8984               01.2136363636E+033.5918332762E-15+
*       -4.350000000E+01               0
GRID*               8985               01.1863636364E+033.5111179217E-15+
*       -4.350000000E+01               0
GRID*               8986               01.1590909091E+033.4304025672E-15+
*       -4.350000000E+01               0
GRID*               8987               01.1318181818E+033.3496872127E-15+
*       -4.350000000E+01               0
GRID*               8988               01.1045454545E+033.2689718581E-15+
*       -4.350000000E+01               0
GRID*               8989               01.0772727273E+033.1882565036E-15+
*       -4.350000000E+01               0
GRID*               8990               01.0500000000E+033.1075411491E-15+
*       -4.350000000E+01               0
GRID*               8991               01.0227272727E+033.0268257946E-15+
*       -4.350000000E+01               0
GRID*               8992               09.9545454545E+022.9461104401E-15+
*       -4.350000000E+01               0
GRID*               8993               09.6818181818E+022.8653950855E-15+
*       -4.350000000E+01               0
GRID*               8994               09.4090909091E+022.7846797310E-15+
*       -4.350000000E+01               0
GRID*               8995               09.1363636364E+022.7039643765E-15+
*       -4.350000000E+01               0
GRID*               8996               08.8636363636E+022.6232490220E-15+
*       -4.350000000E+01               0
GRID*               8997               08.5909090909E+022.5425336674E-15+
*       -4.350000000E+01               0
GRID*               8998               08.3181818182E+022.4618183129E-15+
*       -4.350000000E+01               0
GRID*               8999               08.0454545455E+022.3811029584E-15+
*       -4.350000000E+01               0
GRID*               9000               07.7727272727E+022.3003876039E-15+
*       -4.350000000E+01               0
GRID*               9001               07.5000000000E+022.2196722494E-15+
*       -4.350000000E+01               0
GRID*               9002               07.2272727273E+022.1389568948E-15+
*       -4.350000000E+01               0
GRID*               9003               06.9545454545E+022.0582415403E-15+
*       -4.350000000E+01               0
GRID*               9004               06.6818181818E+021.9775261858E-15+
*       -4.350000000E+01               0
GRID*               9005               06.4090909091E+021.8968108313E-15+
*       -4.350000000E+01               0
GRID*               9006               06.1363636364E+021.8160954767E-15+
*       -4.350000000E+01               0
GRID*               9007               05.8636363636E+021.7353801222E-15+
*       -4.350000000E+01               0
GRID*               9008               05.5909090909E+021.6546647677E-15+
*       -4.350000000E+01               0
GRID*               9009               05.3181818182E+021.5739494132E-15+
*       -4.350000000E+01               0
GRID*               9010               05.0454545455E+021.4932340587E-15+
*       -4.350000000E+01               0
GRID*               9011               04.7727272727E+021.4125187041E-15+
*       -4.350000000E+01               0
GRID*               9012               04.5000000000E+021.3318033496E-15+
*       -4.350000000E+01               0
GRID*               9013               04.2272727273E+021.2510879951E-15+
*       -4.350000000E+01               0
GRID*               9014               03.9545454545E+021.1703726406E-15+
*       -4.350000000E+01               0
GRID*               9015               03.6818181818E+021.0896572860E-15+
*       -4.350000000E+01               0
GRID*               9016               03.4090909091E+021.0089419315E-15+
*       -4.350000000E+01               0
GRID*               9017               03.1363636364E+020.0000000000E+00+
*       -4.350000000E+01               0
GRID*               9018               02.8636363636E+020.0000000000E+00+
*       -4.350000000E+01               0
GRID*               9019               02.5909090909E+020.0000000000E+00+
*       -4.350000000E+01               0
GRID*               9020               02.3181818182E+020.0000000000E+00+
*       -4.350000000E+01               0
GRID*               9021               02.0454545455E+020.0000000000E+00+
*       -4.350000000E+01               0
GRID*               9022               01.7727272727E+020.0000000000E+00+
*       -4.350000000E+01               0
GRID*               9023               01.5000000000E+020.0000000000E+00+
*       -4.350000000E+01               0
GRID*               9024               01.2272727273E+020.0000000000E+00+
*       -4.350000000E+01               0
GRID*               9025               09.5454545455E+010.0000000000E+00+
*       -4.350000000E+01               0
GRID*               9026               06.8181818182E+010.0000000000E+00+
*       -4.350000000E+01               0
GRID*               9027               04.0909090909E+010.0000000000E+00+
*       -4.350000000E+01               0
GRID*               9028               01.3636363636E+010.0000000000E+00+
*       -4.350000000E+01               0
GRID*               9029               00.0000000000E+000.0000000000E+00+
*       -4.350000000E+01               0
GRID*               9030               00.0000000000E+006.1232337865E-15+
*       -5.000000000E+01               0
GRID*               9031               01.8000000000E+035.3272133985E-15+
*       -4.350000000E+01               0
GRID*               9032               01.8000000000E+030.0000000000E+00+
*       -5.000000000E+01               0
$*
$* ELEMENT CARDS
$*
$*  Mesh Collector: Leg
$*  Mesh: 3d_mesh(1)
CTETRA         1       1    8953    3191    8954    5699    5565    5566+
+           8972      26      27      28
CTETRA         2       1    8954    3183    3192    5709    5321    3904+
+           5324      29      30      31
CTETRA         3       1    8955    8822    5687    5698      32    8622+
+             33      34    8621    6583
CTETRA         4       1    8953    8954    8821    5699    8972      35+
+             36      26      28    8370
CTETRA         5       1    8953    8820    8821    5709      37    8841+
+             36      38    8618    8619
CTETRA         6       1    5617    5629    5628       1    6387    6386+
+           6385      39      40      41
CTETRA         7       1    8916    8784    8917    3525      42      43+
+           9009    5397      44    5398
CTETRA         8       1    8918    3507    3516    6105    5393    4804+
+           5396      45      46      47
CTETRA         9       1    8784    3524    6095    6106      48      49+
+           8444    8445      50    7731
CTETRA        10       1    8917    3525    8784    6116    5398      44+
+             43      51      52    8545
CTETRA        11       1    8924    3461    3452    6018    5506    4653+
+           5507      53      54      55
CTETRA        12       1    8924    8925    3453    6028    9001    5382+
+           5381      56      57      58
CTETRA        13       1    8924    6028    3453    6039      56      58+
+           5381      59    7544      60
CTETRA        14       1    8923    8791    8924    6039      61      62+
+           9002      63    8559      59
CTETRA        15       1    8924    6018    8792    6029      53    8428+
+             64      65    7514    8431
CTETRA        16       1    8961    8829    8962    5621      66      67+
+           8964      68    8635      69
CTETRA        17       1    8961    8828    5621       2      70    8634+
+             68      71      72      73
CTETRA        18       1    8961    8829    8828       3      66    8833+
+             70      74      75      76
CTETRA        19       1    3657    3667    3666    6284    5224    5223+
+           5222      77      78      79
CTETRA        20       1    3274    3275    3284    5817    4133    4160+
+           4159      80      81      82
CTETRA        21       1    3667    6284    6283    6294      78    8232+
+             83      84    8262    8261
CTETRA        22       1    3656    6275    6274    6285      85    8207+
+             86      87    8237    8236
CTETRA        23       1    3655    3656    3665    6275    5192    5219+
+           5218      88      85      89
CTETRA        24       1    3124    5627    5615       4      90    6381+
+             91      92      93      94
CTETRA        25       1    3616    6235    3626    6246      95      96+
+           5109      97    8127      98
CTETRA        26       1    3625    3626    3635    6246    5108    5135+
+           5134      99      98     100
CTETRA        27       1    3616    3617    3626    6235    5083    5110+
+           5109      95     101      96
CTETRA        28       1    3130    3131    3140    5641    3733    3760+
+           3759     102     103     104
CTETRA        29       1    8906    3623    6216    6227    5470     105+
+            106     107     108    8072
CTETRA        30       1    3613    3614    3623    6217    5076    5103+
+           5102     109     110     111
CTETRA        31       1    3613    3623    3622    6228    5102    5101+
+           5100     112     113     114
CTETRA        32       1    3605    6195    6205    6206     115    8011+
+            116     117    8013    8012
CTETRA        33       1    3613    6206    3614    6217     118     119+
+           5076     109    8044     110
CTETRA        34       1    3583    3584    3593    6187    4992    5019+
+           5018     120     121     122
CTETRA        35       1    3162    3171    5669       5    3847     123+
+            124     125     126     127
CTETRA        36       1    3575    6176    6175    6186     128    7928+
+            129     130    7958    7957
CTETRA        37       1    3139    3140    3149    5652    3758    3785+
+           3784     131     132     133
CTETRA        38       1    3575    3585    3584    6186    4996    4995+
+           4994     130     134     135
CTETRA        39       1    3572    6168    3573    6179     136     137+
+           4961     138    7938     139
CTETRA        40       1    3564    6167    3573    6168     140     141+
+           4963     142    7906     137
CTETRA        41       1    3574    6176    3584    6177     143     144+
+           4993     145    7931     146
CTETRA        42       1    3564    3565    3574    6166    4939    4966+
+           4965     147     148     149
CTETRA        43       1    3574    6167    6166    6177     150    7903+
+            149     145    7933    7932
CTETRA        44       1    3189    3190    3199    5701    3898    3925+
+           3924     151     152     153
CTETRA        45       1    3533    6117    3542    6118     154     155+
+           4878     156    7764     157
CTETRA        46       1    3217    5733    3226    5734     158     159+
+           4000     160    6681     161
CTETRA        47       1    3530    3531    3540    6120    4845    4872+
+           4871     162     163     164
CTETRA        48       1    3607    6224    3617    6235     165     166+
+           5084     167    8096     101
CTETRA        49       1    3531    6109    6119    6120     168    7769+
+            169     163    7771    7770
CTETRA        50       1    3502    6079    6078    6089     170    7655+
+            171     172    7685    7684
CTETRA        51       1    3240    3250    3249    5771    4065    4064+
+           4063     173     174     175
CTETRA        52       1    3501    3511    3510    6090    4790    4789+
+           4788     176     177     178
CTETRA        53       1    3500    3501    3510    6091    4761    4788+
+           4787     179     180     181
CTETRA        54       1    3144    5635    5636       6     182    6405+
+            183     184     185     186
CTETRA        55       1    3490    6081    3499    6082     187     188+
+           4757     189    7663     190
CTETRA        56       1    8687    3688    3689    6323    5439    5283+
+           5440     191     192     193
CTETRA        57       1    3481    3491    3490    6070    4734    4733+
+           4732     194     195     196
CTETRA        58       1    3490    6071    6070    6082     197    7632+
+            196     189    7665    7664
CTETRA        59       1    3252    3253    3262    5778    4073    4100+
+           4099     198     199     200
CTETRA        60       1    3481    3482    3491    6070    4708    4735+
+           4734     194     201     195
CTETRA        61       1    3489    3499    3498    6082    4756    4755+
+           4754     202     190     203
CTETRA        62       1    3489    6071    6082    6083     204    7665+
+            202     205    7667    7666
CTETRA        63       1    3243    3253    3252    5767    4074    4073+
+           4072     206     207     208
CTETRA        64       1    8920    3488    8788    6062    5499     209+
+            210     211     212    8437
CTETRA        65       1    3489    6071    3490    6082     204     197+
+           4730     202    7665     189
CTETRA        66       1    3243    3244    3253    5767    4048    4075+
+           4074     206     213     207
CTETRA        67       1    3481    6059    3482    6070     214     215+
+           4708     194    7631     201
CTETRA        68       1    8921    3488    3479    6051    5500    4728+
+           5501     216     217     218
CTETRA        69       1    3449    3450    3459    6021    4620    4647+
+           4646     219     220     221
CTETRA        70       1    3441    5998    6009    6010     222    7458+
+            223     224    7460    7459
CTETRA        71       1    3449    6010    3450    6021     225     226+
+           4620     219    7492     220
CTETRA        72       1    3448    3449    3458    6022    4617    4644+
+           4643     227     228     229
CTETRA        73       1    3439    3449    3448    6012    4618    4617+
+           4616     230     231     232
CTETRA        74       1    3534    6138    6137    6148     233    7822+
+            234     235    7852    7851
CTETRA        75       1    3439    6012    3448    6013     230     232+
+           4616     236    7468     237
CTETRA        76       1    3447    6013    6023    6024     238    7499+
+            239     240    7501    7500
CTETRA        77       1    3680    3689    6312    6322    5285     241+
+            242     243     244    8342
CTETRA        78       1    3208    3209    3218    5722    3951    3978+
+           3977     245     246     247
CTETRA        79       1    3447    6023    3457    6024     239     248+
+           4640     240    7500     249
CTETRA        80       1    3410    5981    3419    5982     250     251+
+           4535     252    7381     253
CTETRA        81       1    3419    5981    5992    5993     251    7411+
+            254     255    7413    7412
CTETRA        82       1    3418    3428    3427    5993    4559    4558+
+           4557     256     257     258
CTETRA        83       1    3417    5983    3418    5994     259     260+
+           4530     261    7417     262
CTETRA        84       1    3417    3418    3427    5994    4530    4557+
+           4556     261     262     263
CTETRA        85       1    3405    5954    3406    5965     264     265+
+           4498     266    7334     267
CTETRA        86       1    3405    3406    3415    5965    4498    4525+
+           4524     266     267     268
CTETRA        87       1    3406    3416    3415    5964    4527    4526+
+           4525     269     270     271
CTETRA        88       1    3396    3406    3405    5954    4499    4498+
+           4497     272     265     264
CTETRA        89       1    3194    3195    3204    5717    3911    3938+
+           3937     273     274     275
CTETRA        90       1    3375    5925    3376    5936     276     277+
+           4414     278    7253     279
CTETRA        91       1    3375    3376    3385    5936    4414    4441+
+           4440     278     279     280
CTETRA        92       1    3366    3376    3375    5925    4415    4414+
+           4413     281     277     276
CTETRA        93       1    3638    3648    3647    6263    5171    5170+
+           5169     282     283     284
CTETRA        94       1    3365    5926    3374    5927     285     286+
+           4410     287    7226     288
CTETRA        95       1    3356    5915    3365    5916     289     290+
+           4385     291    7195     292
CTETRA        96       1    3325    5854    3326    5865     293     294+
+           4276     295    7052     296
CTETRA        97       1    3326    5853    5864    5865     297    7049+
+            298     296    7051    7050
CTETRA        98       1    3334    5876    3343    5877     299     300+
+           4325     301    7084     302
CTETRA        99       1    3334    5866    5865    5877     303    7053+
+            304     301    7086    7085
CTETRA       100       1    3332    5868    5867    5879     305    7059+
+            306     307    7092    7091
CTETRA       101       1    3322    5868    3331    5869     308     309+
+           4291     310    7062     311
CTETRA       102       1    3322    3323    3332    5868    4267    4294+
+           4293     308     312     305
CTETRA       103       1    3647    3657    3656    6274    5196    5195+
+           5194     313     314      86
CTETRA       104       1    3292    3293    3302    5839    4183    4210+
+           4209     315     316     317
CTETRA       105       1    3292    5828    3293    5839     318     319+
+           4183     315    6980     316
CTETRA       106       1    3294    5826    5837    5838     320    6974+
+            321     322    6976    6975
CTETRA       107       1    3275    5806    5805    5817     323    6885+
+            324      81    6918    6917
CTETRA       108       1    3272    5798    3281    5799     325     326+
+           4153     327    6864     328
CTETRA       109       1    3280    5799    3281    5810     329     328+
+           4151     330    6897     331
CTETRA       110       1    3280    3281    3290    5810    4151    4178+
+           4177     330     331     332
CTETRA       111       1    8943    3281    8944    5809    5545    5546+
+           8982     333     334     335
CTETRA       112       1    3260    5779    3261    5790     336     337+
+           4095     338    6841     339
CTETRA       113       1    3250    3260    3259    5780    4093    4092+
+           4091     340     341     342
CTETRA       114       1    3251    5779    3260    5780     343     336+
+           4094     344    6811     341
CTETRA       115       1    3241    5758    5769    5770     345    6782+
+            346     347    6784    6783
CTETRA       116       1    3680    3690    3689    6322    5287    5286+
+           5285     243     348     244
CTETRA       117       1    3149    3150    3159    5662    3786    3813+
+           3812     349     350     351
CTETRA       118       1    3231    5760    3240    5761     352     353+
+           4038     354    6758     355
CTETRA       119       1    3221    5739    3222    5750     356     357+
+           3986     358    6729     359
CTETRA       120       1    3241    5770    3250    5771     347     360+
+           4066     361    6786     174
CTETRA       121       1    8725    3118    3117    5602    5588    3724+
+           5587     362     363     364
CTETRA       122       1    3678    6313    3688    6324     365     366+
+           5281     367    8347     368
CTETRA       123       1    3240    3241    3250    5771    4039    4066+
+           4065     173     361     174
CTETRA       124       1    3198    3199    3208    5712    3923    3950+
+           3949     369     370     371
CTETRA       125       1    3188    3198    3197    5702    3921    3920+
+           3919     372     373     374
CTETRA       126       1    3189    5690    5701    5702     375    6590+
+            151     376    6592    6591
CTETRA       127       1    3198    5712    3207    5713     369     377+
+           3947     378    6622     379
CTETRA       128       1    3198    3208    3207    5712    3949    3948+
+           3947     369     371     377
CTETRA       129       1    3197    5702    3198    5713     374     373+
+           3920     380    6624     378
CTETRA       130       1    3167    3168    3177    5684    3836    3863+
+           3862     381     382     383
CTETRA       131       1    3158    3159    3168    5673    3811    3838+
+           3837     384     385     386
CTETRA       132       1    3118    3119    3128    5612    3728    3727+
+           3726     387     388     389
CTETRA       133       1    3168    3169    3178    5683    3839    3866+
+           3865     390     391     392
CTETRA       134       1    3176    5685    5684    5696     393    6544+
+            394     395    6577    6576
CTETRA       135       1    3111    3121    3120    5620    3698    3697+
+           3696     396     397     398
CTETRA       136       1    3160    5671    3169    5672     399     400+
+           3841     401    6507     402
CTETRA       137       1    3117    3118    3127    5613    3724    3723+
+           3722     403     404     405
CTETRA       138       1    3157    5663    5674    5675     406    6515+
+            407     408    6517    6516
CTETRA       139       1    3148    5652    3149    5663     409     133+
+           3783     410    6484     411
CTETRA       140       1    3130    5630    5641    5642     412    6422+
+            102     413    6424    6423
CTETRA       141       1    3156    5664    3157    5675     414     415+
+           3805     416    6518     408
CTETRA       142       1    3116    3117    3126    5614    3720    3719+
+           3718     417     418     419
CTETRA       143       1    3676    3686    3685    6305    5277    5276+
+           5275     420     421     422
CTETRA       144       1    8957    5665    3156    5676     423     424+
+           5315     425    6521     426
CTETRA       145       1    8957    3164    3155    5655    5572    3828+
+           5573     427     428     429
CTETRA       146       1    8957    3156    3165    5676    5315    3829+
+           5318     425     426     430
CTETRA       147       1    8958    5654    3147    5665     431     432+
+           5313     433    6490     434
CTETRA       148       1    3156    3166    3165    5675    3831    3830+
+           3829     416     435     436
CTETRA       149       1    3147    5664    3156    5665     437     414+
+           3804     434    6488     424
CTETRA       150       1    3120    5631    3129    5632     438     439+
+           3729     440    6395     441
CTETRA       151       1    3120    3121    3130    5631    3697    3732+
+           3731     438     442     443
CTETRA       152       1    3147    3157    3156    5664    3806    3805+
+           3804     437     415     414
CTETRA       153       1    8957    3155    8958    5655    5573    5574+
+           8968     427     429     444
CTETRA       154       1    3148    3158    3157    5663    3809    3808+
+           3807     410     445     406
CTETRA       155       1    3129    5632    5631    5643     441    6395+
+            439     446    6428    6427
CTETRA       156       1    8727    8746    5604    5605    8667    8650+
+            447     448    8651    6346
CTETRA       157       1    3156    5675    3165    5676     416     436+
+           3829     426    6519     430
CTETRA       158       1    3156    3157    3166    5675    3805    3832+
+           3831     416     408     435
CTETRA       159       1    8725    8745    8744    5603    8659    8762+
+           8660     449    8652    8655
CTETRA       160       1    3125    3126    3135    5625    3717    3747+
+           3746     450     451     452
CTETRA       161       1    3126    5613       6       7     453     454+
+            455     456     457     458
CTETRA       162       1    8728    3114    8729    5607    5593    5596+
+           8739     459     460     461
CTETRA       163       1    3170    3180    3179    5680    3871    3870+
+           3869     462     463     464
CTETRA       164       1    8728    8749    8748    5607    8680    8758+
+           8677     459    8644    8647
CTETRA       165       1    8727    8728    8748    5606    8738    8677+
+           8676     465     466    8646
CTETRA       166       1    3596    6184    6194    6195     467    7980+
+            468     469    7982    7981
CTETRA       167       1    3669    6302    3679    6313     470     471+
+           5256     472    8316     473
CTETRA       168       1    8689    8709    8710    6325    3096    8714+
+           3092     474    8504    8505
CTETRA       169       1    3158    5662    3159    5673     475     351+
+           3811     384    6512     385
CTETRA       170       1    8900    8901    3669    6303    9025    5430+
+           5429     476     477     478
CTETRA       171       1    3679    6302    6312    6313     471    8314+
+            479     473    8316    8315
CTETRA       172       1    8901    8769    8902    6292     480     481+
+           9024     482    8514     483
CTETRA       173       1    3179    3180    3189    5691    3870    3897+
+           3896     484     485     486
CTETRA       174       1    8900    3677    3668    6293    5458    5253+
+           5459     487     488     489
CTETRA       175       1    3666    6284    3676    6295      79     490+
+           5249     491    8264     492
CTETRA       176       1    3667    6273    6283    6284     493    8231+
+             83      78    8233    8232
CTETRA       177       1    3648    6252    6262    6263     494    8172+
+            495     283    8174    8173
CTETRA       178       1    3617    6234    3627    6245     496     497+
+           5112     498    8124     499
CTETRA       179       1    3657    6263    6273    6274     500    8203+
+            501     314    8205    8204
CTETRA       180       1    3159    5662    5661    5673     351    6479+
+            502     385    6512    6511
CTETRA       181       1    3619    6221    6231    6232     503    8085+
+            504     505    8087    8086
CTETRA       182       1    3646    6254    6264    6265     506    8178+
+            507     508    8180    8179
CTETRA       183       1    3587    6183    3596    6184     509     510+
+           5028     511    7950     467
CTETRA       184       1    3600    6211    3609    6212     512     513+
+           5063     514    8030     515
CTETRA       185       1    3608    3609    3618    6223    5061    5088+
+           5087     516     517     518
CTETRA       186       1    3628    6233    6232    6243     519    8089+
+            520     521    8119    8118
CTETRA       187       1    3150    5650    5661    5662     522    6478+
+            523     350    6480    6479
CTETRA       188       1    3580    6192    6191    6202     524    7974+
+            525     526    8004    8003
CTETRA       189       1    3590    6191    6201    6202     527    8001+
+            528     529    8003    8002
CTETRA       190       1    3149    5651    3150    5662     530     531+
+           3786     349    6481     350
CTETRA       191       1    3571    6170    6180    6181     532    7942+
+            533     534    7944    7943
CTETRA       192       1    3210    3220    3219    5741    3981    3980+
+           3979     535     536     537
CTETRA       193       1    3210    3211    3220    5741    3955    3982+
+           3981     535     538     536
CTETRA       194       1    3219    5741    3220    5752     537     536+
+           3980     539    6735     540
CTETRA       195       1    3559    6141    6151    6152     541    7859+
+            542     543    7861    7860
CTETRA       196       1    3567    3568    3577    6163    4948    4975+
+           4974     544     545     546
CTETRA       197       1    3540    6130    3549    6131     547     548+
+           4897     549    7801     550
CTETRA       198       1    3529    3539    3538    6122    4868    4867+
+           4866     551     552     553
CTETRA       199       1    3577    3578    3587    6173    4976    5003+
+           5002     554     555     556
CTETRA       200       1    3578    6172    3587    6173     557     558+
+           5003     555    7919     556
CTETRA       201       1    3520    3530    3529    6111    4843    4842+
+           4841     559     560     561
CTETRA       202       1    3577    3587    3586    6173    5002    5001+
+           5000     554     556     562
CTETRA       203       1    8959    3138    5643       8    5311     563+
+            564     565     566     567
CTETRA       204       1    3512    6099    6098    6109     568    7711+
+            569     570    7741    7740
CTETRA       205       1    3502    6089    3511    6090     172     571+
+           4791     572    7686     177
CTETRA       206       1    3511    6090    6089    6100     177    7686+
+            571     573    7716    7715
CTETRA       207       1    3568    3578    3577    6162    4977    4976+
+           4975     574     575     576
CTETRA       208       1    3482    3483    3492    6069    4711    4738+
+           4737     577     578     579
CTETRA       209       1    3482    6059    6058    6069     215    7598+
+            580     577    7629    7628
CTETRA       210       1    8726    3117    3116    5603    5590    3720+
+           5589     581     582     583
CTETRA       211       1    3463    3473    3472    6048    4684    4683+
+           4682     584     585     586
CTETRA       212       1    3452    6008    6007    6019     587    7453+
+            588     589    7486    7485
CTETRA       213       1    3451    6008    6019    6020     590    7486+
+            591     592    7488    7487
CTETRA       214       1    3441    5998    3442    6009     222     593+
+           4598     223    7458     594
CTETRA       215       1    3559    3560    3569    6151    4926    4953+
+           4952     542     595     596
CTETRA       216       1    3422    5977    3423    5988     597     598+
+           4545     599    7399     600
CTETRA       217       1    3679    3680    3689    6312    5258    5285+
+           5284     479     242     241
CTETRA       218       1    3423    5977    5976    5988     598    7366+
+            601     600    7399    7398
CTETRA       219       1    3559    3569    3568    6151    4952    4951+
+           4950     542     596     602
CTETRA       220       1    3422    5988    3431    5989     599     603+
+           4569     604    7400     605
CTETRA       221       1    3412    5967    5978    5979     606    7371+
+            607     608    7373    7372
CTETRA       222       1    3413    5967    5966    5978     609    7338+
+            610     611    7371    7370
CTETRA       223       1    3560    6150    3569    6151     612     613+
+           4953     595    7857     596
CTETRA       224       1    3404    5955    5966    5967     614    7337+
+            615     616    7339    7338
CTETRA       225       1    3392    5949    5948    5960     617    7288+
+            618     619    7321    7320
CTETRA       226       1    3550    3560    3559    6140    4927    4926+
+           4925     620     621     622
CTETRA       227       1    3393    5947    3394    5958     623     624+
+           4464     625    7315     626
CTETRA       228       1    3402    5969    3411    5970     627     628+
+           4513     629    7347     630
CTETRA       229       1    3393    5958    3402    5959     625     631+
+           4488     632    7316     633
CTETRA       230       1    3366    5914    5925    5926     634    7222+
+            281     635    7224    7223
CTETRA       231       1    3179    5680    5691    5692     464    6562+
+            484     636    6564    6563
CTETRA       232       1    8934    8935    3363    5918    8991    5362+
+           5361     637     638     639
CTETRA       233       1    8827    5643    5632       8    8631    6428+
+           8632     640     567     641
CTETRA       234       1    3354    3355    3364    5917    4355    4382+
+           4381     642     643     644
CTETRA       235       1    3364    5917    5916    5928     644    7198+
+            645     646    7231    7230
CTETRA       236       1    3355    5905    5916    5917     647    7197+
+            648     643    7199    7198
CTETRA       237       1    3679    6312    3689    6323     479     241+
+           5284     649    8344     193
CTETRA       238       1    8936    8937    3345    5896    8989    5358+
+           5357     650     651     652
CTETRA       239       1    3527    3537    3536    6124    4862    4861+
+           4860     653     654     655
CTETRA       240       1    3681    3682    3691    6310    5264    5291+
+           5290     656     657     658
CTETRA       241       1    8938    5864    8806    5875     659    8400+
+            660     661    7080    8403
CTETRA       242       1    8938    3335    5864    5875    5534     662+
+            659     661     663    7080
CTETRA       243       1    3336    5885    5884    5896     664    7108+
+            665     666    7141    7140
CTETRA       244       1    3327    5873    5884    5885     667    7107+
+            668     669    7109    7108
CTETRA       245       1    8945    8946    3264    5797    8980    5340+
+           5339     670     671     672
CTETRA       246       1    3323    5856    3324    5867     673     674+
+           4270     675    7058     676
CTETRA       247       1    3187    5692    3188    5703     677     678+
+           3892     679    6596     680
CTETRA       248       1    3306    5833    5844    5845     681    6993+
+            682     683    6995    6994
CTETRA       249       1    3313    5846    5857    5858     684    7030+
+            685     686    7032    7031
CTETRA       250       1    3216    5724    5723    5735     687    6653+
+            688     689    6686    6685
CTETRA       251       1    8945    8813    8946    5797     690     691+
+           8980     670    8603     671
CTETRA       252       1    3295    5825    5824    5836     692    6938+
+            693     694    6971    6970
CTETRA       253       1    3277    5804    5803    5815     695    6879+
+            696     697    6912    6911
CTETRA       254       1    3266    5794    3267    5805     698     699+
+           4111     700    6884     701
CTETRA       255       1    3275    5805    3276    5816     324     702+
+           4136     703    6915     704
CTETRA       256       1    3223    3224    3233    5747    3992    4019+
+           4018     705     706     707
CTETRA       257       1    3267    5804    3276    5805     708     709+
+           4138     701    6882     702
CTETRA       258       1    3255    5796    3264    5797     710     711+
+           4104     712    6860     672
CTETRA       259       1    3257    5784    5783    5795     713    6823+
+            714     715    6856    6855
CTETRA       260       1    3225    5735    5734    5746     716    6684+
+            717     718    6717    6716
CTETRA       261       1    3228    5763    3237    5764     719     720+
+           4029     721    6767     722
CTETRA       262       1    3228    5752    3229    5763     723     724+
+           4005     719    6766     725
CTETRA       263       1    8907    3614    3605    6205    5472    5078+
+           5473     726     727     116
CTETRA       264       1    3229    5751    5762    5763     728    6763+
+            729     725    6765    6764
CTETRA       265       1    3236    5754    3245    5755     730     731+
+           4053     732    6740     733
CTETRA       266       1    3253    5766    5777    5778     734    6804+
+            735     199    6806    6805
CTETRA       267       1    3236    5743    5754    5755     736    6739+
+            730     732    6741    6740
CTETRA       268       1    3207    5723    3216    5724     737     688+
+           3972     738    6653     687
CTETRA       269       1    3207    3208    3217    5723    3948    3975+
+           3974     737     739     740
CTETRA       270       1    8960    8827    5632       8     741    8632+
+            742     743     640     641
CTETRA       271       1    3208    5722    3217    5723     245     744+
+           3975     739    6650     740
CTETRA       272       1    3236    5744    5743    5755     745    6709+
+            736     732    6742    6741
CTETRA       273       1    3197    5703    5702    5714     746    6594+
+            374     747    6627    6626
CTETRA       274       1    3205    3206    3215    5725    3942    3969+
+           3968     748     749     750
CTETRA       275       1    3206    5714    5713    5725     751    6625+
+            752     749    6658    6657
CTETRA       276       1    3227    5733    5732    5744     753    6678+
+            754     755    6711    6710
CTETRA       277       1    8902    3651    3660    6281    5425    5204+
+           5428     756     757     758
CTETRA       278       1    3226    5744    3235    5745     759     760+
+           4025     761    6712     762
CTETRA       279       1    3169    5670    5681    5682     763    6534+
+            764     765    6536    6535
CTETRA       280       1    8959    8960    3138       8    8966    5312+
+           5311     565     743     566
CTETRA       281       1    3486    6054    6053    6064     766    7584+
+            767     768    7614    7613
CTETRA       282       1    3178    5682    5681    5693     769    6535+
+            770     771    6568    6567
CTETRA       283       1    3178    5682    5693    5694     769    6568+
+            771     772    6570    6569
CTETRA       284       1    3167    5673    5684    5685     773    6543+
+            381     774    6545    6544
CTETRA       285       1    3628    3629    3638    6242    5117    5144+
+           5143     775     776     777
CTETRA       286       1    3166    3176    3175    5685    3859    3858+
+           3857     778     393     779
CTETRA       287       1    3159    5661    5672    5673     502    6509+
+            780     385    6511    6510
CTETRA       288       1    8688    3687    3688    6324    5437    5280+
+           5438     781     782     368
CTETRA       289       1    8960    3129    3138       8    5309    3754+
+           5312     743     783     566
CTETRA       290       1    3130    5630    3131    5641     412     784+
+           3733     102    6422     103
CTETRA       291       1    3131    5629    3140    5641     785     786+
+           3760     103    6421     104
CTETRA       292       1    9031    8723    8742    5600    8733    8662+
+           8661     787     788    8353
CTETRA       293       1    8909    3588    3597    6204    5411    5029+
+           5414     789     790     791
CTETRA       294       1    3119    5601    5600    5612     792    6330+
+            793     388    6329    6328
CTETRA       295       1    3597    3607    3606    6225    5056    5055+
+           5054     794     795     796
CTETRA       296       1    3231    3241    3240    5760    4040    4039+
+           4038     352     797     353
CTETRA       297       1    3606    3615    6226    6236    5079     798+
+            799     800     801    8100
CTETRA       298       1    3615    3616    3625    6236    5080    5107+
+           5106     801     802     803
CTETRA       299       1    8906    3615    3624    6237    5417    5104+
+           5420     804     805     806
CTETRA       300       1    8906    3623    3614    6216    5470    5103+
+           5471     106     105     807
CTETRA       301       1    8904    8772    8905    3633     808     809+
+           9021    5421     810    5422
CTETRA       302       1    8905    3623    8906    6227    5469    5470+
+           9020     811     108     107
CTETRA       303       1    8810    5830    5819       9    8597    6955+
+           8598     812     813     814
CTETRA       304       1    8907    3614    6205    6216    5472     727+
+            726     815     807    8041
CTETRA       305       1    8774    6226    3615    6237    8525     798+
+            816    8524    8102     805
CTETRA       306       1    8944    3272    8945    5798    5547    5548+
+           8981     817     325     818
CTETRA       307       1    8944    3273    3282    5819    5341    4154+
+           5344     819     820     821
CTETRA       308       1    3534    3543    6138    6148    4879     822+
+            233     235     823    7852
CTETRA       309       1    8952    8819    5720      10     824    8616+
+            825     826     827     828
CTETRA       310       1    3159    5672    3168    5673     780     829+
+           3838     385    6510     386
CTETRA       311       1    8958    8825    5654    5665     830    8628+
+            431     433    8627    6490
CTETRA       312       1    8906    8774    8907    3615     831     832+
+           9019    5417     816    5418
CTETRA       313       1    3282    5819    5830       9     821    6955+
+            833     834     814     813
CTETRA       314       1    3170    5680    3179    5681     462     464+
+           3869     835    6532     836
CTETRA       315       1    3201    5719    3202    5730     837     838+
+           3930     839    6673     840
CTETRA       316       1    3569    6151    6161    6162     596    7887+
+            841     842    7889    7888
CTETRA       317       1    3253    3263    3262    5777    4102    4101+
+           4100     735     843     844
CTETRA       318       1    3282    5818    3283    5829     845     846+
+           4155     847    6952     848
CTETRA       319       1    3222    5749    3231    5750     849     850+
+           4013     359    6727     851
CTETRA       320       1    3233    5746    3234    5757     852     853+
+           4020     854    6748     855
CTETRA       321       1    8945    8812    5797    5808     856    8602+
+            670     857    8601    6893
CTETRA       322       1    3282    5829    3291    5830     847     858+
+           4179     833    6953     859
CTETRA       323       1    8943    8810    5819       9     860    8598+
+            861     862     812     814
CTETRA       324       1    3282    5830    3291       9     833     859+
+           4179     834     813     863
CTETRA       325       1    8943    3290    5809    5820    5544     864+
+            333     865     866    6925
CTETRA       326       1    8942    8810    8943       9     867     860+
+           8983     868     812     862
CTETRA       327       1    8942    3291    5830       9    5345     859+
+            869     868     863     813
CTETRA       328       1    3569    6151    6150    6161     596    7857+
+            613     841    7887    7886
CTETRA       329       1    3578    6162    6161    6172     575    7888+
+            870     557    7918    7917
CTETRA       330       1    3178    3179    3188      11    3867    3894+
+           3893     871     872     873
CTETRA       331       1    3167    5673    3168    5684     773     386+
+           3836     381    6543     382
CTETRA       332       1    8942    5830    8810       9     869    8597+
+            867     868     813     812
CTETRA       333       1    3114    5606    5617    5618     874    6349+
+            875     876    6352    6351
CTETRA       334       1    3116    5603    5614    5615     583    6337+
+            417     877    6340    6339
CTETRA       335       1    3273    5808    5807    5819     878    6891+
+            879     820    6924    6923
CTETRA       336       1    8943    5819    3282       9     861     821+
+           5343     862     814     834
CTETRA       337       1    8943    3290    3281    5809    5544    4178+
+           5545     333     864     334
CTETRA       338       1    3645    3646    3655    6266    5164    5191+
+           5190     880     881     882
CTETRA       339       1    3251    5768    5779    5780     883    6810+
+            343     344    6812    6811
CTETRA       340       1    8950    3219    3228      12    5329    4004+
+           5332     884     885     886
CTETRA       341       1    3637    3647    3646    6254    5168    5167+
+           5166     887     888     506
CTETRA       342       1    8830    5610    8752      13    8637    8638+
+           8639     889     890     891
CTETRA       343       1    3634    3635    3644    6257    5133    5160+
+           5159     892     893     894
CTETRA       344       1    8681    8701    3694    6316    3103     895+
+           5451     896    8487     897
CTETRA       345       1    8686    8707    3689    6322    3100     898+
+           5441     899    8499     244
CTETRA       346       1    3625    3635    3634    6257    5134    5133+
+           5132     900     893     892
CTETRA       347       1    8725    3117    8726    5603    5587    5590+
+           8736     449     582     581
CTETRA       348       1    3677    6283    6293    6294     901    8259+
+            488     902    8261    8260
CTETRA       349       1    3649    3650    3659    6261    5176    5203+
+           5202     903     904     905
CTETRA       350       1    8962    9031    3111      13    8963    5305+
+           5304     906     907     908
CTETRA       351       1    3181    5679    5678      14     909    6526+
+            910     911     912     913
CTETRA       352       1    3626    6246    6245    6256      98    8126+
+            914     915    8156    8155
CTETRA       353       1    3587    6173    6183    6184     556    7949+
+            509     511    7951    7950
CTETRA       354       1    3603    3604    3613    6207    5048    5075+
+           5074     916     917     918
CTETRA       355       1    3604    6196    6195    6206     919    7984+
+            920     921    8014    8013
CTETRA       356       1    3679    6313    6312    6323     473    8315+
+            479     649    8345    8344
CTETRA       357       1    3594    6196    3604    6207     922     919+
+           5049     923    8016     917
CTETRA       358       1    3587    6173    6172    6183     556    7919+
+            558     509    7949    7948
CTETRA       359       1    8907    3605    8908    6205    5473    5474+
+           9018     726     116     924
CTETRA       360       1    3585    6186    6185    6196     134    7956+
+            925     926    7986    7985
CTETRA       361       1    3592    3593    3602    6198    5017    5044+
+           5043     927     928     929
CTETRA       362       1    3592    6198    3602    6199     927     929+
+           5043     930    7993     931
CTETRA       363       1    3460    3461    3470    6030    4651    4678+
+           4677     932     933     934
CTETRA       364       1    3659    6261    6271    6272     905    8197+
+            935     936    8199    8198
CTETRA       365       1    3584    3593    6187    6197    5019     122+
+            121     937     938    7989
CTETRA       366       1    3273    3283    3282    5818    4156    4155+
+           4154     939     846     845
CTETRA       367       1    3592    6188    3593    6198     940     941+
+           5017     927    7992     928
CTETRA       368       1    3187    3188    5692      11    3892     678+
+            677     942     873     943
CTETRA       369       1    3553    3563    3562    6169    4934    4933+
+           4932     944     945     946
CTETRA       370       1    3562    3563    3572    6169    4933    4960+
+           4959     946     945     947
CTETRA       371       1    3192    5708    5719    5720     948    6642+
+            949     950    6644    6643
CTETRA       372       1    3555    6155    3565    6156     951     952+
+           4940     953    7872     954
CTETRA       373       1    3563    3564    3573    6168    4936    4963+
+           4962     955     142     137
CTETRA       374       1    3564    6157    6156    6167     956    7875+
+            957     140    7905    7904
CTETRA       375       1    9031    8731    3111      13    8732    5306+
+           5305     907     958     908
CTETRA       376       1    3118    5601    3119    5612     959     792+
+           3728     387    6329     388
CTETRA       377       1    3118    5612    3127    5613     387     960+
+           3723     404    6331     405
CTETRA       378       1    3586    3587    3596    6184    5001    5028+
+           5027     961     511     467
CTETRA       379       1    3201    5719    5730    5731     837    6673+
+            839     962    6675    6674
CTETRA       380       1    3502    3503    3512    6088    4767    4794+
+           4793     963     964     965
CTETRA       381       1    3520    3521    3530    6110    4817    4844+
+           4843     966     967     968
CTETRA       382       1    3500    6080    3501    6091     969     970+
+           4761     179    7690     180
CTETRA       383       1    3509    3510    3519    6102    4786    4813+
+           4812     971     972     973
CTETRA       384       1    3518    3519    3528    6113    4811    4838+
+           4837     974     975     976
CTETRA       385       1    3519    6102    6101    6112     973    7720+
+            977     978    7750    7749
CTETRA       386       1    3502    6079    6089    6090     170    7685+
+            172     572    7687    7686
CTETRA       387       1    8945    5797    3264    5808     670     672+
+           5339     857    6893     979
CTETRA       388       1    3501    6080    6090    6091     970    7688+
+            176     180    7690    7689
CTETRA       389       1    3667    3677    3676    6294    5252    5251+
+           5250      84     902     980
CTETRA       390       1    8923    3461    8924    6029    5505    5506+
+           9002     981     982      65
CTETRA       391       1    3271    3272    3281    5799    4126    4153+
+           4152     983     327     328
CTETRA       392       1    3460    6019    3461    6030     984     985+
+           4651     932    7517     933
CTETRA       393       1    8944    3281    3272    5798    5546    4153+
+           5547     817     326     325
CTETRA       394       1    3467    3468    3477    6043    4670    4697+
+           4696     986     987     988
CTETRA       395       1    3536    3546    3545    6135    4887    4886+
+           4885     989     990     991
CTETRA       396       1    3467    6032    3468    6043     992     993+
+           4670     986    7554     987
CTETRA       397       1    8731    5610    3111      13     994     995+
+           5306     958     890     908
CTETRA       398       1    3458    3459    3468    6032    4645    4672+
+           4671     996     997     993
CTETRA       399       1    3534    6137    3544    6148     234     998+
+           4881     235    7851     999
CTETRA       400       1    3523    6097    6107    6108    1000    7735+
+           1001    1002    7737    7736
CTETRA       401       1    3166    5674    5685    5686    1003    6546+
+            778    1004    6548    6547
CTETRA       402       1    3188    5692    5691    5703     678    6563+
+           1005     680    6596    6595
CTETRA       403       1    3458    3468    3467    6032    4671    4670+
+           4669     996     993     992
CTETRA       404       1    3468    6032    6031    6042     993    7522+
+           1006    1007    7552    7551
CTETRA       405       1    3212    3213    3222    5739    3961    3988+
+           3987    1008    1009     357
CTETRA       406       1    3210    5730    5741    5742    1010    6704+
+            535    1011    6706    6705
CTETRA       407       1    3460    6020    6019    6030    1012    7487+
+            984     932    7518    7517
CTETRA       408       1    3428    3438    3437    6003    4587    4586+
+           4585    1013    1014    1015
CTETRA       409       1    3198    5701    5712    5713    1016    6621+
+            369     378    6623    6622
CTETRA       410       1    3437    6003    3438    6014    1015    1014+
+           4586    1017    7473    1018
CTETRA       411       1    3437    3438    3447    6014    4586    4613+
+           4612    1017    1018    1019
CTETRA       412       1    3126    5614    5613    5625     419    6335+
+            453     451    6376    6375
CTETRA       413       1    3130    5641    3139    5642     102    1020+
+           3757     413    6423    1021
CTETRA       414       1    3243    5757    5756    5768    1022    6746+
+           1023    1024    6779    6778
CTETRA       415       1    8962    3111    5610      13    5304     995+
+           1025     906     908     890
CTETRA       416       1    3438    3448    3447    6013    4615    4614+
+           4613    1026     237     238
CTETRA       417       1    3541    3542    3551    6129    4876    4903+
+           4902    1027    1028    1029
CTETRA       418       1    3439    6001    6012    6013    1030    7467+
+            230     236    7469    7468
CTETRA       419       1    3417    3427    3426    5994    4556    4555+
+           4554     261     263    1031
CTETRA       420       1    3426    5994    3427    6005    1031     263+
+           4555    1032    7448    1033
CTETRA       421       1    3274    5817    3283    5818      80    1034+
+           4157    1035    6919     846
CTETRA       422       1    3426    3427    3436    6005    4555    4582+
+           4581    1032    1033    1036
CTETRA       423       1    3364    3365    3374    5927    4383    4410+
+           4409    1037     287     288
CTETRA       424       1    8956    5676    3165      15    1038     430+
+           5317    1039    1040    1041
CTETRA       425       1    3316    3317    3326    5854    4251    4278+
+           4277    1042    1043     294
CTETRA       426       1    3397    5942    5953    5954    1044    7300+
+           1045    1046    7302    7301
CTETRA       427       1    3386    3396    3395    5944    4471    4470+
+           4469    1047    1048    1049
CTETRA       428       1    3395    3396    3405    5955    4470    4497+
+           4496    1050    1051    1052
CTETRA       429       1    3271    5788    3272    5799    1053    1054+
+           4126     983    6866     327
CTETRA       430       1    8919    8787    8786    6073    1055    8875+
+           1056    1057    8439    8440
CTETRA       431       1    8920    8788    8787    6062     210    8874+
+           1058     211    8437    8438
CTETRA       432       1    8957    8824    8825    5665    1059    8837+
+           1060     423    8626    8627
CTETRA       433       1    8955    8823    8822    5688    1061    8839+
+             32    1062    8369    8368
CTETRA       434       1    3395    5944    3396    5955    1049    1048+
+           4470    1050    7306    1051
CTETRA       435       1    8957    8825    8824    5666    1060    8837+
+           1059    1063    8365    8364
CTETRA       436       1    8687    8708    8688    3688    3090    3094+
+           8691    5439    1064    5438
CTETRA       437       1    3678    6314    6313    6324    1065    8318+
+            365     367    8348    8347
CTETRA       438       1    3385    3395    3394    5945    4468    4467+
+           4466    1066    1067    1068
CTETRA       439       1    3678    3679    3688    6313    5255    5282+
+           5281     365     473     366
CTETRA       440       1    8898    8899    3687    6325    9027    5434+
+           5433    1069    1070    1071
CTETRA       441       1    8709    3687    6324    6325    1072     782+
+           8503    8504    1071    8349
CTETRA       442       1    8937    8804    8805    5885    1073    8857+
+           1074    1075    8586    8587
CTETRA       443       1    3385    5945    3394    5946    1066    1068+
+           4466    1076    7279    1077
CTETRA       444       1    3375    3385    3384    5936    4440    4439+
+           4438     278     280    1078
CTETRA       445       1    3384    5936    3385    5947    1078     280+
+           4439    1079    7284    1080
CTETRA       446       1    3346    5895    5894    5906    1081    7136+
+           1082    1083    7169    7168
CTETRA       447       1    3347    5893    5904    5905    1084    7163+
+           1085    1086    7165    7164
CTETRA       448       1    3345    3355    3354    5906    4356    4355+
+           4354    1087    1088    1089
CTETRA       449       1    8902    8770    8769    6260    1090    8892+
+            481    1091    8473    8474
CTETRA       450       1    3312    5848    3313    5859    1092    1093+
+           4239    1094    7036    1095
CTETRA       451       1    3312    3313    3322    5859    4239    4266+
+           4265    1094    1095    1096
CTETRA       452       1    3325    3335    3334    5865    4302    4301+
+           4300     295    1097     304
CTETRA       453       1    3305    3306    3315    5845    4220    4247+
+           4246    1098     683    1099
CTETRA       454       1    3331    5869    5868    5880     311    7062+
+            309    1100    7095    7094
CTETRA       455       1    8936    8804    8803    5897    1101    8858+
+           1102    1103    8407    8406
CTETRA       456       1    8938    8805    8806    5874    1104    8856+
+            660    1105    8588    8589
CTETRA       457       1    3292    3302    3301    5839    4209    4208+
+           4207     315     317    1106
CTETRA       458       1    3301    5839    3302    5850    1106     317+
+           4208    1107    7011    1108
CTETRA       459       1    3301    3302    3311    5850    4208    4235+
+           4234    1107    1108    1109
CTETRA       460       1    8955    8822    8823    5687      32    8839+
+           1061      33    8622    8623
CTETRA       461       1    3302    3312    3311    5849    4237    4236+
+           4235    1110    1111    1112
CTETRA       462       1    3271    5799    3280    5800     983     329+
+           4150    1113    6867    1114
CTETRA       463       1    3272    5788    5787    5799    1054    6833+
+           1115     327    6866    6865
CTETRA       464       1    8944    8811    8812    5808    1116    8850+
+           1117    1118    8600    8601
CTETRA       465       1    3259    3260    3269    5791    4092    4119+
+           4118    1119    1120    1121
CTETRA       466       1    8901    8768    8769    6292    1122    8893+
+            480     482    8513    8514
CTETRA       467       1    3259    3269    3268    5791    4118    4117+
+           4116    1119    1121    1123
CTETRA       468       1    8902    8769    8770    6281     481    8892+
+           1090     756    8515    8516
CTETRA       469       1    8921    8788    8789    6072    1124    8873+
+           1125    1126    8553    8554
CTETRA       470       1    8921    8789    8788    6051    1125    8873+
+           1124     216    8435    8436
CTETRA       471       1    8920    8787    8788    6083    1058    8874+
+            210    1127    8551    8552
CTETRA       472       1    8918    8785    8786    6105    1128    8876+
+           1129      45    8547    8548
CTETRA       473       1    8958    8826    8825    5655    1130    8836+
+            830     444    8363    8362
CTETRA       474       1    3248    5772    5783    5784    1131    6822+
+           1132    1133    6824    6823
CTETRA       475       1    3260    5790    3269    5791     338    1134+
+           4119    1120    6842    1121
CTETRA       476       1    8954    8821    8822    5698      35    8840+
+           1135    1136    8620    8621
CTETRA       477       1    3222    5739    5738    5750     357    6696+
+           1137     359    6729    6728
CTETRA       478       1    3222    5738    5749    5750    1137    6726+
+            849     359    6728    6727
CTETRA       479       1    3229    3230    3239    5762    4008    4035+
+           4034     729    1138    1139
CTETRA       480       1    8939    8806    8807    5863    1140    8855+
+           1141    1142    8590    8591
CTETRA       481       1    3179    5681    5680    5692     836    6532+
+            464     636    6565    6564
CTETRA       482       1    3187    3197    3196    5703    3918    3917+
+           3916     679     746    1143
CTETRA       483       1    3188    5702    3197    5703     372     374+
+           3919     680    6594     746
CTETRA       484       1    8918    8786    8785    6084    1129    8876+
+           1128    1144    8441    8442
CTETRA       485       1    3176    3186    3185    5695    3887    3886+
+           3885    1145    1146    1147
CTETRA       486       1    8899    8766    8767    6314    1148    8895+
+           1149    1150    8509    8510
CTETRA       487       1    3247    5773    3248    5784    1151    1152+
+           4058    1153    6825    1133
CTETRA       488       1    3194    5707    5706    5718    1154    6606+
+           1155    1156    6639    6638
CTETRA       489       1    3176    5684    3177    5695     394     383+
+           3861    1145    6574    1157
CTETRA       490       1    3127    5623    3136    5624    1158    1159+
+           3750    1160    6371    1161
CTETRA       491       1    8899    8767    8766    6293    1149    8895+
+           1148    1162    8479    8480
CTETRA       492       1    3136    3146    3145    5634    3777    3776+
+           3775    1163    1164    1165
CTETRA       493       1    3127    5612    3128    5623     960     389+
+           3725    1158    6370    1166
CTETRA       494       1    8936    8803    8804    5896    1102    8858+
+           1101     650    8584    8585
CTETRA       495       1    8937    5875    8805    5886    1167    8402+
+           1074    1168    7111    8405
CTETRA       496       1    8958    8826    8959    5654    1130    1169+
+           8967     431    8629    1170
CTETRA       497       1    8724    8744    8743    5602    8664    8763+
+           8665    1171    8654    8657
CTETRA       498       1    8723    8743    8742    5601    8666    8764+
+           8662    1172    8656    8658
CTETRA       499       1    3134    5625    5636    5637    1173    6407+
+           1174    1175    6409    6408
CTETRA       500       1    8958    8825    8826    5654     830    8836+
+           1130     431    8628    8629
CTETRA       501       1    8954    8822    8821    5699    1135    8840+
+             35      28    8371    8370
CTETRA       502       1    3134    5625    3135    5636    1173     452+
+           3745    1174    6407    1176
CTETRA       503       1    8960    8828    8961       2    1177      70+
+           8965    1178      72      71
CTETRA       504       1    3145    3146    3155    5645    3776    3803+
+           3802    1179    1180    1181
CTETRA       505       1    8903    8771    8770    6249    1182    8891+
+           1183    1184    8471    8472
CTETRA       506       1    3125    3135    3134    5625    3746    3745+
+           3744     450     452    1173
CTETRA       507       1    3144    3145    5635       6    3773    1185+
+            182     184    1186     185
CTETRA       508       1    8948    8815    8816    5764    1187    8846+
+           1188    1189    8608    8609
CTETRA       509       1    3247    5784    3256    5785    1153    1190+
+           4082    1191    6826    1192
CTETRA       510       1    3237    5763    5774    5775     720    6797+
+           1193    1194    6799    6798
CTETRA       511       1    3246    5775    5774    5786    1195    6798+
+           1196    1197    6831    6830
CTETRA       512       1    3561    6160    6170    6171    1198    7914+
+           1199    1200    7916    7915
CTETRA       513       1    8917    8784    8785    6116      43    8877+
+           1201      51    8545    8546
CTETRA       514       1    3570    3579    6182    6192    4979    1202+
+           1203    1204    1205    7976
CTETRA       515       1    8955    8956    8823    5677    8970    1206+
+           1061    1207    1208    8366
CTETRA       516       1    3561    6171    6170    6181    1200    7915+
+           1199    1209    7945    7944
CTETRA       517       1    8911    8778    8779    6182    1210    8883+
+           1211    1212    8533    8534
CTETRA       518       1    8947    8815    8814    5776    1213    8847+
+           1214    1215    8385    8384
CTETRA       519       1    8686    3690    8706    6322    5442    1216+
+           3099     899     348    8498
CTETRA       520       1    3660    3670    3669    6302    5231    5230+
+           5229    1217    1218     470
CTETRA       521       1    8919    3497    8787    6073    5497    1219+
+           1055    1057    1220    8439
CTETRA       522       1    8920    3498    8787    6083    5392    1221+
+           1058    1127    1222    8551
CTETRA       523       1    3639    6241    6251    6252    1223    8141+
+           1224    1225    8143    8142
CTETRA       524       1    8898    8766    8765    6304    1226    8896+
+           1227    1228    8481    8482
CTETRA       525       1    8903    8770    8771    6270    1183    8891+
+           1182    1229    8517    8518
CTETRA       526       1    3646    3647    3656    6264    5167    5194+
+           5193     507    1230    1231
CTETRA       527       1    3655    6276    6275    6286    1232    8210+
+             88    1233    8240    8239
CTETRA       528       1    8898    8765    8766    6325    1227    8896+
+           1226    1069    8507    8508
CTETRA       529       1    8940    8808    8807    5853    1234    8854+
+           1235    1236    8399    8398
CTETRA       530       1    8937    8805    8938    5885    1074    1104+
+           8988    1075    8587    1237
CTETRA       531       1    3648    6263    6262    6273     283    8173+
+            495    1238    8203    8202
CTETRA       532       1    8937    8938    8805    5875    8988    1104+
+           1074    1167     661    8402
CTETRA       533       1    3628    6232    3629    6242     520    1239+
+           5117     775    8116     776
CTETRA       534       1    8725    5602    3117    5603     362     364+
+           5587     449    6338     582
CTETRA       535       1    3173    5666    5677      16    1240    6522+
+           1241    1242    1243    1244
CTETRA       536       1    3610    6211    6210    6221    1245    8027+
+           1246    1247    8057    8056
CTETRA       537       1    3618    6222    3619    6233    1248    1249+
+           5089    1250    8090    1251
CTETRA       538       1    8957    3164    5655    5666    5572     428+
+            427    1063    1252    6491
CTETRA       539       1    8956    5666    8824    5677    1253    8364+
+           1254    1208    6522    8367
CTETRA       540       1    8957    5655    8825    5666     427    8362+
+           1060    1063    6491    8365
CTETRA       541       1    3600    6201    6200    6211    1255    7999+
+           1256     512    8029    8028
CTETRA       542       1    3571    3581    3580    6191    4984    4983+
+           4982    1257    1258     525
CTETRA       543       1    8953    8821    8954    5709      36      35+
+           8972      38    8619      29
CTETRA       544       1    3601    6200    6210    6211    1259    8026+
+           1260    1261    8028    8027
CTETRA       545       1    8902    8770    3651    6281    1090    1262+
+           5425     756    8516     757
CTETRA       546       1    3165    5676    5687      15     430    6552+
+           1263    1041    1040    1264
CTETRA       547       1    8770    6270    3651    6281    8517    1265+
+           1262    8516    8226     757
CTETRA       548       1    8902    8903    8770    6260    9023    1183+
+           1090    1091    1266    8473
CTETRA       549       1    8939    8940    3318    5863    8986    5352+
+           5351    1142    1267    1268
CTETRA       550       1    3165    5687    3174      15    1263    1269+
+           3854    1041    1264    1270
CTETRA       551       1    3275    3285    3284    5816    4162    4161+
+           4160     703    1271    1272
CTETRA       552       1    8938    8939    8806    5864    8987    1140+
+            660     659    1273    8400
CTETRA       553       1    8938    8806    8939    5874     660    1140+
+           8987    1105    8589    1274
CTETRA       554       1    8938    3326    8939    5864    5535    5536+
+           8987     659     298    1273
CTETRA       555       1    8939    3326    3317    5853    5536    4278+
+           5537    1275     297    1276
CTETRA       556       1    3571    3580    6181    6191    4982    1277+
+            534    1257     525    7973
CTETRA       557       1    8920    8788    8921    3489     210    1124+
+           9005    5389    1278    5390
CTETRA       558       1    3480    6060    6071    6072    1279    7634+
+           1280    1281    7636    7635
CTETRA       559       1    3489    6072    6071    6083    1282    7635+
+            204     205    7668    7667
CTETRA       560       1    3588    6193    6203    6204    1283    8007+
+           1284     790    8009    8008
CTETRA       561       1    3580    6181    6191    6192    1277    7973+
+            525     524    7975    7974
CTETRA       562       1    3570    6181    3580    6192    1285    1277+
+           4981    1204    7975     524
CTETRA       563       1    3429    5992    5991    6003    1286    7409+
+           1287    1288    7442    7441
CTETRA       564       1    3421    5979    5990    5991    1289    7405+
+           1290    1291    7407    7406
CTETRA       565       1    3559    6141    6140    6151     541    7829+
+            622     542    7859    7858
CTETRA       566       1    3550    6130    6140    6141    1292    7828+
+            620    1293    7830    7829
CTETRA       567       1    3521    3530    6110    6120    4844     968+
+            967    1294     162    7772
CTETRA       568       1    3540    6120    6119    6130     164    7770+
+           1295     547    7800    7799
CTETRA       569       1    3286    5813    5824    5825    1296    6937+
+           1297    1298    6939    6938
CTETRA       570       1    3360    5910    3369    5911    1299    1300+
+           4397    1301    7180    1302
CTETRA       571       1    3521    6110    6109    6120     967    7742+
+           1303    1294    7772    7771
CTETRA       572       1    3360    3361    3370    5910    4373    4400+
+           4399    1299    1304    1305
CTETRA       573       1    3361    5898    5909    5910    1306    7176+
+           1307    1304    7178    7177
CTETRA       574       1    3499    6081    3500    6092     188    1308+
+           4758    1309    7693    1310
CTETRA       575       1    3322    5858    5869    5870    1311    7064+
+            310    1312    7066    7065
CTETRA       576       1    3331    5870    5869    5881    1313    7065+
+            311    1314    7098    7097
CTETRA       577       1    3322    5857    5868    5869    1315    7061+
+            308     310    7063    7062
CTETRA       578       1    3285    5815    3286    5826    1316    1317+
+           4164    1318    6943    1319
CTETRA       579       1    3292    5829    5828    5840    1320    6950+
+            318    1321    6983    6982
CTETRA       580       1    3283    3284    3293    5828    4158    4185+
+           4184    1322    1323     319
CTETRA       581       1    3482    6069    3491    6070     577    1324+
+           4735     201    7630     195
CTETRA       582       1    3284    5817    5816    5828      82    6916+
+           1272    1323    6949    6948
CTETRA       583       1    3491    6070    6069    6080     195    7630+
+           1324    1325    7660    7659
CTETRA       584       1    3454    6027    6026    6038    1326    7508+
+           1327    1328    7541    7540
CTETRA       585       1    3445    6015    6026    6027    1329    7507+
+           1330    1331    7509    7508
CTETRA       586       1    3262    3272    3271    5788    4127    4126+
+           4125    1332    1054    1053
CTETRA       587       1    3442    6008    3451    6009    1333     590+
+           4625     594    7456    1334
CTETRA       588       1    3232    5747    3233    5758    1335     707+
+           4017    1336    6751    1337
CTETRA       589       1    3556    6144    3557    6154    1338    1339+
+           4917    1340    7868    1341
CTETRA       590       1    3440    3441    3450    6010    4595    4622+
+           4621    1342     224     226
CTETRA       591       1    3223    5736    3224    5747    1343    1344+
+           3992     705    6720     706
CTETRA       592       1    3443    5996    6007    6008    1345    7452+
+           1346    1347    7454    7453
CTETRA       593       1    5694    5706    5705      17    6604    6603+
+           6602    1348    1349    1350
CTETRA       594       1    3195    5706    5705    5717    1351    6603+
+           1352     274    6636    6635
CTETRA       595       1    3479    6051    3488    6052     218     217+
+           4728    1353    7578    1354
CTETRA       596       1    3323    5857    5856    5868    1355    7028+
+            673     312    7061    7060
CTETRA       597       1    8926    8794    8793    6007    1356    8868+
+           1357    1358    8427    8426
CTETRA       598       1    8925    3452    6007    6018    5508     588+
+           1359    1360      55    7483
CTETRA       599       1    8958    3147    3156    5665    5313    3804+
+           5316     433     434     424
CTETRA       600       1    3452    6018    3461    6019      55      54+
+           4653     589    7484     985
CTETRA       601       1    3421    3422    3431    5989    4542    4569+
+           4568    1361     604     605
CTETRA       602       1    3147    5653    5664    5665    1362    6487+
+            437     434    6489    6488
CTETRA       603       1    3422    5978    5977    5989    1363    7369+
+            597     604    7402    7401
CTETRA       604       1    3125    5614    3126    5625    1364     419+
+           3717     450    6376     451
CTETRA       605       1    3394    5946    5957    5958    1077    7312+
+           1365     626    7314    7313
CTETRA       606       1    3126       6    3135       7     455    1366+
+           3747     456     458    1367
CTETRA       607       1    3385    5935    5934    5946    1368    7248+
+           1369    1076    7281    7280
CTETRA       608       1    3325    5855    5854    5866    1370    7022+
+            293    1371    7055    7054
CTETRA       609       1    8957    8825    8958    5665    1060     830+
+           8968     423    8627     433
CTETRA       610       1    8956    3165    3174      15    5317    3854+
+           5320    1039    1041    1270
CTETRA       611       1    3392    5959    3401    5960    1372    1373+
+           4485     619    7319    1374
CTETRA       612       1    3337    3347    3346    5894    4334    4333+
+           4332    1375    1376    1082
CTETRA       613       1    8956    8957    3165    5676    8969    5318+
+           5317    1038     425     430
CTETRA       614       1    3356    5904    5915    5916    1377    7194+
+            289     291    7196    7195
CTETRA       615       1    8956    3164    8957    5666    5571    5572+
+           8969    1253    1252    1063
CTETRA       616       1    8960    8828    5622       3    1177    8356+
+           1378    1379      76    1380
CTETRA       617       1    8724    8725    8744    5602    8735    8660+
+           8664    1171     362    8654
CTETRA       618       1    8957    8958    8825    5655    8968     830+
+           1060     427     444    8362
CTETRA       619       1    3354    5907    5906    5918    1381    7170+
+           1089    1382    7203    7202
CTETRA       620       1    8919    8920    8787    3497    9006    1058+
+           1055    5497    5498    1219
CTETRA       621       1    8961    3128    5611       3    5580    1383+
+           1384      74    1385    1386
CTETRA       622       1    8920    8921    8788    3488    9005    1124+
+            210    5499    5500     209
CTETRA       623       1    8919    8787    8920    3498    1055    1058+
+           9006    5391    1221    5392
CTETRA       624       1    8935    5897    8803    5908    1387    8406+
+           1388    1389    7173    8409
CTETRA       625       1    8723    8724    8743    5601    8734    8665+
+           8666    1172    1390    8656
CTETRA       626       1    8920    8788    3489    6083     210    1278+
+           5389    1127    8552     205
CTETRA       627       1    3334    5865    5876    5877     304    7083+
+            299     301    7085    7084
CTETRA       628       1    3352    5888    5887    5899    1391    7115+
+           1392    1393    7148    7147
CTETRA       629       1    8788    3488    6051    6062     209     217+
+           8436    8437     212    7607
CTETRA       630       1    8920    8787    3497    6062    1058    1219+
+           5498     211    8438    1394
CTETRA       631       1    8921    8788    3488    6051    1124     209+
+           5500     216    8436     217
CTETRA       632       1    8723    5600    3119    5601     788     793+
+           5583    1172    6330     792
CTETRA       633       1    3324    5856    5855    5867     674    7025+
+           1395     676    7058    7057
CTETRA       634       1    3286    5824    3295    5825    1297     693+
+           4191    1298    6938     692
CTETRA       635       1    3286    5813    3287    5824    1296    1396+
+           4167    1297    6937    1397
CTETRA       636       1    8958    8959    3147    5654    8967    5314+
+           5313     431    1170     432
CTETRA       637       1    8959    3138    3147    5654    5311    3779+
+           5314    1170    1398     432
CTETRA       638       1    8956    8824    8957    5676    1254    1059+
+           8969    1038    8625     425
CTETRA       639       1    8959    8827    8826    5644    1399    8835+
+           1169    1400    8361    8360
CTETRA       640       1    8901    8768    6292    6303    1122    8513+
+            482     477    8512    8288
CTETRA       641       1    3566    6165    6164    6175    1401    7897+
+           1402    1403    7927    7926
CTETRA       642       1    8935    8803    8936    5907    1388    1102+
+           8990    1404    8583    1405
CTETRA       643       1    3287    5812    5823    5824    1406    6934+
+           1407    1397    6936    6935
CTETRA       644       1    3312    5849    5848    5860    1111    7006+
+           1092    1408    7039    7038
CTETRA       645       1    3295    5825    5836    5837     692    6971+
+            694    1409    6973    6972
CTETRA       646       1    8902    3659    3650    6271    5462    5203+
+           5463    1410     935    1411
CTETRA       647       1    3295    5836    3304    5837     694    1412+
+           4216    1409    6972    1413
CTETRA       648       1    3258    5783    5782    5794    1414    6820+
+           1415    1416    6853    6852
CTETRA       649       1    8962    3119    8723    5600    5582    5583+
+           5584    1417     793     788
CTETRA       650       1    3525    6115    3526    6126    1418    1419+
+           4830    1420    7789    1421
CTETRA       651       1    8915    8783    8916    3534    1422    1423+
+           9010    5399    1424    5400
CTETRA       652       1    8935    3362    3353    5897    5528    4378+
+           5529    1387    1425    1426
CTETRA       653       1    3326    5854    5853    5865     294    7019+
+            297     296    7052    7051
CTETRA       654       1    3249    5771    5782    5783     175    6819+
+           1427    1428    6821    6820
CTETRA       655       1    3325    3326    3335    5865    4276    4303+
+           4302     295     296    1097
CTETRA       656       1    8939    3318    3327    5874    5351    4279+
+           5354    1274    1429    1430
CTETRA       657       1    8938    3335    3326    5864    5534    4303+
+           5535     659     662     298
CTETRA       658       1    3238    5763    5762    5774    1431    6764+
+           1432    1433    6797    6796
CTETRA       659       1    8817    5753    5742      12    8611    6738+
+           8612    1434    1435    1436
CTETRA       660       1    3192    5719    3201    5720     949     837+
+           3929     950    6643    1437
CTETRA       661       1    8951    8952    3210      10    8974    5328+
+           5327    1438     826    1439
CTETRA       662       1    3201    5730    3210    5731     839    1010+
+           3954     962    6674    1440
CTETRA       663       1    3411    5970    5969    5981     630    7347+
+            628    1441    7380    7379
CTETRA       664       1    8951    8818    5731    5742    1442    8614+
+           1443    1444    8613    6707
CTETRA       665       1    3402    5958    5969    5970     631    7346+
+            627     629    7348    7347
CTETRA       666       1    3210    5741    3219    5742     535     537+
+           3979    1011    6705    1445
CTETRA       667       1    8934    5918    3363    5929     637     639+
+           5361    1446    7234    1447
CTETRA       668       1    3343    3353    3352    5887    4352    4351+
+           4350    1448    1449    1392
CTETRA       669       1    8933    8934    3372    5929    8992    5364+
+           5363    1450    1446    1451
CTETRA       670       1    8933    8800    5929    5940    1452    8578+
+           1450    1453    8577    7265
CTETRA       671       1    3341    3351    3350    5889    4346    4345+
+           4344    1454    1455    1456
CTETRA       672       1    3197    5702    5713    5714     374    6624+
+            380     747    6626    6625
CTETRA       673       1    3350    5889    5900    5901    1456    7151+
+           1457    1458    7153    7152
CTETRA       674       1    3197    3198    3207    5713    3920    3947+
+           3946     380     378     379
CTETRA       675       1    3189    5691    5690    5702     486    6560+
+            375     376    6593    6592
CTETRA       676       1    3188    5691    3189    5702    1005     486+
+           3895     372    6593     376
CTETRA       677       1    3304    5836    5847    5848    1412    7002+
+           1459    1460    7004    7003
CTETRA       678       1    3313    5848    5847    5859    1093    7003+
+           1461    1095    7036    7035
CTETRA       679       1    3180    3181    3190      14    3873    3900+
+           3899    1462     911    1463
CTETRA       680       1    3273    5807    3274    5818     879    1464+
+           4130     939    6921    1035
CTETRA       681       1    3196    5715    3205    5716    1465    1466+
+           3941    1467    6631    1468
CTETRA       682       1    3265    5795    5806    5807    1469    6887+
+           1470    1471    6889    6888
CTETRA       683       1    3179    5692    3188      11     636     678+
+           3894     872     943     873
CTETRA       684       1    3159    5661    3160    5672     502    1472+
+           3814     780    6509     401
CTETRA       685       1    3243    5756    5767    5768    1023    6776+
+            206    1024    6778    6777
CTETRA       686       1    3151    5660    3160    5661    1473    1474+
+           3816    1475    6476    1472
CTETRA       687       1    3243    5756    3244    5767    1023    1476+
+           4048     206    6776     213
CTETRA       688       1    3253    5767    5766    5778     207    6774+
+            734     199    6807    6806
CTETRA       689       1    3151    5649    5660    5661    1477    6475+
+           1473    1475    6477    6476
CTETRA       690       1    3205    5715    5726    5727    1466    6661+
+           1478    1479    6663    6662
CTETRA       691       1    3214    5727    5726    5738    1480    6662+
+           1481    1482    6695    6694
CTETRA       692       1    3140    5629    5640    5641     786    6419+
+           1483     104    6421    6420
CTETRA       693       1    3168    5673    5672    5684     386    6510+
+            829     382    6543    6542
CTETRA       694       1    3205    5714    5725    5726    1484    6658+
+            748    1478    6660    6659
CTETRA       695       1    5608    5609    5620      18    6362    6361+
+           6360    1485    1486    1487
CTETRA       696       1    3175    5685    5696    5697     779    6577+
+           1488    1489    6579    6578
CTETRA       697       1    8935    8936    8803    5897    8990    1102+
+           1388    1387    1103    8406
CTETRA       698       1    3166    3167    3176    5685    3833    3860+
+           3859     778     774     393
CTETRA       699       1    3119    5600    5611    5612     793    6326+
+           1490     388    6328    6327
CTETRA       700       1    3117    5602    3118    5613     364     363+
+           3724     403    6333     404
CTETRA       701       1    3118    5601    5612    5613     959    6329+
+            387     404    6332    6331
CTETRA       702       1    3167    5684    3176    5685     381     394+
+           3860     774    6544     393
CTETRA       703       1    9031    8742    9032    5600    8661    8753+
+           8663     787    8353    8352
CTETRA       704       1    8962    9031    8830    5600    8963    1491+
+           1492    1417     787    8351
CTETRA       705       1    3154    5646    5645    5657    1493    6433+
+           1494    1495    6466    6465
CTETRA       706       1    3146    5633    5644    5645    1496    6429+
+           1497    1180    6431    6430
CTETRA       707       1    3155    5645    5644    5656    1181    6430+
+           1498    1499    6463    6462
CTETRA       708       1    8962    3119    5600    5611    5582     793+
+           1417    1500    1490    6326
CTETRA       709       1    8724    3119    3118    5601    5586    3728+
+           5585    1390     792     959
CTETRA       710       1    3115    5605    5604    5616    1501    6346+
+           1502    1503    6345    6344
CTETRA       711       1    8962    5600    8830    5611    1417    8351+
+           1492    1500    6326    8355
CTETRA       712       1    8961    8962    8829    5611    8964      67+
+             66    1384    1500    8354
CTETRA       713       1    8952    3200    8953    5710    5563    5564+
+           8973    1504    1505    1506
CTETRA       714       1    8953    8820    5709    5720      37    8618+
+             38    1507    8617    6645
CTETRA       715       1    8937    8938    3336    5885    8988    5356+
+           5355    1075    1237     664
CTETRA       716       1    8954    5688    8822    5699    1508    8368+
+           1135      28    6584    8371
CTETRA       717       1    8939    8807    8940    5863    1141    1235+
+           8986    1142    8591    1267
CTETRA       718       1    8939    3326    5853    5864    5536     297+
+           1275    1273     298    7049
CTETRA       719       1    8940    8807    8808    5852    1235    8854+
+           1234    1509    8592    8593
CTETRA       720       1    8937    3335    8938    5875    5533    5534+
+           8988    1167     663     661
CTETRA       721       1    8953    3200    5699    5710    5564    1510+
+             26    1506    1505    6615
CTETRA       722       1    8916    3534    8783    6127    5400    1424+
+           1423    1511    1512    8543
CTETRA       723       1    8916    8917    8784    3524    9009      43+
+             42    5491    5492      48
CTETRA       724       1    8916    3533    3524    6106    5490    4853+
+           5491    1513    1514      50
CTETRA       725       1    8898    9030    8765    8710    1515    8897+
+           1227    1516    8712    8506
CTETRA       726       1    8901    8902    8769    6271    9024     481+
+            480    1517    1410    8475
CTETRA       727       1    8901    3659    6271    6282    5461     935+
+           1517    1518    1519    8227
CTETRA       728       1    8902    3650    8903    6260    5463    5464+
+           9023    1091    1520    1266
CTETRA       729       1    8903    3650    3641    6249    5464    5178+
+           5465    1184    1521    1522
CTETRA       730       1    8902    8769    6281    6292     481    8515+
+            756     483    8514    8257
CTETRA       731       1    8904    8771    8772    6259    1523    8890+
+            808    1524    8519    8520
CTETRA       732       1    8903    8904    8771    6249    9022    1523+
+           1182    1184    1525    8471
CTETRA       733       1    8940    3309    3318    5863    5349    4254+
+           5352    1267    1526    1268
CTETRA       734       1    8961    5611    8829       3    1384    8354+
+             66      74    1386      75
CTETRA       735       1    8940    3308    8941    5842    5539    5540+
+           8985    1527    1528    1529
CTETRA       736       1    8784    6116    3525    6127    8545      52+
+             44    8544    7792    1530
CTETRA       737       1    8939    8940    8807    5853    8986    1235+
+           1141    1275    1236    8398
CTETRA       738       1    8940    8808    8941    5852    1234    1531+
+           8985    1509    8593    1532
CTETRA       739       1    3670    6301    3680    6312    1533    1534+
+           5259    1535    8313     242
CTETRA       740       1    3679    3689    3688    6323    5284    5283+
+           5282     649     193     192
CTETRA       741       1    3671    3680    6301    6311    5260    1534+
+           1536    1537    1538    8311
CTETRA       742       1    8916    8783    3533    6106    1423    1539+
+           5490    1513    8446    1514
CTETRA       743       1    3681    6300    6310    6311    1540    8308+
+            656    1541    8310    8309
CTETRA       744       1    8925    3444    3453    6028    5379    4629+
+           5382      57    1542      58
CTETRA       745       1    8924    8925    8792    6018    9001    1543+
+             64      53    1360    8428
CTETRA       746       1    3637    6253    3647    6254    1544    1545+
+           5168     887    8148     888
CTETRA       747       1    3638    3639    3648    6252    5145    5172+
+           5171    1546    1225     494
CTETRA       748       1    8925    6017    3444    6028    1547    1548+
+           5379      57    7513    1542
CTETRA       749       1    3638    3647    6253    6263    5169    1545+
+           1549     282     284    8175
CTETRA       750       1    8925    8926    3444    6017    9000    5380+
+           5379    1547    1550    1548
CTETRA       751       1    8925    8926    8793    6007    9000    1357+
+           1551    1359    1358    8426
CTETRA       752       1    8962    3111    3120    5621    5304    3696+
+           5308      69    1552    1553
CTETRA       753       1    3637    6243    3638    6253    1554    1555+
+           5142    1544    8147    1549
CTETRA       754       1    8962    5610    3111    5621    1025     995+
+           5304      69    6365    1552
CTETRA       755       1    3604    6195    3605    6206     920     115+
+           5051     921    8013     117
CTETRA       756       1    3595    6184    3596    6195    1556     467+
+           5026    1557    7982     469
CTETRA       757       1    3595    3596    3605    6195    5026    5053+
+           5052    1557     469     115
CTETRA       758       1    3596    6184    6183    6194     467    7950+
+            510     468    7980    7979
CTETRA       759       1    8909    3596    3587    6183    5476    5028+
+           5477    1558     510     509
CTETRA       760       1    8909    8910    8777    6183    9016    1559+
+           1560    1558    1561    8459
CTETRA       761       1    3554    3555    3564    6157    4911    4938+
+           4937    1562    1563     956
CTETRA       762       1    8960    8961    8828       3    8965      70+
+           1177    1379      74      76
CTETRA       763       1    8962    5610    8830      13    1025    8637+
+           1492     906     890     889
CTETRA       764       1    3554    6146    3555    6157    1564    1565+
+           4911    1562    7876    1563
CTETRA       765       1    3545    3555    3554    6146    4912    4911+
+           4910    1566    1565    1564
CTETRA       766       1    3546    3547    3556    6145    4889    4916+
+           4915    1567    1568    1569
CTETRA       767       1    8960    3128    8961       3    5579    5580+
+           8965    1379    1385      74
CTETRA       768       1    3650    3659    6261    6271    5203     905+
+            904    1411     935    8197
CTETRA       769       1    3503    3513    3512    6087    4796    4795+
+           4794    1570    1571    1572
CTETRA       770       1    8900    3668    8901    6282    5459    5460+
+           9025    1573    1574    1518
CTETRA       771       1    3504    6086    3513    6087    1575    1576+
+           4797    1577    7677    1571
CTETRA       772       1    3513    6087    6086    6097    1571    7677+
+           1576    1578    7707    7706
CTETRA       773       1    3513    3514    3523    6097    4798    4825+
+           4824    1578    1579    1000
CTETRA       774       1    3658    3667    6273    6283    5225     493+
+           1580    1581      83    8231
CTETRA       775       1    3462    3472    3471    6049    4681    4680+
+           4679    1582    1583    1584
CTETRA       776       1    3656    3657    3666    6274    5195    5222+
+           5221      86     314    1585
CTETRA       777       1    3463    6048    3472    6049     584     586+
+           4682    1586    7570    1583
CTETRA       778       1    3472    6048    6059    6060     586    7600+
+           1587    1588    7602    7601
CTETRA       779       1    3430    3440    3439    6001    4593    4592+
+           4591    1589    1590    1030
CTETRA       780       1    3430    3431    3440    6000    4567    4594+
+           4593    1591    1592    1593
CTETRA       781       1    3420    3430    3429    5991    4565    4564+
+           4563    1594    1595    1287
CTETRA       782       1    3421    5989    3430    5990    1361    1596+
+           4566    1290    7403    1597
CTETRA       783       1    3430    5989    3431    6000    1596     605+
+           4567    1591    7433    1592
CTETRA       784       1    3429    3430    3439    6002    4564    4591+
+           4590    1598    1599    1600
CTETRA       785       1    3429    5991    3430    6002    1287    1595+
+           4564    1598    7439    1599
CTETRA       786       1    3666    3675    6285    6295    5247    1601+
+           1602     491    1603    8265
CTETRA       787       1    3378    3388    3387    5932    4449    4448+
+           4447    1604    1605    1606
CTETRA       788       1    3647    3648    3657    6263    5170    5197+
+           5196     284     283     500
CTETRA       789       1    3387    5932    3388    5943    1606    1605+
+           4448    1607    7272    1608
CTETRA       790       1    3387    3388    3397    5943    4448    4475+
+           4474    1607    1608    1609
CTETRA       791       1    3665    3666    3675    6285    5220    5247+
+           5246    1610    1602    1601
CTETRA       792       1    8961    5621    3120       2      68    1553+
+           5307      71      73    1611
CTETRA       793       1    3388    3398    3397    5942    4477    4476+
+           4475    1612    1613    1044
CTETRA       794       1    3629    6242    6241    6252     776    8114+
+           1614    1615    8144    8143
CTETRA       795       1    3654    3655    3664    6277    5189    5216+
+           5215    1616    1617    1618
CTETRA       796       1    3347    3357    3356    5904    4362    4361+
+           4360    1085    1619    1377
CTETRA       797       1    3120    5621    5632       2    1553    6397+
+            440    1611      73    1620
CTETRA       798       1    3346    5894    3347    5905    1082    1376+
+           4333    1621    7166    1086
CTETRA       799       1    3346    3347    3356    5905    4333    4360+
+           4359    1621    1086    1622
CTETRA       800       1    3646    6264    3656    6265     507    1231+
+           5193     508    8179    1623
CTETRA       801       1    3654    6266    3655    6277    1624     882+
+           5189    1616    8214    1617
CTETRA       802       1    3655    3665    3664    6286    5218    5217+
+           5216    1233    1625    1626
CTETRA       803       1    3296    3306    3305    5834    4221    4220+
+           4219    1627    1628    1629
CTETRA       804       1    3296    3297    3306    5834    4195    4222+
+           4221    1627    1630    1628
CTETRA       805       1    3304    3305    3314    5846    4217    4244+
+           4243    1631    1632    1633
CTETRA       806       1    3120    5632    3129       2     440     441+
+           3729    1611    1620    1634
CTETRA       807       1    3305    3315    3314    5845    4246    4245+
+           4244    1098    1099    1635
CTETRA       808       1    3624    3625    3634    6247    5105    5132+
+           5131    1636    1637    1638
CTETRA       809       1    8938    8806    8805    5875     660    8856+
+           1104     661    8403    8402
CTETRA       810       1    3262    5777    3263    5788     844     843+
+           4101    1332    6835    1639
CTETRA       811       1    8946    8947    8814    5776    8979    1214+
+           1640    1641    1215    8384
CTETRA       812       1    8946    3254    8947    5776    5551    5552+
+           8979    1641    1642    1215
CTETRA       813       1    8937    8805    8804    5886    1074    8857+
+           1073    1168    8405    8404
CTETRA       814       1    8945    3263    8946    5787    5549    5550+
+           8980    1643    1644    1645
CTETRA       815       1    3213    3214    3223    5738    3964    3991+
+           3990    1646    1482    1647
CTETRA       816       1    3212    3222    3221    5739    3987    3986+
+           3985    1008     357     356
CTETRA       817       1    3624    6247    3634    6258    1636    1638+
+           5131    1648    8161    1649
CTETRA       818       1    3615    6236    3625    6247     801     803+
+           5106    1650    8130    1637
CTETRA       819       1    8961    3120    3129       2    5307    3729+
+           5310      71    1611    1634
CTETRA       820       1    3222    3223    3232    5749    3989    4016+
+           4015     849    1651    1652
CTETRA       821       1    3171    5668    3180    5680    1653    1654+
+           3872    1655    6530     463
CTETRA       822       1    3617    3626    6235    6245    5110      96+
+            101     498     914    8125
CTETRA       823       1    3615    3625    3624    6247    5106    5105+
+           5104    1650    1637    1636
CTETRA       824       1    8906    3614    8907    6216    5471    5472+
+           9019     106     807     815
CTETRA       825       1    3612    3613    3622    6218    5073    5100+
+           5099    1656    1657    1658
CTETRA       826       1    3603    3613    3612    6218    5074    5073+
+           5072    1659    1657    1656
CTETRA       827       1    3189    5679    5690    5691    1660    6559+
+            375     486    6561    6560
CTETRA       828       1    3603    6207    3613    6218     916     918+
+           5074    1659    8047    1657
CTETRA       829       1    3139    5641    3140    5652    1020     104+
+           3758     131    6453     132
CTETRA       830       1    3583    3593    3592    6188    5018    5017+
+           5016    1661     941     940
CTETRA       831       1    3138    5642    3139    5653    1662    1021+
+           3755    1663    6456    1664
CTETRA       832       1    3139    5641    5652    5653    1020    6453+
+            131    1664    6455    6454
CTETRA       833       1    3582    3583    3592    6189    4989    5016+
+           5015    1665    1666    1667
CTETRA       834       1    8723    8742    5600    5601    8662    8353+
+            788    1172    8658    6330
CTETRA       835       1    3582    3592    3591    6189    5015    5014+
+           5013    1665    1667    1668
CTETRA       836       1    3573    3574    3583    6178    4964    4991+
+           4990    1669    1670    1671
CTETRA       837       1    3582    6178    3583    6189    1672    1671+
+           4989    1665    7966    1666
CTETRA       838       1    3572    6179    3581    6180     138    1673+
+           4985    1674    7940    1675
CTETRA       839       1    3574    6177    3583    6178     145    1676+
+           4991    1670    7934    1671
CTETRA       840       1    3674    3683    6297    6307    5269    1677+
+           1678    1679    1680    8299
CTETRA       841       1    3665    3674    6286    6296    5244    1681+
+           1625    1682    1683    8268
CTETRA       842       1    3562    3572    3571    6180    4959    4958+
+           4957    1684    1674     533
CTETRA       843       1    3636    6255    3645    6256    1685    1686+
+           5163    1687    8154    1688
CTETRA       844       1    3563    6168    3572    6169     955     136+
+           4960     945    7909     947
CTETRA       845       1    3637    6244    6254    6255    1689    8150+
+            887    1690    8152    8151
CTETRA       846       1    3541    6119    6129    6130    1691    7797+
+           1027    1692    7799    7798
CTETRA       847       1    3646    6255    6265    6266    1693    8181+
+            508     881    8183    8182
CTETRA       848       1    3532    6118    3541    6119    1694    1695+
+           4875    1696    7767    1691
CTETRA       849       1    3541    3551    3550    6129    4902    4901+
+           4900    1027    1029    1697
CTETRA       850       1    3522    3532    3531    6108    4849    4848+
+           4847    1698    1699    1700
CTETRA       851       1    3531    6109    6108    6119     168    7739+
+           1700     169    7769    7768
CTETRA       852       1    3597    6215    6214    6225    1701    8039+
+           1702     794    8069    8068
CTETRA       853       1    3588    3597    6204    6214    5029     791+
+            790    1703    1702    8038
CTETRA       854       1    8936    3353    5886    5897    5530    1704+
+           1705    1103    1426    7142
CTETRA       855       1    3521    6099    6109    6110    1706    7741+
+           1303     967    7743    7742
CTETRA       856       1    3576    3586    3585    6185    4999    4998+
+           4997    1707    1708     925
CTETRA       857       1    3521    6100    6099    6110    1709    7714+
+           1706     967    7744    7743
CTETRA       858       1    3576    6175    6174    6185    1710    7925+
+           1711    1707    7955    7954
CTETRA       859       1    3567    3576    6164    6174    4972    1712+
+           1713    1714    1711    7924
CTETRA       860       1    3539    6122    6121    6132     552    7776+
+           1715    1716    7806    7805
CTETRA       861       1    3538    6123    6122    6133    1717    7779+
+            553    1718    7809    7808
CTETRA       862       1    3537    6133    3547    6134    1719    1720+
+           4890    1721    7810    1722
CTETRA       863       1    3547    6133    3548    6143    1720    1723+
+           4892    1724    7837    1725
CTETRA       864       1    3492    6079    3501    6080    1726    1727+
+           4763    1728    7658     970
CTETRA       865       1    3490    3500    3499    6081    4759    4758+
+           4757     187    1308     188
CTETRA       866       1    3508    6092    3509    6103    1729    1730+
+           4783    1731    7724    1732
CTETRA       867       1    3499    6082    6081    6092     190    7663+
+            188    1309    7694    7693
CTETRA       868       1    3499    6092    3508    6093    1309    1729+
+           4782    1733    7695    1734
CTETRA       869       1    3490    3491    3500    6081    4733    4760+
+           4759     187    1735    1308
CTETRA       870       1    3480    6071    3489    6072    1280     204+
+           4729    1281    7635    1282
CTETRA       871       1    3500    6081    6091    6092    1308    7691+
+            179    1310    7693    7692
CTETRA       872       1    3451    3461    3460    6019    4652    4651+
+           4650     591     985     984
CTETRA       873       1    3481    6070    3490    6071     194     196+
+           4732    1736    7632     197
CTETRA       874       1    3481    6059    6070    6071     214    7631+
+            194    1736    7633    7632
CTETRA       875       1    8923    8790    3470    6029    1737    1738+
+           5504     981    8432    1739
CTETRA       876       1    8921    3480    3489    6072    5387    4729+
+           5390    1126    1281    1282
CTETRA       877       1    3487    3488    3497    6063    4726    4753+
+           4752    1740    1741    1742
CTETRA       878       1    3200    5699    5700      19    1510    6585+
+           1743    1744    1745    1746
CTETRA       879       1    3479    6041    6051    6052    1747    7577+
+            218    1353    7579    7578
CTETRA       880       1    3457    3458    3467    6033    4642    4669+
+           4668    1748    1749    1750
CTETRA       881       1    3478    6042    6041    6052    1751    7550+
+           1752    1753    7580    7579
CTETRA       882       1    3478    6052    3487    6053    1753    1754+
+           4725    1755    7581    1756
CTETRA       883       1    3459    6021    6031    6032     221    7521+
+           1757     997    7523    7522
CTETRA       884       1    3457    6023    3458    6033     248    1758+
+           4642    1748    7527    1749
CTETRA       885       1    8788    6072    3489    6083    8553    1282+
+           1278    8552    7668     205
CTETRA       886       1    3448    6012    6022    6023     232    7496+
+            227    1759    7498    7497
CTETRA       887       1    8921    8789    8922    3480    1125    1760+
+           9004    5387    1761    5388
CTETRA       888       1    8789    6061    3480    6072    8555    1762+
+           1761    8554    7637    1281
CTETRA       889       1    3437    3447    3446    6014    4612    4611+
+           4610    1017    1019    1763
CTETRA       890       1    3190    5689    3191      19    1764    1765+
+           3901    1766    1767    1768
CTETRA       891       1    8922    3480    8789    6061    5388    1761+
+           1760    1769    1762    8555
CTETRA       892       1    8789    3479    6040    6051    1770    1771+
+           8434    8435     218    7576
CTETRA       893       1    3446    6014    3447    6025    1763    1019+
+           4611    1772    7504    1773
CTETRA       894       1    3446    3447    3456    6025    4611    4638+
+           4637    1772    1773    1774
CTETRA       895       1    3440    6001    6000    6011    1590    7434+
+           1593    1775    7465    7464
CTETRA       896       1    3449    6012    6011    6022     231    7466+
+           1776     228    7496    7495
CTETRA       897       1    3449    6011    6010    6021    1776    7463+
+            225     219    7493    7492
CTETRA       898       1    3406    5953    5964    5965    1777    7331+
+            269     267    7333    7332
CTETRA       899       1    3397    5953    3406    5954    1045    1777+
+           4500    1046    7301     265
CTETRA       900       1    3396    5954    3405    5955     272     264+
+           4497    1051    7304    1052
CTETRA       901       1    3421    5978    5989    5990    1778    7402+
+           1361    1290    7404    7403
CTETRA       902       1    3421    3431    3430    5989    4568    4567+
+           4566    1361     605    1596
CTETRA       903       1    3404    5955    3405    5966     614    1052+
+           4495     615    7337    1779
CTETRA       904       1    3383    5937    5948    5949    1780    7287+
+           1781    1782    7289    7288
CTETRA       905       1    3405    5965    3414    5966     266    1783+
+           4522    1779    7335    1784
CTETRA       906       1    3382    5938    5949    5950    1785    7290+
+           1786    1787    7292    7291
CTETRA       907       1    3391    5949    5960    5961    1788    7321+
+           1789    1790    7323    7322
CTETRA       908       1    3376    3386    3385    5934    4443    4442+
+           4441    1791    1792    1369
CTETRA       909       1    3361    5899    5898    5910    1793    7146+
+           1306    1304    7179    7178
CTETRA       910       1    3370    5909    3371    5920    1794    1795+
+           4401    1796    7207    1797
CTETRA       911       1    3376    5923    5934    5935    1798    7247+
+           1791    1799    7249    7248
CTETRA       912       1    3366    5925    3375    5926     281     276+
+           4413     635    7223    1800
CTETRA       913       1    3365    3375    3374    5926    4412    4411+
+           4410     285    1800     286
CTETRA       914       1    3322    5858    5857    5869    1311    7031+
+           1315     310    7064    7063
CTETRA       915       1    3323    5856    5867    5868     673    7058+
+            675     312    7060    7059
CTETRA       916       1    3367    5923    3376    5924    1801    1798+
+           4416    1802    7217    1803
CTETRA       917       1    3376    5935    3385    5936    1799    1368+
+           4441     279    7251     280
CTETRA       918       1    3374    5926    3375    5937     286    1800+
+           4411    1804    7256    1805
CTETRA       919       1    3357    5914    3366    5915    1806     634+
+           4388    1807    7192    1808
CTETRA       920       1    3285    5815    5826    5827    1316    6943+
+           1318    1809    6945    6944
CTETRA       921       1    3294    5827    5826    5838    1810    6944+
+            320     322    6977    6976
CTETRA       922       1    3375    5926    5925    5937    1800    7223+
+            276    1805    7256    7255
CTETRA       923       1    3354    3364    3363    5917    4381    4380+
+           4379     642     644    1811
CTETRA       924       1    3224    5736    5735    5747    1344    6687+
+           1812     706    6720    6719
CTETRA       925       1    3224    5735    3225    5746    1812     716+
+           3995    1813    6717     718
CTETRA       926       1    3224    5735    5746    5747    1812    6717+
+           1813     706    6719    6718
CTETRA       927       1    3363    3373    3372    5928    4406    4405+
+           4404    1814    1815    1816
CTETRA       928       1    3225    5734    5745    5746     717    6714+
+           1817     718    6716    6715
CTETRA       929       1    3226    3227    3236    5744    4001    4028+
+           4027     759     755     745
CTETRA       930       1    3363    3364    3373    5928    4380    4407+
+           4406    1814     646    1815
CTETRA       931       1    3186    5694    5705      17    1818    6602+
+           1819    1820    1348    1350
CTETRA       932       1    8934    8801    8802    5918    1821    8860+
+           1822     637    8580    8581
CTETRA       933       1    3187    5704    3196    5705    1823    1824+
+           3916    1825    6600    1826
CTETRA       934       1    3187    5693    5704    5705    1827    6599+
+           1823    1825    6601    6600
CTETRA       935       1    3196    5705    5704    5716    1826    6600+
+           1824    1467    6633    6632
CTETRA       936       1    3363    5917    5928    5929    1811    7231+
+           1814    1447    7233    7232
CTETRA       937       1    3355    5916    3364    5917     648     645+
+           4382     643    7198     644
CTETRA       938       1    3147    5654    5653    5665     432    6457+
+           1362     434    6490    6489
CTETRA       939       1    8936    5896    3345    5907     650     652+
+           5357    1405    7172    1828
CTETRA       940       1    3147    5653    3148    5664    1362    1829+
+           3780     437    6487    1830
CTETRA       941       1    3148    5652    5663    5664     409    6484+
+            410    1830    6486    6485
CTETRA       942       1    8935    8936    3354    5907    8990    5360+
+           5359    1404    1405    1381
CTETRA       943       1    3355    5906    5905    5917    1088    7167+
+            647     643    7200    7199
CTETRA       944       1    3145    5634    3146    5645    1165    1164+
+           3776    1179    6432    1180
CTETRA       945       1    3145    5634    5645    5646    1165    6432+
+           1179    1831    6434    6433
CTETRA       946       1    3365    5916    5915    5927     292    7195+
+            290     287    7228    7227
CTETRA       947       1    3146    5644    3155    5645    1497    1498+
+           3803    1180    6430    1181
CTETRA       948       1    8959    3146    5633    5644    5576    1496+
+           1832    1400    1497    6429
CTETRA       949       1    8958    3155    3146    5644    5574    3803+
+           5575    1833    1498    1497
CTETRA       950       1    8935    5907    3354    5918    1404    1381+
+           5359     638    7203    1382
CTETRA       951       1    8958    3155    5644    5655    5574    1498+
+           1833     444     429    6460
CTETRA       952       1    3126    3135    5625       7    3747     452+
+            451     456    1367    1834
CTETRA       953       1    3126    3136    3135       6    3749    3748+
+           3747     455    1835    1366
CTETRA       954       1    3336    5884    3337    5895     665    1836+
+           4305    1837    7138    1838
CTETRA       955       1    3127    5612    5623    5624     960    6370+
+           1158    1160    6372    6371
CTETRA       956       1    3335    5865    5864    5876    1097    7050+
+            662    1839    7083    7082
CTETRA       957       1    3333    3334    3343    5877    4298    4325+
+           4324    1840     301     302
CTETRA       958       1    8955    8956    3174      15    8970    5320+
+           5319    1841    1039    1270
CTETRA       959       1    3315    5844    5855    5856    1842    7024+
+           1843    1844    7026    7025
CTETRA       960       1    8955    8823    8956      15    1061    1206+
+           8970    1841    1845    1039
CTETRA       961       1    3322    3332    3331    5868    4293    4292+
+           4291     308     305     309
CTETRA       962       1    8957    8958    3156    5665    8968    5316+
+           5315     423     433     424
CTETRA       963       1    8957    8824    5665    5676    1059    8626+
+            423     425    8625    6521
CTETRA       964       1    3323    3333    3332    5867    4296    4295+
+           4294     675    1846     306
CTETRA       965       1    3333    5866    5877    5878    1847    7086+
+           1840    1848    7088    7087
CTETRA       966       1    3316    5854    3325    5855    1042     293+
+           4275    1849    7022    1370
CTETRA       967       1    8919    3507    8786    6094    5394    1850+
+           1056    1851    1852    8549
CTETRA       968       1    8918    8919    8786    6084    9007    1056+
+           1129    1144    1853    8441
CTETRA       969       1    3313    5846    3314    5857     684    1633+
+           4242     685    7030    1854
CTETRA       970       1    3321    5859    3322    5870    1855    1096+
+           4264    1856    7067    1312
CTETRA       971       1    8922    8923    3471    6050    9003    5386+
+           5385    1857    1858    1859
CTETRA       972       1    3321    3322    3331    5870    4264    4291+
+           4290    1856    1312    1313
CTETRA       973       1    8922    3471    3480    6061    5385    4704+
+           5388    1769    1860    1762
CTETRA       974       1    8922    6050    3471    6061    1857    1859+
+           5385    1769    7606    1860
CTETRA       975       1    3312    3322    3321    5859    4265    4264+
+           4263    1094    1096    1855
CTETRA       976       1    3291    3301    3300    5840    4206    4205+
+           4204    1861    1862    1863
CTETRA       977       1    3471    6050    6049    6061    1859    7573+
+           1584    1860    7606    7605
CTETRA       978       1    8922    8923    8790    3470    9003    1737+
+           1864    5503    5504    1738
CTETRA       979       1    3488    6062    3497    6063     212    1394+
+           4753    1741    7609    1742
CTETRA       980       1    8787    3497    6062    6073    1219    1394+
+           8438    8439    1220    7638
CTETRA       981       1    3191    5689    5688      19    1765    6554+
+           1865    1768    1767    1866
CTETRA       982       1    8922    8790    8789    6040    1864    8872+
+           1760    1867    8433    8434
CTETRA       983       1    8921    8922    8789    3479    9004    1760+
+           1125    5501    5502    1770
CTETRA       984       1    3291    3292    3301    5840    4180    4207+
+           4206    1861    1321    1862
CTETRA       985       1    3138    3139    3148    5653    3755    3782+
+           3781    1663    1664    1829
CTETRA       986       1    3138    5642    5653    5654    1662    6456+
+           1663    1398    6458    6457
CTETRA       987       1    8959    5643    3138    5654     564     563+
+           5311    1170    6459    1398
CTETRA       988       1    3129    5643    3138       8     446     563+
+           3754     783     567     566
CTETRA       989       1    8959    3137    8960    5633    5577    5578+
+           8966    1832    1868    1869
CTETRA       990       1    3283    5818    5817    5829     846    6919+
+           1034     848    6952    6951
CTETRA       991       1    3292    5839    3301    5840     315    1106+
+           4207    1321    6981    1862
CTETRA       992       1    3280    5810    3289    5811     330    1870+
+           4175    1871    6898    1872
CTETRA       993       1    8959    8960    8827    5633    8966     741+
+           1399    1832    1869    8358
CTETRA       994       1    3191    5699    3200      19      27    1510+
+           3928    1768    1745    1744
CTETRA       995       1    8959    5633    8827    5644    1832    8358+
+           1399    1400    6429    8361
CTETRA       996       1    3649    6262    6261    6272    1873    8170+
+            903    1874    8200    8199
CTETRA       997       1    3657    3658    3667    6273    5198    5225+
+           5224     501    1580     493
CTETRA       998       1    3279    5800    3280    5811    1875    1114+
+           4148    1876    6900    1871
CTETRA       999       1    3658    3668    3667    6283    5227    5226+
+           5225    1581    1877      83
CTETRA      1000       1    3242    3252    3251    5768    4071    4070+
+           4069    1878    1879     883
CTETRA      1001       1    3250    5781    3259    5782    1880    1881+
+           4091    1882    6817    1883
CTETRA      1002       1    3250    5780    3259    5781     340     342+
+           4091    1880    6814    1881
CTETRA      1003       1    3617    6224    6223    6234     166    8064+
+           1884     496    8094    8093
CTETRA      1004       1    3190    3191    3200      19    3901    3928+
+           3927    1766    1768    1744
CTETRA      1005       1    3617    6223    3618    6234    1884     518+
+           5086     496    8093    1885
CTETRA      1006       1    3566    6164    3576    6175    1402    1712+
+           4971    1403    7926    1710
CTETRA      1007       1    3566    3576    3575    6175    4971    4970+
+           4969    1403    1710     129
CTETRA      1008       1    3574    3575    3584    6176    4967    4994+
+           4993     143     128     144
CTETRA      1009       1    3251    5768    3252    5779     883    1879+
+           4070     343    6810    1886
CTETRA      1010       1    3126    5625    5613       7     451    6375+
+            453     456    1834     457
CTETRA      1011       1    3575    3584    6176    6186    4994     144+
+            128     130     135    7958
CTETRA      1012       1    3565    3575    3574    6166    4968    4967+
+           4966     148    1887     149
CTETRA      1013       1    3241    5758    3242    5769     345    1888+
+           4042     346    6782    1889
CTETRA      1014       1    3231    5749    5760    5761     850    6757+
+            352     354    6759    6758
CTETRA      1015       1    3492    3493    3502    6079    4739    4766+
+           4765    1726    1890     170
CTETRA      1016       1    3491    3501    3500    6080    4762    4761+
+           4760    1325     970     969
CTETRA      1017       1    3491    3492    3501    6080    4736    4763+
+           4762    1325    1728     970
CTETRA      1018       1    3239    5761    5772    5773    1891    6791+
+           1892    1893    6793    6792
CTETRA      1019       1    3492    6069    6079    6080     579    7657+
+           1726    1728    7659    7658
CTETRA      1020       1    3483    3493    3492    6068    4740    4739+
+           4738    1894    1895    1896
CTETRA      1021       1    3135    5636    5625       7    1176    6407+
+            452    1367    1897    1834
CTETRA      1022       1    3483    6068    3492    6069    1894    1896+
+           4738     578    7627     579
CTETRA      1023       1    3238    5762    3239    5773    1432    1139+
+           4033    1898    6794    1893
CTETRA      1024       1    3208    5711    5722    5723    1899    6649+
+            245     739    6651    6650
CTETRA      1025       1    3209    5711    5710    5722    1900    6616+
+           1901     246    6649    6648
CTETRA      1026       1    3450    6010    6009    6020     226    7459+
+           1902    1903    7490    7489
CTETRA      1027       1    3198    5702    5701    5713     373    6591+
+           1016     378    6624    6623
CTETRA      1028       1    3440    3450    3449    6010    4621    4620+
+           4619    1342     226     225
CTETRA      1029       1    8724    3118    8725    5602    5585    5588+
+           8735    1171     363     362
CTETRA      1030       1    3441    6009    3450    6010     223    1902+
+           4622     224    7459     226
CTETRA      1031       1    3196    3206    3205    5714    3943    3942+
+           3941    1904     751    1484
CTETRA      1032       1    5624    5625    5636       7    6374    6407+
+           6406    1905    1834    1897
CTETRA      1033       1    3158    5673    3167    5674     384     773+
+           3835    1906    6513    1907
CTETRA      1034       1    3409    5971    5982    5983    1908    7383+
+           1909    1910    7385    7384
CTETRA      1035       1    3157    5663    3158    5674     406     445+
+           3808     407    6515    1906
CTETRA      1036       1    3399    3409    3408    5972    4506    4505+
+           4504    1911    1912    1913
CTETRA      1037       1    3154    3155    3164    5656    3801    3828+
+           3827    1914    1499    1915
CTETRA      1038       1    3400    5971    3409    5972    1916    1908+
+           4507    1917    7353    1912
CTETRA      1039       1    3367    3377    3376    5923    4418    4417+
+           4416    1801    1918    1798
CTETRA      1040       1    3357    3367    3366    5914    4390    4389+
+           4388    1806    1919     634
CTETRA      1041       1    5613    5625    5624       7    6375    6374+
+           6373     457    1834    1905
CTETRA      1042       1    3366    5914    3367    5925     634    1919+
+           4389     281    7222    1920
CTETRA      1043       1    3366    3367    3376    5925    4389    4416+
+           4415     281    1920     277
CTETRA      1044       1    3367    5912    5923    5924    1921    7216+
+           1801    1802    7218    7217
CTETRA      1045       1    3358    5912    3367    5913    1922    1921+
+           4391    1923    7186    1924
CTETRA      1046       1    3136    5624    5623    5635    1161    6371+
+           1159    1925    6404    6403
CTETRA      1047       1    3326    5864    3335    5865     298     662+
+           4303     296    7050    1097
CTETRA      1048       1    8725    8744    5602    5603    8660    8654+
+            362     449    8655    6338
CTETRA      1049       1    3352    5887    3353    5898    1392    1449+
+           4351    1926    7145    1927
CTETRA      1050       1    3324    3325    3334    5866    4273    4300+
+           4299    1928    1371     303
CTETRA      1051       1    3324    5855    3325    5866    1395    1370+
+           4273    1928    7055    1371
CTETRA      1052       1    3274    3284    3283    5817    4159    4158+
+           4157      80      82    1034
CTETRA      1053       1    3285    5826    3294    5827    1318     320+
+           4188    1809    6944    1810
CTETRA      1054       1    3284    3294    3293    5827    4187    4186+
+           4185    1929    1810    1930
CTETRA      1055       1    3283    5817    3284    5828    1034      82+
+           4158    1322    6949    1323
CTETRA      1056       1    3135    3136    3145       6    3748    3775+
+           3774    1366    1835    1186
CTETRA      1057       1    3284    5816    5827    5828    1272    6946+
+           1929    1323    6948    6947
CTETRA      1058       1    3233    3243    3242    5757    4046    4045+
+           4044     854    1022    1931
CTETRA      1059       1    3242    5757    5768    5769    1931    6779+
+           1878    1889    6781    6780
CTETRA      1060       1    3241    5769    3250    5770     346    1932+
+           4066     347    6783     360
CTETRA      1061       1    3136    5624    5635       6    1161    6404+
+           1925    1835    1933     185
CTETRA      1062       1    3251    5769    5768    5780    1934    6780+
+            883     344    6813    6812
CTETRA      1063       1    3134    5626    5637       4    1935    6410+
+           1175    1936    1937    1938
CTETRA      1064       1    3158    3168    3167    5673    3837    3836+
+           3835     384     386     773
CTETRA      1065       1    3125    5614    5625    5626    1364    6376+
+            450    1939    6378    6377
CTETRA      1066       1    3150    3160    3159    5661    3815    3814+
+           3813     523    1472     502
CTETRA      1067       1    3150    3151    3160    5661    3789    3816+
+           3815     523    1475    1472
CTETRA      1068       1    3150    5661    3159    5662     523     502+
+           3813     350    6479     351
CTETRA      1069       1    3159    3169    3168    5672    3840    3839+
+           3838     780     402     829
CTETRA      1070       1    8729    8730    8750    5608    8740    8675+
+           8678    1940    1941    8642
CTETRA      1071       1    8729    8749    5607    5608    8679    8644+
+            461    1940    8645    6358
CTETRA      1072       1    3113    5608    5607    5619    1942    6358+
+           1943    1944    6357    6356
CTETRA      1073       1    8727    8747    8746    5605    8668    8760+
+           8667     448    8648    8651
CTETRA      1074       1    3115    5606    5605    5617    1945    6350+
+           1501    1946    6349    6348
CTETRA      1075       1    8727    5605    3115    5606     448    1501+
+           5591     465    6350    1945
CTETRA      1076       1    3343    3344    3353    5887    4326    4353+
+           4352    1448    1947    1449
CTETRA      1077       1    3353    5886    5897    5898    1704    7142+
+           1426    1927    7144    7143
CTETRA      1078       1    3684    6306    3694    6317    1948    1949+
+           5299    1950    8326    1951
CTETRA      1079       1    3684    6307    6306    6317    1952    8297+
+           1948    1950    8327    8326
CTETRA      1080       1    8947    8814    8815    5775    1214    8847+
+           1213    1953    8606    8607
CTETRA      1081       1    8929    8796    8797    5973    1954    8865+
+           1955    1956    8570    8571
CTETRA      1082       1    3655    6275    3665    6286      88      89+
+           5218    1233    8239    1625
CTETRA      1083       1    8928    8795    8796    5984    1957    8866+
+           1958    1959    8568    8569
CTETRA      1084       1    3656    3665    6275    6285    5219      89+
+             85      87    1610    8237
CTETRA      1085       1    8928    8796    8795    5985    1958    8866+
+           1957    1960    8423    8422
CTETRA      1086       1    3680    6301    6311    6312    1534    8311+
+           1538     242    8313    8312
CTETRA      1087       1    3660    6291    3670    6302    1961    1962+
+           5231    1217    8285    1218
CTETRA      1088       1    3646    6265    3655    6266     508    1963+
+           5191     881    8182     882
CTETRA      1089       1    3669    6292    6302    6303    1964    8286+
+            470     478    8288    8287
CTETRA      1090       1    3660    6281    6291    6292     758    8255+
+           1961    1965    8257    8256
CTETRA      1091       1    3656    6265    6264    6275    1623    8179+
+           1231      85    8209    8208
CTETRA      1092       1    3657    3666    6274    6284    5222    1585+
+            314      77      79    8234
CTETRA      1093       1    3649    6261    3659    6272     903     905+
+           5202    1874    8199     936
CTETRA      1094       1    3346    5894    5905    5906    1082    7166+
+           1621    1083    7168    7167
CTETRA      1095       1    3648    6262    3658    6273     495    1966+
+           5199    1238    8202    1580
CTETRA      1096       1    3617    3618    3627    6234    5086    5113+
+           5112     496    1885     497
CTETRA      1097       1    3668    6283    6282    6293    1877    8229+
+           1574     489    8259    8258
CTETRA      1098       1    8903    3651    8770    6270    5426    1262+
+           1183    1229    1265    8517
CTETRA      1099       1    3617    6224    6234    6235     166    8094+
+            496     101    8096    8095
CTETRA      1100       1    8902    8770    8903    3651    1090    1183+
+           9023    5425    1262    5426
CTETRA      1101       1    3607    3617    3616    6235    5084    5083+
+           5082     167     101      95
CTETRA      1102       1    8899    8767    8900    6314    1149    1967+
+           9026    1150    8510    1968
CTETRA      1103       1    3608    6213    6223    6224    1969    8063+
+            516    1970    8065    8064
CTETRA      1104       1    3607    3616    6225    6235    5082    1971+
+            795     167      95    8097
CTETRA      1105       1    8900    8901    8768    6282    9025    1122+
+           1972    1573    1518    8477
CTETRA      1106       1    3586    6173    3587    6184     562     556+
+           5001     961    7951     511
CTETRA      1107       1    3586    3596    3595    6184    5027    5026+
+           5025     961     467    1556
CTETRA      1108       1    3595    6185    6184    6195    1973    7953+
+           1556    1557    7983    7982
CTETRA      1109       1    3649    3659    3658    6272    5202    5201+
+           5200    1874     936    1974
CTETRA      1110       1    3620    6220    6230    6231    1975    8082+
+           1976    1977    8084    8083
CTETRA      1111       1    3619    3629    3628    6232    5118    5117+
+           5116     505    1239     520
CTETRA      1112       1    3557    3566    6154    6164    4944    1978+
+           1341    1979    1402    7896
CTETRA      1113       1    3557    6143    6153    6154    1980    7865+
+           1981    1341    7867    7866
CTETRA      1114       1    3610    6210    6220    6221    1246    8054+
+           1982    1247    8056    8055
CTETRA      1115       1    3547    6133    6143    6144    1720    7837+
+           1724    1983    7839    7838
CTETRA      1116       1    3608    6223    3617    6224     516    1884+
+           5085    1970    8064     166
CTETRA      1117       1    3354    5906    3355    5917    1089    1088+
+           4355     642    7200     643
CTETRA      1118       1    3580    3590    3589    6202    5009    5008+
+           5007     526     529    1984
CTETRA      1119       1    3589    6203    6202    6213    1985    8005+
+           1984    1986    8035    8034
CTETRA      1120       1    8913    8781    3552    6160    1987    1988+
+           5403    1989    8538    1990
CTETRA      1121       1    8912    8780    8913    3561    1991    1992+
+           9013    5405    1993    5406
CTETRA      1122       1    3520    6101    6111    6112    1994    7747+
+            559    1995    7749    7748
CTETRA      1123       1    3568    6152    6162    6163    1996    7890+
+            574     545    7892    7891
CTETRA      1124       1    3354    5906    5917    5918    1089    7200+
+            642    1382    7202    7201
CTETRA      1125       1    3529    6112    6111    6122    1997    7748+
+            561     551    7778    7777
CTETRA      1126       1    3559    6151    3568    6152     542     602+
+           4950     543    7860    1996
CTETRA      1127       1    3373    5928    5927    5939    1815    7229+
+           1998    1999    7262    7261
CTETRA      1128       1    3509    6091    3510    6102    2000     181+
+           4786     971    7721     972
CTETRA      1129       1    3509    6102    3518    6103     971    2001+
+           4810    1732    7723    2002
CTETRA      1130       1    3529    6111    3530    6121     561     560+
+           4842    2003    7775    2004
CTETRA      1131       1    3511    3521    3520    6100    4818    4817+
+           4816     573    1709    2005
CTETRA      1132       1    8923    6039    3462    6050      63    2006+
+           5383    1858    7575    2007
CTETRA      1133       1    3462    6038    6049    6050    2008    7572+
+           1582    2007    7574    7573
CTETRA      1134       1    3512    3521    6099    6109    4819    1706+
+            568     570    1303    7741
CTETRA      1135       1    3459    6021    6020    6031     221    7491+
+           2009    1757    7521    7520
CTETRA      1136       1    3459    6031    3468    6032    1757    1006+
+           4672     997    7522     993
CTETRA      1137       1    3382    5949    3391    5950    1786    1788+
+           4457    1787    7291    2010
CTETRA      1138       1    3483    6057    3484    6067    2011    2012+
+           4714    2013    7623    2014
CTETRA      1139       1    3510    6091    6101    6102     181    7719+
+           2015     972    7721    7720
CTETRA      1140       1    3469    6031    6030    6041    2016    7519+
+           2017    2018    7549    7548
CTETRA      1141       1    3473    6047    3474    6058    2019    2020+
+           4686    2021    7597    2022
CTETRA      1142       1    3483    6058    6057    6068    2023    7596+
+           2011    1894    7626    7625
CTETRA      1143       1    3449    6021    3458    6022     219    2024+
+           4644     228    7494     229
CTETRA      1144       1    3458    6021    3459    6032    2024     221+
+           4645     996    7523     997
CTETRA      1145       1    3471    6049    6060    6061    1584    7603+
+           2025    1860    7605    7604
CTETRA      1146       1    3450    3460    3459    6020    4649    4648+
+           4647    1903    1012    2009
CTETRA      1147       1    3403    5968    3412    5969    2026    2027+
+           4516    2028    7344    2029
CTETRA      1148       1    3412    5969    5968    5980    2029    7344+
+           2027    2030    7377    7376
CTETRA      1149       1    3403    5957    5968    5969    2031    7343+
+           2026    2028    7345    7344
CTETRA      1150       1    3413    5966    3414    5977     610    1784+
+           4520    2032    7368    2033
CTETRA      1151       1    3413    5966    5977    5978     610    7368+
+           2032     611    7370    7369
CTETRA      1152       1    3384    5947    3393    5948    1079     623+
+           4463    2034    7285    2035
CTETRA      1153       1    3187    5694    5693    5705    2036    6569+
+           1827    1825    6602    6601
CTETRA      1154       1    8956    8824    8823    5677    1254    8838+
+           1206    1208    8367    8366
CTETRA      1155       1    3372    5929    5928    5940    1451    7232+
+           1816    2037    7265    7264
CTETRA      1156       1    3392    5948    5959    5960     618    7318+
+           1372     619    7320    7319
CTETRA      1157       1    3363    5917    3364    5928    1811     644+
+           4380    1814    7231     646
CTETRA      1158       1    3364    5916    5927    5928     645    7228+
+           1037     646    7230    7229
CTETRA      1159       1    3394    5946    5945    5957    1077    7279+
+           1068    1365    7312    7311
CTETRA      1160       1    3412    5968    5979    5980    2027    7374+
+            608    2030    7376    7375
CTETRA      1161       1    3403    5957    5956    5968    2031    7310+
+           2038    2026    7343    7342
CTETRA      1162       1    3356    3357    3366    5915    4361    4388+
+           4387     289    1807    1808
CTETRA      1163       1    3363    5928    3372    5929    1814    1816+
+           4404    1447    7232    1451
CTETRA      1164       1    3351    5889    5888    5900    1455    7118+
+           2039    2040    7151    7150
CTETRA      1165       1    3385    5935    5946    5947    1368    7281+
+           1076    1080    7283    7282
CTETRA      1166       1    3342    5877    3343    5888    2041     302+
+           4323    2042    7117    2043
CTETRA      1167       1    3343    5876    5887    5888     300    7114+
+           1448    2043    7116    7115
CTETRA      1168       1    8939    8807    8806    5864    1141    8855+
+           1140    1273    8401    8400
CTETRA      1169       1    3303    5837    3304    5848    2044    1413+
+           4214    2045    7005    1460
CTETRA      1170       1    3327    5873    3328    5884     667    2046+
+           4280     668    7107    2047
CTETRA      1171       1    3304    5847    3313    5848    1459    1461+
+           4241    1460    7003    1093
CTETRA      1172       1    3328    5872    5883    5884    2048    7104+
+           2049    2047    7106    7105
CTETRA      1173       1    3304    5835    5846    5847    2050    6999+
+           1631    1459    7001    7000
CTETRA      1174       1    3265    5796    5795    5807    2051    6857+
+           1469    1471    6890    6889
CTETRA      1175       1    3335    5864    5875    5876     662    7080+
+            663    1839    7082    7081
CTETRA      1176       1    3265    5795    3266    5806    1469    2052+
+           4108    1470    6887    2053
CTETRA      1177       1    3266    5794    5805    5806     698    6884+
+            700    2053    6886    6885
CTETRA      1178       1    8939    8806    5863    5874    1140    8590+
+           1142    1274    8589    7079
CTETRA      1179       1    3245    5755    5754    5766     733    6740+
+            731    2054    6773    6772
CTETRA      1180       1    3344    5875    5886    5887    2055    7111+
+           2056    1947    7113    7112
CTETRA      1181       1    3254    5766    5765    5777    2057    6771+
+           2058    2059    6804    6803
CTETRA      1182       1    3346    3356    3355    5905    4359    4358+
+           4357    1621    1622     647
CTETRA      1183       1    3394    5947    5946    5958     624    7282+
+           1077     626    7315    7314
CTETRA      1184       1    3306    5844    3315    5845     682    1842+
+           4247     683    6994    1099
CTETRA      1185       1    3306    5833    3307    5844     681    2060+
+           4223     682    6993    2061
CTETRA      1186       1    3214    5726    5725    5737    1481    6659+
+           2062    2063    6692    6691
CTETRA      1187       1    3206    5724    3215    5725    2064    2065+
+           3969     749    6656     750
CTETRA      1188       1    3412    5978    3421    5979     607    1778+
+           4541     608    7372    1289
CTETRA      1189       1    3307    5832    5843    5844    2066    6990+
+           2067    2061    6992    6991
CTETRA      1190       1    3402    3412    3411    5969    4515    4514+
+           4513     627    2029     628
CTETRA      1191       1    3304    5837    5836    5848    1413    6972+
+           1412    1460    7005    7004
CTETRA      1192       1    3168    5672    5683    5684     829    6540+
+            390     382    6542    6541
CTETRA      1193       1    3177    5684    5683    5695     383    6541+
+           2068    1157    6574    6573
CTETRA      1194       1    3314    5856    3323    5857    2069     673+
+           4269    1854    7028    1355
CTETRA      1195       1    3267    5793    3268    5804    2070    2071+
+           4114     708    6881    2072
CTETRA      1196       1    8960    5632    3129       8     742     441+
+           5309     743     641     783
CTETRA      1197       1    3129    5631    5642    5643     439    6425+
+           2073     446    6427    6426
CTETRA      1198       1    3129    5642    3138    5643    2073    1662+
+           3754     446    6426     563
CTETRA      1199       1    3268    5803    3277    5804    2074     696+
+           4141    2072    6879     695
CTETRA      1200       1    3421    5980    5979    5991    2075    7375+
+           1289    1291    7408    7407
CTETRA      1201       1    3268    5792    5791    5803    2076    6845+
+           1123    2074    6878    6877
CTETRA      1202       1    8726    5603    3116    5604     581     583+
+           5589    2077    6342    2078
CTETRA      1203       1    3116    5604    5603    5615    2078    6342+
+            583     877    6341    6340
CTETRA      1204       1    3257    5794    3266    5795    2079     698+
+           4110     715    6854    2052
CTETRA      1205       1    3117    5603    5602    5614     582    6338+
+            364     418    6337    6336
CTETRA      1206       1    3268    5792    5803    5804    2076    6878+
+           2074    2072    6880    6879
CTETRA      1207       1    3275    3276    3285    5816    4136    4163+
+           4162     703     704    1271
CTETRA      1208       1    8938    8805    5874    5885    1104    8588+
+           1105    1237    8587    7110
CTETRA      1209       1    8936    3344    8937    5886    5531    5532+
+           8989    1705    2056    1168
CTETRA      1210       1    8936    8804    8937    5896    1101    1073+
+           8989     650    8585     651
CTETRA      1211       1    8936    8937    8804    5886    8989    1073+
+           1101    1705    1168    8404
CTETRA      1212       1    8940    8941    8808    5842    8985    1531+
+           1234    1527    1529    8396
CTETRA      1213       1    3258    5782    5793    5794    1415    6850+
+           2080    1416    6852    6851
CTETRA      1214       1    8899    8900    8767    6293    9026    1967+
+           1149    1162     487    8479
CTETRA      1215       1    8901    3660    3669    6292    5427    5229+
+           5430     482    1965    1964
CTETRA      1216       1    3238    3239    3248    5773    4033    4060+
+           4059    1898    1893    1152
CTETRA      1217       1    3239    5762    5761    5773    1139    6761+
+           1891    1893    6794    6793
CTETRA      1218       1    8899    3677    8900    6293    5457    5458+
+           9026    1162     488     487
CTETRA      1219       1    3230    5750    5761    5762    2081    6760+
+           2082    1138    6762    6761
CTETRA      1220       1    3186    5695    5694      17    1146    6572+
+           1818    1820    2083    1348
CTETRA      1221       1    8905    3624    3633    6248    5419    5129+
+           5422    2084    2085    2086
CTETRA      1222       1    8904    3632    6238    6249    5467    2087+
+           2088    1525    2089    8134
CTETRA      1223       1    8904    3642    8771    6259    5424    2090+
+           1523    1524    2091    8519
CTETRA      1224       1    8904    8772    3633    6259     808     810+
+           5421    1524    8520    2092
CTETRA      1225       1    8941    8942    3300    5841    8984    5348+
+           5347    2093    2094    2095
CTETRA      1226       1    8941    3299    8942    5831    5541    5542+
+           8984    2096    2097    2098
CTETRA      1227       1    3421    5978    3422    5989    1778    1363+
+           4542    1361    7402     604
CTETRA      1228       1    3237    5764    5763    5775     722    6767+
+            720    1194    6800    6799
CTETRA      1229       1    8940    8941    3309    5852    8985    5350+
+           5349    1509    1532    2099
CTETRA      1230       1    8941    5831    8809    5842    2096    8394+
+           2100    1529    6987    8397
CTETRA      1231       1    3219    5742    5741    5753    1445    6705+
+            537    2101    6738    6737
CTETRA      1232       1    8941    5841    3300    5852    2093    2095+
+           5347    1532    7017    2102
CTETRA      1233       1    3431    5988    5999    6000     603    7430+
+           2103    1592    7432    7431
CTETRA      1234       1    3209    5710    5721    5722    1901    6646+
+           2104     246    6648    6647
CTETRA      1235       1    3670    3680    3679    6312    5259    5258+
+           5257    1535     242     479
CTETRA      1236       1    3678    3688    3687    6324    5281    5280+
+           5279     367     368     782
CTETRA      1237       1    3217    3227    3226    5733    4002    4001+
+           4000     158     753     159
CTETRA      1238       1    3670    3679    6302    6312    5257     471+
+           1218    1535     479    8314
CTETRA      1239       1    3669    3679    3678    6313    5256    5255+
+           5254     472     473     365
CTETRA      1240       1    8688    3688    8708    6324    5438    1064+
+           3094     781     368    8502
CTETRA      1241       1    8899    6314    3687    6325    1150    2105+
+           5434    1070    8350    1071
CTETRA      1242       1    3669    3678    6303    6313    5254    2106+
+            478     472     365    8317
CTETRA      1243       1    3669    3670    3679    6302    5230    5257+
+           5256     470    1218     471
CTETRA      1244       1    8900    6303    3678    6314     476    2106+
+           5432    1968    8319    1065
CTETRA      1245       1    3208    5712    5711    5723     371    6619+
+           1899     739    6652    6651
CTETRA      1246       1    3679    3688    6313    6323    5282     366+
+            473     649     192    8345
CTETRA      1247       1    8900    6282    8767    6293    1573    8478+
+           1967     487    8258    8479
CTETRA      1248       1    3669    6303    6302    6313     478    8287+
+            470     472    8317    8316
CTETRA      1249       1    3660    3669    6292    6302    5229    1964+
+           1965    1217     470    8286
CTETRA      1250       1    3431    5988    3432    5999     603    2107+
+           4570    2103    7430    2108
CTETRA      1251       1    3638    6243    6242    6253    1555    8117+
+            777    1549    8147    8146
CTETRA      1252       1    3637    6254    3646    6255     887     506+
+           5166    1690    8151    1693
CTETRA      1253       1    3636    3646    3645    6255    5165    5164+
+           5163    1685    1693    1686
CTETRA      1254       1    3637    3638    3647    6253    5142    5169+
+           5168    1544    1549    1545
CTETRA      1255       1    3215    3225    3224    5735    3996    3995+
+           3994    2109     716    1812
CTETRA      1256       1    3224    3234    3233    5746    4021    4020+
+           4019    1813     853     852
CTETRA      1257       1    3432    5988    5987    5999    2107    7397+
+           2110    2108    7430    7429
CTETRA      1258       1    3627    3637    3636    6244    5140    5139+
+           5138    2111    1689    2112
CTETRA      1259       1    3628    3638    3637    6243    5143    5142+
+           5141     521    1555    1554
CTETRA      1260       1    3170    5669    5680    5681    2113    6531+
+            462     835    6533    6532
CTETRA      1261       1    3594    3595    3604    6196    5023    5050+
+           5049     922    2114     919
CTETRA      1262       1    3595    6185    6195    6196    1973    7983+
+           1557    2114    7985    7984
CTETRA      1263       1    3177    5683    5694    5695    2068    6571+
+           2115    1157    6573    6572
CTETRA      1264       1    3545    6146    3554    6147    1566    1564+
+           4910    2116    7847    2117
CTETRA      1265       1    3555    6156    3564    6157     953     957+
+           4938    1563    7875     956
CTETRA      1266       1    3553    6147    3554    6158    2118    2117+
+           4908    2119    7879    2120
CTETRA      1267       1    3141    5640    5639    5651    2121    6417+
+           2122    2123    6450    6449
CTETRA      1268       1    3553    3554    3563    6158    4908    4935+
+           4934    2119    2120    2124
CTETRA      1269       1    3502    3512    3511    6089    4793    4792+
+           4791     172    2125     571
CTETRA      1270       1    3512    6088    6087    6098     965    7680+
+           1572     569    7710    7709
CTETRA      1271       1    3511    3512    3521    6099    4792    4819+
+           4818    2126     568    1706
CTETRA      1272       1    5628    5640    5639      20    6418    6417+
+           6416    2127    2128    2129
CTETRA      1273       1    3157    3167    3166    5674    3834    3833+
+           3832     407    1907    1003
CTETRA      1274       1    3194    3195    5706      17    3911    1351+
+           1155    2130    2131    1349
CTETRA      1275       1    3461    6029    3470    6030     982    1739+
+           4678     933    7515     934
CTETRA      1276       1    3470    6040    3479    6041    2132    1771+
+           4703    2133    7546    1747
CTETRA      1277       1    3470    6030    6029    6041     934    7515+
+           1739    2133    7548    7547
CTETRA      1278       1    8952    8953    8820    5710    8973      37+
+           2134    1504    1506    8372
CTETRA      1279       1    3430    6001    3439    6002    1589    1030+
+           4591    1599    7437    1600
CTETRA      1280       1    3428    3429    3438    6003    4561    4588+
+           4587    1013    1288    1014
CTETRA      1281       1    8952    8820    8953    5720    2134      37+
+           8973     825    8617    1507
CTETRA      1282       1    3428    5992    3429    6003    2135    1286+
+           4561    1013    7442    1288
CTETRA      1283       1    3419    3429    3428    5992    4562    4561+
+           4560     254    1286    2135
CTETRA      1284       1    8953    8954    3192    5709    8972    5324+
+           5323      38      29      31
CTETRA      1285       1    8956    8823    8824    5676    1206    8838+
+           1254    1038    8624    8625
CTETRA      1286       1    3430    5990    6001    6002    1597    7436+
+           1589    1599    7438    7437
CTETRA      1287       1    3421    5990    3430    5991    1290    1597+
+           4566    1291    7406    1595
CTETRA      1288       1    3194    5706    5695      17    1155    6605+
+           2136    2130    1349    2083
CTETRA      1289       1    3388    5942    3397    5943    1612    1044+
+           4475    1608    7270    1609
CTETRA      1290       1    3199    3209    3208    5711    3952    3951+
+           3950    2137    1900    1899
CTETRA      1291       1    3356    3366    3365    5915    4387    4386+
+           4385     289    1808     290
CTETRA      1292       1    3388    5931    5942    5943    2138    7269+
+           1612    1608    7271    7270
CTETRA      1293       1    3379    3389    3388    5931    4452    4451+
+           4450    2139    2140    2138
CTETRA      1294       1    3386    5933    3387    5944    2141    2142+
+           4445    1047    7275    2143
CTETRA      1295       1    3386    3387    3396    5944    4445    4472+
+           4471    1047    2143    1048
CTETRA      1296       1    3338    5893    3347    5894    2144    1084+
+           4335    2145    7133    1376
CTETRA      1297       1    8934    3362    8935    5908    5527    5528+
+           8991    2146    2147    1389
CTETRA      1298       1    3347    5904    3356    5905    1085    1377+
+           4360    1086    7164    1622
CTETRA      1299       1    8934    3371    5908    5919    5526    2148+
+           2146    2149    2150    7204
CTETRA      1300       1    3336    3337    3346    5895    4305    4332+
+           4331    1837    1838    1081
CTETRA      1301       1    3345    3346    3355    5906    4330    4357+
+           4356    1087    1083    1088
CTETRA      1302       1    3345    5895    3346    5906    2151    1081+
+           4330    1087    7169    1083
CTETRA      1303       1    3346    5905    3355    5906    1621     647+
+           4357    1083    7167    1088
CTETRA      1304       1    3336    5895    3345    5896    1837    2151+
+           4329     666    7139     652
CTETRA      1305       1    3345    5906    3354    5907    1087    1089+
+           4354    1828    7170    1381
CTETRA      1306       1    3345    5896    5895    5907     652    7139+
+           2151    1828    7172    7171
CTETRA      1307       1    8933    3371    8934    5919    5525    5526+
+           8992    2152    2150    2149
CTETRA      1308       1    3523    3533    3532    6107    4852    4851+
+           4850    1001    2153    2154
CTETRA      1309       1    8938    3327    3336    5885    5353    4304+
+           5356    1237     669     664
CTETRA      1310       1    3327    5884    3336    5885     668     665+
+           4304     669    7108     664
CTETRA      1311       1    3336    5884    5895    5896     665    7138+
+           1837     666    7140    7139
CTETRA      1312       1    3524    6106    3533    6107      50    1514+
+           4853    2155    7733    2153
CTETRA      1313       1    8915    3533    8783    6117    5489    1539+
+           1422    2156     154    8447
CTETRA      1314       1    3304    5835    3305    5846    2050    2157+
+           4217    1631    6999    1632
CTETRA      1315       1    3295    3296    3305    5835    4192    4219+
+           4218    2158    2159    2157
CTETRA      1316       1    3597    6214    3607    6225    1702    2160+
+           5056     794    8068     795
CTETRA      1317       1    3597    3598    3607    6214    5030    5057+
+           5056    1702    2161    2160
CTETRA      1318       1    3303    3304    3313    5848    4214    4241+
+           4240    2045    1460    1093
CTETRA      1319       1    3304    5846    3313    5847    1631     684+
+           4241    1459    7000    1461
CTETRA      1320       1    3261    5778    3262    5789    2162     200+
+           4098    2163    6838    2164
CTETRA      1321       1    3262    5788    3271    5789    1332    1053+
+           4125    2164    6836    2165
CTETRA      1322       1    3597    3606    6215    6225    5054    2166+
+           1701     794     796    8069
CTETRA      1323       1    3606    6226    6225    6236     799    8070+
+            796     800    8100    8099
CTETRA      1324       1    3221    3231    3230    5750    4012    4011+
+           4010     358     851    2081
CTETRA      1325       1    3185    3194    5695      17    3910    2136+
+           1147    2167    2130    2083
CTETRA      1326       1    8908    3597    3606    6215    5413    5054+
+           5416    2168    1701    2166
CTETRA      1327       1    8907    8775    8908    3606    2169    2170+
+           9018    5415    2171    5416
CTETRA      1328       1    3179    3189    3188    5691    3896    3895+
+           3894     484     486    1005
CTETRA      1329       1    3178    3188    3187      11    3893    3892+
+           3891     871     873     942
CTETRA      1330       1    3179    5680    3180    5691     464     463+
+           3870     484    6562     485
CTETRA      1331       1    3604    3614    3613    6206    5077    5076+
+           5075     921     119     118
CTETRA      1332       1    3169    5681    3178    5682     764     770+
+           3866     765    6535     769
CTETRA      1333       1    3137    5633    3146    5634    1868    1496+
+           3778    2172    6399    1164
CTETRA      1334       1    8907    8908    8775    6205    9018    2170+
+           2169     726     924    8463
CTETRA      1335       1    8960    5622    3137       3    1378    2173+
+           5578    1379    1380    2174
CTETRA      1336       1    8960    3137    3128       3    5578    3753+
+           5579    1379    2174    1385
CTETRA      1337       1    8921    3489    8788    6072    5390    1278+
+           1124    1126    1282    8553
CTETRA      1338       1    3128    5611    3137    5623    1383    2175+
+           3753    1166    6369    2176
CTETRA      1339       1    8960    3137    5622    5633    5578    2173+
+           1378    1869    1868    6398
CTETRA      1340       1    8898    9029    9030    8710    9028    3093+
+           1515    1516    3091    8712
CTETRA      1341       1    8898    8689    9029    8710    5435    8690+
+           9028    1516    3092    3091
CTETRA      1342       1    3480    3481    3490    6071    4705    4732+
+           4731    1280    1736     197
CTETRA      1343       1    3264    5807    3273    5808    2177     879+
+           4129     979    6891     878
CTETRA      1344       1    8689    3687    8709    6325    5436    1072+
+           3096     474    1071    8504
CTETRA      1345       1    3273    5818    3282    5819     939     845+
+           4154     820    6922     821
CTETRA      1346       1    3264    3265    3274    5807    4105    4132+
+           4131    2177    1471    1464
CTETRA      1347       1    3472    6048    3473    6059     586     585+
+           4683    1587    7600    2178
CTETRA      1348       1    3675    6285    6295    6296    1601    8265+
+           1603    2179    8267    8266
CTETRA      1349       1    8944    3281    5798    5809    5546     326+
+            817     335     334    6894
CTETRA      1350       1    8944    8811    5808    5819    1116    8600+
+           1118     819    8599    6924
CTETRA      1351       1    3666    6274    6284    6285    1585    8234+
+             79    1602    8236    8235
CTETRA      1352       1    8943    8944    8811    5809    8982    1116+
+           2180     333     335    8390
CTETRA      1353       1    3665    3675    3674    6296    5246    5245+
+           5244    1682    2179    1683
CTETRA      1354       1    8943    8944    3282    5819    8982    5344+
+           5343     861     819     821
CTETRA      1355       1    3674    6286    6296    6297    1681    8268+
+           1683    1678    8270    8269
CTETRA      1356       1    3627    3628    3637    6244    5114    5141+
+           5140    2111    2181    1689
CTETRA      1357       1    3636    3637    3646    6255    5139    5166+
+           5165    1685    1690    1693
CTETRA      1358       1    3674    3684    3683    6307    5271    5270+
+           5269    1679    1952    1680
CTETRA      1359       1    8901    8769    8768    6271     480    8893+
+           1122    1517    8475    8476
CTETRA      1360       1    3674    3675    3684    6296    5245    5272+
+           5271    1683    2179    2182
CTETRA      1361       1    3684    6296    6306    6307    2182    8296+
+           1948    1952    8298    8297
CTETRA      1362       1    3647    3656    6264    6274    5194    1231+
+           1230     313      86    8206
CTETRA      1363       1    3656    3666    3665    6285    5221    5220+
+           5219      87    1602    1610
CTETRA      1364       1    3658    6262    6272    6273    1966    8200+
+           1974    1580    8202    8201
CTETRA      1365       1    3644    3645    3654    6267    5161    5188+
+           5187    2183    2184    2185
CTETRA      1366       1    3645    3655    3654    6266    5190    5189+
+           5188     880     882    1624
CTETRA      1367       1    3635    3645    3644    6267    5162    5161+
+           5160    2186    2184    2183
CTETRA      1368       1    3635    3636    3645    6256    5136    5163+
+           5162    2187    1687    1688
CTETRA      1369       1    3645    6256    6255    6266    1688    8154+
+           1686     880    8184    8183
CTETRA      1370       1    3626    3627    3636    6245    5111    5138+
+           5137     914     499    2188
CTETRA      1371       1    3633    3634    3643    6258    5130    5157+
+           5156    2189    1649    2190
CTETRA      1372       1    3185    3195    3194      17    3912    3911+
+           3910    2167    2131    2130
CTETRA      1373       1    3597    6204    6214    6215     791    8038+
+           1702    1701    8040    8039
CTETRA      1374       1    3111    3112    3121      18    3700    3699+
+           3698    2191    2192    2193
CTETRA      1375       1    3624    3634    3633    6258    5131    5130+
+           5129    1648    1649    2189
CTETRA      1376       1    3577    6163    6173    6174     546    7921+
+            554    2194    7923    7922
CTETRA      1377       1    3625    6246    3635    6257      99     100+
+           5134     900    8158     893
CTETRA      1378       1    3625    6247    6246    6257    1637    8129+
+             99     900    8159    8158
CTETRA      1379       1    3568    6162    3577    6163     574     576+
+           4975     545    7891     546
CTETRA      1380       1    3558    3567    6153    6163    4947    2195+
+           2196    2197     544    7893
CTETRA      1381       1    8904    3632    8905    6238    5467    5468+
+           9021    2088    2087    2198
CTETRA      1382       1    8903    3641    8904    6249    5465    5466+
+           9022    1184    1522    1525
CTETRA      1383       1    3624    6248    6247    6258    2085    8132+
+           1636    1648    8162    8161
CTETRA      1384       1    8905    3633    8772    6248    5422     810+
+            809    2084    2086    8521
CTETRA      1385       1    8904    3641    3632    6249    5466    5153+
+           5467    1525    1522    2089
CTETRA      1386       1    3539    6121    6131    6132    1715    7803+
+           2199    1716    7805    7804
CTETRA      1387       1    3538    6122    6132    6133     553    7806+
+           2200    1718    7808    7807
CTETRA      1388       1    3633    6248    6258    6259    2086    8162+
+           2189    2092    8164    8163
CTETRA      1389       1    3634    6247    6257    6258    1638    8159+
+            892    1649    8161    8160
CTETRA      1390       1    8906    3624    8773    6237    5420    2201+
+           2202     804     806    8523
CTETRA      1391       1    8905    8773    8906    3624    2203    2202+
+           9020    5419    2201    5420
CTETRA      1392       1    8900    8768    8767    6282    1972    8894+
+           1967    1573    8477    8478
CTETRA      1393       1    3602    3612    3611    6219    5071    5070+
+           5069    2204    2205    2206
CTETRA      1394       1    3602    3603    3612    6208    5045    5072+
+           5071    2207    2208    2209
CTETRA      1395       1    3528    6112    3529    6122    2210    1997+
+           4839    2211    7778     551
CTETRA      1396       1    3603    6197    6207    6208    2212    8017+
+            916    2208    8019    8018
CTETRA      1397       1    3594    3603    6197    6207    5047    2212+
+           2213     923     916    8017
CTETRA      1398       1    3529    6111    6121    6122     561    7775+
+           2003     551    7777    7776
CTETRA      1399       1    3510    6091    6090    6101     181    7689+
+            178    2015    7719    7718
CTETRA      1400       1    3585    3595    3594    6196    5024    5023+
+           5022     926    2114     922
CTETRA      1401       1    3500    6081    6080    6091    1308    7661+
+            969     179    7691    7690
CTETRA      1402       1    3591    3592    3601    6200    5014    5041+
+           5040    2214    2215    1259
CTETRA      1403       1    3491    6070    6080    6081     195    7660+
+           1325    1735    7662    7661
CTETRA      1404       1    3490    6070    3491    6081     196     195+
+           4733     187    7662    1735
CTETRA      1405       1    3490    6070    6081    6082     196    7662+
+            187     189    7664    7663
CTETRA      1406       1    3591    3601    3600    6200    5040    5039+
+           5038    2214    1259    1256
CTETRA      1407       1    3591    6189    3592    6200    1668    1667+
+           5014    2214    7997    2215
CTETRA      1408       1    3461    6018    6029    6030      54    7514+
+            982     933    7516    7515
CTETRA      1409       1    3583    6188    3592    6189    1661     940+
+           5016    1666    7965    1667
CTETRA      1410       1    3460    6030    3469    6031     932    2017+
+           4675    2216    7519    2016
CTETRA      1411       1    3561    3571    3570    6181    4956    4955+
+           4954    1209     534    1285
CTETRA      1412       1    3111    5609    3112      18    2217    2218+
+           3700    2191    1486    2192
CTETRA      1413       1    3552    3553    3562    6159    4905    4932+
+           4931    2219    2220    2221
CTETRA      1414       1    3540    3541    3550    6130    4873    4900+
+           4899     547    1692    1292
CTETRA      1415       1    3440    6000    5999    6010    1593    7431+
+           2222    1342    7462    7461
CTETRA      1416       1    3449    6011    6021    6022    1776    7493+
+            219     228    7495    7494
CTETRA      1417       1    3542    6128    3551    6129    2223    2224+
+           4903    1028    7795    1029
CTETRA      1418       1    3531    3541    3540    6119    4874    4873+
+           4872     169    1691    1295
CTETRA      1419       1    3550    6130    6129    6140    1292    7798+
+           1697     620    7828    7827
CTETRA      1420       1    3431    5989    5988    6000     605    7400+
+            603    1592    7433    7432
CTETRA      1421       1    3422    5977    5988    5989     597    7399+
+            599     604    7401    7400
CTETRA      1422       1    3511    6089    3512    6099     571    2125+
+           4792    2126    7713     568
CTETRA      1423       1    3521    6109    3531    6120    1303     168+
+           4846    1294    7771     163
CTETRA      1424       1    3511    6089    6099    6100     571    7713+
+           2126     573    7715    7714
CTETRA      1425       1    3393    5948    5947    5959    2035    7285+
+            623     632    7318    7317
CTETRA      1426       1    3384    5936    5947    5948    1078    7284+
+           1079    2034    7286    7285
CTETRA      1427       1    3519    3529    3528    6112    4840    4839+
+           4838     978    1997    2210
CTETRA      1428       1    3528    6112    6122    6123    2210    7778+
+           2211    2225    7780    7779
CTETRA      1429       1    8936    8803    5896    5907    1102    8584+
+            650    1405    8583    7172
CTETRA      1430       1    3520    6100    3521    6110    2005    1709+
+           4817     966    7744     967
CTETRA      1431       1    3345    5895    5906    5907    2151    7169+
+           1087    1828    7171    7170
CTETRA      1432       1    3324    5855    5866    5867    1395    7055+
+           1928     676    7057    7056
CTETRA      1433       1    3510    6100    3520    6101    2226    2005+
+           4815    2015    7717    1994
CTETRA      1434       1    3501    3502    3511    6090    4764    4791+
+           4790     176     572     177
CTETRA      1435       1    8900    8767    8768    6303    1967    8894+
+           1972     476    8511    8512
CTETRA      1436       1    3492    3502    3501    6079    4765    4764+
+           4763    1726     170    1727
CTETRA      1437       1    3518    6102    3519    6113    2001     973+
+           4811     974    7752     975
CTETRA      1438       1    3323    5867    3332    5868     675     306+
+           4294     312    7059     305
CTETRA      1439       1    3332    5867    5878    5879     306    7089+
+           2227     307    7091    7090
CTETRA      1440       1    3322    5857    3323    5868    1315    1355+
+           4267     308    7061     312
CTETRA      1441       1    3500    3510    3509    6091    4787    4786+
+           4785     179     181    2000
CTETRA      1442       1    3286    5825    3295    5826    1298     692+
+           4191    1319    6941    2228
CTETRA      1443       1    3477    3478    3487    6053    4698    4725+
+           4724    2229    1755    1756
CTETRA      1444       1    3487    6053    6052    6063    1756    7581+
+           1754    1740    7611    7610
CTETRA      1445       1    3286    5814    5825    5826    2230    6940+
+           1298    1319    6942    6941
CTETRA      1446       1    3478    3479    3488    6052    4701    4728+
+           4727    1753    1353    1354
CTETRA      1447       1    3294    5826    3295    5837     320    2228+
+           4189     321    6974    1409
CTETRA      1448       1    3246    5774    3247    5785    1196    2231+
+           4055    2232    6828    1191
CTETRA      1449       1    3466    3467    3476    6044    4667    4694+
+           4693    2233    2234    2235
CTETRA      1450       1    3247    5773    5784    5785    1151    6825+
+           1153    1191    6827    6826
CTETRA      1451       1    3457    3467    3466    6034    4668    4667+
+           4666    2236    2237    2238
CTETRA      1452       1    3466    6034    3467    6044    2238    2237+
+           4667    2233    7558    2234
CTETRA      1453       1    3427    3437    3436    6004    4584    4583+
+           4582    2239    2240    2241
CTETRA      1454       1    3225    5745    3234    5746    1817    2242+
+           4022     718    6715     853
CTETRA      1455       1    3436    3437    3446    6015    4583    4610+
+           4609    2243    2244    2245
CTETRA      1456       1    3225    5734    3226    5745     717     161+
+           3998    1817    6714     761
CTETRA      1457       1    3226    5733    5744    5745     159    6711+
+            759     761    6713    6712
CTETRA      1458       1    3436    6004    3437    6015    2241    2240+
+           4583    2243    7476    2244
CTETRA      1459       1    3186    5694    3187    5705    1818    2036+
+           3889    1819    6602    1825
CTETRA      1460       1    3415    3416    3425    5975    4526    4553+
+           4552    2246    2247    2248
CTETRA      1461       1    3194    5706    3195    5717    1155    1351+
+           3911     273    6636     274
CTETRA      1462       1    8927    3425    8928    5985    5513    5514+
+           8998    2249    2250    1960
CTETRA      1463       1    3187    3188    3197    5703    3892    3919+
+           3918     679     680     746
CTETRA      1464       1    3157    5674    3166    5675     407    1003+
+           3832     408    6516     435
CTETRA      1465       1    3148    5653    5652    5664    1829    6454+
+            409    1830    6487    6486
CTETRA      1466       1    3425    5985    3434    5986    2250    2251+
+           4578    2252    7391    2253
CTETRA      1467       1    3149    5651    5662    5663     530    6481+
+            349     411    6483    6482
CTETRA      1468       1    3425    5975    5974    5986    2248    7360+
+           2254    2252    7393    7392
CTETRA      1469       1    3387    3397    3396    5943    4474    4473+
+           4472    1607    1609    2255
CTETRA      1470       1    3136    5634    3145    5635    1163    1165+
+           3775    1925    6402    1185
CTETRA      1471       1    3127    5613    5612    5624     405    6331+
+            960    1160    6373    6372
CTETRA      1472       1    3127    3128    3137    5623    3725    3753+
+           3752    1158    1166    2176
CTETRA      1473       1    3137    5623    5622    5634    2176    6368+
+           2173    2172    6401    6400
CTETRA      1474       1    3136    3137    3146    5634    3751    3778+
+           3777    1163    2172    1164
CTETRA      1475       1    3137    5611    5622    5623    2175    6367+
+           2173    2176    6369    6368
CTETRA      1476       1    3396    5943    5954    5955    2255    7303+
+            272    1051    7305    7304
CTETRA      1477       1    3386    5944    3395    5945    1047    1049+
+           4469    2256    7276    1067
CTETRA      1478       1    8955    5687    8823      15      33    8623+
+           1061    1841    1264    1845
CTETRA      1479       1    3395    5955    3404    5956    1050     614+
+           4494    2257    7307    2258
CTETRA      1480       1    8955    3173    8956    5677    5569    5570+
+           8970    1207    1241    1208
CTETRA      1481       1    3395    5945    5944    5956    1067    7276+
+           1049    2257    7309    7308
CTETRA      1482       1    8954    8955    3183    5698    8971    5322+
+           5321    1136      34    2259
CTETRA      1483       1    3374    3384    3383    5937    4437    4436+
+           4435    1804    2260    1780
CTETRA      1484       1    8954    8955    8822    5688    8971      32+
+           1135    1508    1062    8368
CTETRA      1485       1    8954    8822    8955    5698    1135      32+
+           8971    1136    8621      34
CTETRA      1486       1    3383    3384    3393    5948    4436    4463+
+           4462    1781    2034    2035
CTETRA      1487       1    8917    3515    8785    6095    5493    2261+
+           1201    2262    2263    8443
CTETRA      1488       1    8917    3524    3515    6095    5492    4828+
+           5493    2262      49    2263
CTETRA      1489       1    8937    3336    3345    5896    5355    4329+
+           5358     651     666     652
CTETRA      1490       1    8919    3498    3507    6094    5391    4779+
+           5394    1851    2264    1852
CTETRA      1491       1    3352    3353    3362    5898    4351    4378+
+           4377    1926    1927    2265
CTETRA      1492       1    8937    3344    5875    5886    5532    2055+
+           1167    1168    2056    7111
CTETRA      1493       1    3342    3343    3352    5888    4323    4350+
+           4349    2042    2043    1391
CTETRA      1494       1    3332    3342    3341    5878    4321    4320+
+           4319    2227    2266    2267
CTETRA      1495       1    8918    3516    8785    6105    5396    2268+
+           1128      45      47    8547
CTETRA      1496       1    8918    8786    8919    3507    1129    1056+
+           9007    5393    1850    5394
CTETRA      1497       1    3342    5877    5888    5889    2041    7117+
+           2042    2269    7119    7118
CTETRA      1498       1    8917    8918    8785    3515    9008    1128+
+           1201    5493    5494    2261
CTETRA      1499       1    3341    5879    5878    5890    2270    7090+
+           2267    2271    7123    7122
CTETRA      1500       1    3311    5849    3312    5860    1112    1111+
+           4236    2272    7039    1408
CTETRA      1501       1    8923    8924    3462    6039    9002    5384+
+           5383      63      59    2006
CTETRA      1502       1    8922    8789    8790    6050    1760    8872+
+           1864    1857    8556    8557
CTETRA      1503       1    3462    3463    3472    6049    4655    4682+
+           4681    1582    1586    1583
CTETRA      1504       1    8922    3479    3470    6040    5502    4703+
+           5503    1867    1771    2132
CTETRA      1505       1    3303    5838    5837    5849    2273    6975+
+           2044    2274    7008    7007
CTETRA      1506       1    8923    3470    3461    6029    5504    4678+
+           5505     981    1739     982
CTETRA      1507       1    8923    8790    6039    6050    1737    8558+
+             63    1858    8557    7575
CTETRA      1508       1    8960    8961    3129       2    8965    5310+
+           5309    1178      71    1634
CTETRA      1509       1    3128    3137    5611       3    3753    2175+
+           1383    1385    2174    1386
CTETRA      1510       1    3136    5623    3137    5634    1159    2176+
+           3751    1163    6401    2172
CTETRA      1511       1    3112    5609    5608      18    2218    6362+
+           2275    2192    1486    1485
CTETRA      1512       1    8959    8827    8960       8    1399     741+
+           8966     565     640     743
CTETRA      1513       1    8960    5622    8828    5633    1378    8356+
+           1177    1869    6398    8359
CTETRA      1514       1    3300    3301    3310    5851    4205    4232+
+           4231    2276    2277    2278
CTETRA      1515       1    3112    5608      21      18    2275    2279+
+           2280    2192    1485    2281
CTETRA      1516       1    3291    5829    3292    5840     858    1320+
+           4180    1861    6983    1321
CTETRA      1517       1    3667    3668    3677    6283    5226    5253+
+           5252      83    1877     901
CTETRA      1518       1    3659    6272    6271    6282     936    8198+
+            935    1519    8228    8227
CTETRA      1519       1    3658    6272    3668    6283    1974    2282+
+           5227    1581    8230    1877
CTETRA      1520       1    3112      21    3121      18    2280    2283+
+           3699    2192    2281    2193
CTETRA      1521       1    3656    6274    3666    6285      86    1585+
+           5221      87    8236    1602
CTETRA      1522       1    3301    5850    3310    5851    1107    2284+
+           4232    2277    7012    2278
CTETRA      1523       1    3301    3311    3310    5850    4234    4233+
+           4232    1107    1109    2284
CTETRA      1524       1    3648    3658    3657    6273    5199    5198+
+           5197    1238    1580     501
CTETRA      1525       1    3647    6263    3657    6274     284     500+
+           5196     313    8205     314
CTETRA      1526       1    3300    3310    3309    5851    4231    4230+
+           4229    2276    2278    2285
CTETRA      1527       1    3618    3628    3627    6233    5115    5114+
+           5113    1250     519    2286
CTETRA      1528       1    3132    5628    5629       1    2287    6386+
+           2288    2289      41      40
CTETRA      1529       1    8919    8786    8787    6094    1056    8875+
+           1055    1851    8549    8550
CTETRA      1530       1    3131    3132    5629       1    3736    2288+
+            785    2290    2289      40
CTETRA      1531       1    3300    5840    5851    5852    1863    7014+
+           2276    2102    7016    7015
CTETRA      1532       1    3626    6245    3636    6256     914    2188+
+           5137     915    8155    1687
CTETRA      1533       1    3500    6091    3509    6092     179    2000+
+           4785    1310    7692    1730
CTETRA      1534       1    3627    6234    6244    6245     497    8122+
+           2111     499    8124    8123
CTETRA      1535       1    3628    6233    6243    6244     519    8119+
+            521    2181    8121    8120
CTETRA      1536       1    8942    3290    8943    5820    5543    5544+
+           8983    2291     866     865
CTETRA      1537       1    3270    3280    3279    5800    4149    4148+
+           4147    2292    1114    1875
CTETRA      1538       1    8946    5776    8814    5787    1641    8384+
+           1640    1645    6832    8387
CTETRA      1539       1    3607    3608    3617    6224    5058    5085+
+           5084     165    1970     166
CTETRA      1540       1    3606    3616    3615    6236    5081    5080+
+           5079     800     802     801
CTETRA      1541       1    3607    6214    6224    6225    2160    8066+
+            165     795    8068    8067
CTETRA      1542       1    3584    3585    3594    6186    4995    5022+
+           5021     135     134    2293
CTETRA      1543       1    3269    3270    3279    5801    4120    4147+
+           4146    2294    2295    2296
CTETRA      1544       1    3585    3594    6186    6196    5022    2293+
+            134     926     922    7986
CTETRA      1545       1    3585    6175    6185    6186    2297    7955+
+            925     134    7957    7956
CTETRA      1546       1    8901    8902    3660    6292    9024    5428+
+           5427     482     483    1965
CTETRA      1547       1    3527    6113    3528    6124    2298     976+
+           4836     653    7783    2299
CTETRA      1548       1    3663    3664    3673    6288    5214    5241+
+           5240    2300    2301    2302
CTETRA      1549       1    3122    3132    3131       1    3737    3736+
+           3735    2303    2289    2290
CTETRA      1550       1    3575    6175    3585    6186     129    2297+
+           4996     130    7957     134
CTETRA      1551       1    3270    5800    3279    5801    2292    1875+
+           4147    2295    6870    2296
CTETRA      1552       1    3548    3549    3558    6142    4895    4922+
+           4921    2304    2305    2306
CTETRA      1553       1    3252    5778    3261    5779     198    2162+
+           4097    1886    6808     337
CTETRA      1554       1    3626    3636    3635    6256    5137    5136+
+           5135     915    1687    2187
CTETRA      1555       1    3239    3240    3249    5772    4036    4063+
+           4062    1892    2307    2308
CTETRA      1556       1    3249    5771    3250    5782     175     174+
+           4064    1427    6819    1882
CTETRA      1557       1    3259    5782    5781    5793    1883    6817+
+           1881    2309    6850    6849
CTETRA      1558       1    3249    3259    3258    5782    4090    4089+
+           4088    1427    1883    1415
CTETRA      1559       1    3564    3574    3573    6167    4965    4964+
+           4963     140     150     141
CTETRA      1560       1    3259    5792    3268    5793    2310    2076+
+           4116    2309    6848    2071
CTETRA      1561       1    3122    3123    3132       1    3705    3738+
+           3737    2303    2311    2289
CTETRA      1562       1    3259    5780    5791    5792     342    6844+
+           1119    2310    6846    6845
CTETRA      1563       1    3479    6041    6040    6051    1747    7546+
+           1771     218    7577    7576
CTETRA      1564       1    3239    5761    3240    5772    1891     355+
+           4036    1892    6791    2307
CTETRA      1565       1    3220    5741    5740    5752     536    6702+
+           2312     540    6735    6734
CTETRA      1566       1    3220    5740    3221    5751    2312    2313+
+           3983    2314    6732    2315
CTETRA      1567       1    8915    3542    3533    6117    5488    4878+
+           5489    2156     155     154
CTETRA      1568       1    3399    5961    3400    5972    2316    2317+
+           4480    1911    7355    1917
CTETRA      1569       1    3229    3239    3238    5762    4034    4033+
+           4032     729    1139    1432
CTETRA      1570       1    3228    3229    3238    5763    4005    4032+
+           4031     719     725    1431
CTETRA      1571       1    3123    5628    3132       1    2318    2287+
+           3738    2311      41    2289
CTETRA      1572       1    3319    5872    3328    5873    2319    2048+
+           4282    2320    7074    2046
CTETRA      1573       1    3306    3307    3316    5844    4223    4250+
+           4249     682    2061    2321
CTETRA      1574       1    3207    5712    3208    5723     377     371+
+           3948     737    6652     739
CTETRA      1575       1    3216    3217    3226    5734    3973    4000+
+           3999    2322     160     161
CTETRA      1576       1    3297    5822    3298    5833    2323    2324+
+           4198    2325    6962    2326
CTETRA      1577       1    3132    5628    5639      20    2287    6416+
+           2327    2328    2127    2129
CTETRA      1578       1    3216    5723    3217    5734     688     740+
+           3973    2322    6683     160
CTETRA      1579       1    3218    5722    5721    5733     247    6647+
+           2329    2330    6680    6679
CTETRA      1580       1    3217    5722    3218    5733     744     247+
+           3976     158    6680    2330
CTETRA      1581       1    3179    5691    3188    5692     484    1005+
+           3894     636    6563     678
CTETRA      1582       1    3574    6166    3575    6176     149    1887+
+           4967     143    7930     128
CTETRA      1583       1    3565    6165    3575    6166    2331    2332+
+           4968     148    7900    1887
CTETRA      1584       1    3205    5726    3214    5727    1478    1481+
+           3966    1479    6662    1480
CTETRA      1585       1    3169    5682    3178    5683     765     769+
+           3866     391    6538     392
CTETRA      1586       1    3253    5766    3254    5777     734    2057+
+           4076     735    6804    2059
CTETRA      1587       1    3132    5629    5628      20    2288    6386+
+           2287    2328    2333    2127
CTETRA      1588       1    3186    3187    3196    5705    3889    3916+
+           3915    1819    1825    1826
CTETRA      1589       1    8959    8826    8827    5643    1169    8835+
+           1399     564    8630    8631
CTETRA      1590       1    3195    5705    3196    5716    1352    1826+
+           3914    2334    6633    1467
CTETRA      1591       1    3175    3176    3185    5696    3858    3885+
+           3884    1488     395    2335
CTETRA      1592       1    3116    3126    3125    5614    3718    3717+
+           3715     417     419    1364
CTETRA      1593       1    5608    5620    5619      21    6360    6359+
+           6357    2279    2336    2337
CTETRA      1594       1    3124    5616    5615    5627    2338    6343+
+             91      90    6382    6381
CTETRA      1595       1    3144    3145    3154    5646    3773    3800+
+           3799    2339    1831    1493
CTETRA      1596       1    8960    3129    5632       2    5309     441+
+            742    1178    1634    1620
CTETRA      1597       1    3544    6147    3553    6148    2340    2118+
+           4907     999    7850    2341
CTETRA      1598       1    3120    5620    3121    5631     398     397+
+           3697     438    6394     442
CTETRA      1599       1    3544    6136    3545    6147    2342    2343+
+           4883    2340    7848    2116
CTETRA      1600       1    3135       6    5636       7    1366     186+
+           1176    1367     458    1897
CTETRA      1601       1    8960    8828    8827    5633    1177    8834+
+            741    1869    8359    8358
CTETRA      1602       1    3115    3116    3125    5615    3716    3715+
+           3714    2344     877    2345
CTETRA      1603       1    3270    5789    3271    5800    2346    2165+
+           4123    2292    6869    1113
CTETRA      1604       1    3115    3125    3124    5615    3714    3713+
+           3711    2344    2345      91
CTETRA      1605       1    3125    5615    5626       4    2345    6379+
+           1939    2347      94    1937
CTETRA      1606       1    8730    5608    3112    5609    1941    2275+
+           5597    2348    6362    2218
CTETRA      1607       1    3111    5620    5609      18     396    6361+
+           2217    2191    1487    1486
CTETRA      1608       1    3122    5618    3131    5630    2349    2350+
+           3735    2351    6390     784
CTETRA      1609       1    3134    3135    3144    5636    3745    3772+
+           3771    1174    1176     183
CTETRA      1610       1    3182    5688    3191    5689    2352    1865+
+           3903    2353    6554    1765
CTETRA      1611       1    3151    5649    5648    5660    1477    6442+
+           2354    1473    6475    6474
CTETRA      1612       1    3175    5686    5685    5697    2355    6547+
+            779    1489    6580    6579
CTETRA      1613       1    3131    5630    5629    5641     784    6389+
+            785     103    6422    6421
CTETRA      1614       1    3135    3145    3144       6    3774    3773+
+           3772    1366    1186     184
CTETRA      1615       1    3113    5607    5618    5619    1943    6353+
+           2356    1944    6356    6355
CTETRA      1616       1    3121    3122    5619      21    3701    2357+
+           2358    2283    2359    2337
CTETRA      1617       1    3246    5785    3255    5786    2232    2360+
+           4079    1197    6829    2361
CTETRA      1618       1    8949    8817    8950      12    2362    2363+
+           8976    2364    1434     884
CTETRA      1619       1    8910    3587    6172    6183    5478     558+
+           2365    1561     509    7948
CTETRA      1620       1    8909    8777    8776    6183    1560    8885+
+           2366    1558    8459    8460
CTETRA      1621       1    8909    8777    3588    6204    1560    2367+
+           5411     789    8530     790
CTETRA      1622       1    3116    5614    3125    5615     417    1364+
+           3715     877    6339    2345
CTETRA      1623       1    3142    5637    5648    5649    2368    6441+
+           2369    2370    6443    6442
CTETRA      1624       1    3561    6170    3571    6181    1199     532+
+           4956    1209    7944     534
CTETRA      1625       1    3552    6159    3562    6170    2219    2221+
+           4931    2371    7913    2372
CTETRA      1626       1    8909    8776    8777    6204    2366    8885+
+           1560     789    8529    8530
CTETRA      1627       1    8914    3543    3552    6149    5401    4904+
+           5404    2373    2374    2375
CTETRA      1628       1    3543    6138    6148    6149     822    7852+
+            823    2374    7854    7853
CTETRA      1629       1    8685    8704    8705    6320    3106    8720+
+           3098    2376    8494    8495
CTETRA      1630       1    3117    3127    3126    5613    3722    3721+
+           3719     403     405     453
CTETRA      1631       1    8952    8819    8820    5720     824    8842+
+           2134     825    8616    8617
CTETRA      1632       1    3160    5670    3169    5671    2377     763+
+           3841     399    6504     400
CTETRA      1633       1    3141    3151    3150    5650    3790    3789+
+           3788    2378    2379     522
CTETRA      1634       1    3532    6108    6107    6118    1699    7736+
+           2154    1694    7766    7765
CTETRA      1635       1    8779    6171    3570    6182    8535    2380+
+           2381    8534    7947    1203
CTETRA      1636       1    8778    3578    6161    6172    2382     870+
+           8456    8457     557    7917
CTETRA      1637       1    3230    5761    3239    5762    2082    1891+
+           4035    1138    6761    1139
CTETRA      1638       1    5608    5620      21      18    6360    2336+
+           2279    1485    1487    2281
CTETRA      1639       1    3319    3329    3328    5872    4284    4283+
+           4282    2319    2383    2048
CTETRA      1640       1    8828    8829    5622       3    8833    8357+
+           8356      76      75    1380
CTETRA      1641       1    3187    5693    5692    5704    1827    6566+
+            677    1823    6599    6598
CTETRA      1642       1    8948    8816    8815    5765    1188    8846+
+           1187    2384    8383    8382
CTETRA      1643       1    8948    8816    8949    5764    1188    2385+
+           8977    1189    8609    2386
CTETRA      1644       1    3206    5713    3207    5724     752     379+
+           3945    2064    6655     738
CTETRA      1645       1    8706    3690    6321    6322    1216    2387+
+           8497    8498     348    8340
CTETRA      1646       1    3510    6101    3519    6102    2015     977+
+           4813     972    7720     973
CTETRA      1647       1    8948    3237    3246    5775    5333    4054+
+           5336    2388    1194    1195
CTETRA      1648       1    3232    5747    5758    5759    1335    6751+
+           1336    2389    6753    6752
CTETRA      1649       1    3660    3661    3670    6291    5205    5232+
+           5231    1961    2390    1962
CTETRA      1650       1    3670    6302    6301    6312    1218    8284+
+           1533    1535    8314    8313
CTETRA      1651       1    3221    5740    5739    5751    2313    6699+
+            356    2315    6732    6731
CTETRA      1652       1    3659    3668    6272    6282    5228    2282+
+            936    1519    1574    8228
CTETRA      1653       1    8899    8766    6314    6325    1148    8509+
+           1150    1070    8508    8350
CTETRA      1654       1    3513    6097    3522    6098    1578    2391+
+           4822    2392    7708    2393
CTETRA      1655       1    3293    5838    3302    5839    2394    2395+
+           4210     316    6978     317
CTETRA      1656       1    3260    3270    3269    5790    4121    4120+
+           4119     338    2396    1134
CTETRA      1657       1    3342    3352    3351    5888    4349    4348+
+           4347    2042    1391    2039
CTETRA      1658       1    3532    6107    3533    6118    2154    2153+
+           4851    1694    7765     156
CTETRA      1659       1    3651    6270    6280    6281    1265    8224+
+           2397     757    8226    8225
CTETRA      1660       1    3651    6281    6280    6291     757    8225+
+           2397    2398    8255    8254
CTETRA      1661       1    8923    3462    3471    6050    5383    4679+
+           5386    1858    2007    1859
CTETRA      1662       1    3349    3359    3358    5901    4368    4367+
+           4366    2399    2400    2401
CTETRA      1663       1    3630    6241    6240    6251    2402    8111+
+           2403    2404    8141    8140
CTETRA      1664       1    3391    5949    3392    5960    1788     617+
+           4458    1789    7321     619
CTETRA      1665       1    3675    3685    3684    6306    5274    5273+
+           5272    2405    2406    1948
CTETRA      1666       1    3630    6230    6240    6241    2407    8110+
+           2403    2402    8112    8111
CTETRA      1667       1    3619    6221    3620    6231     503    2408+
+           5092     504    8085    1977
CTETRA      1668       1    3447    6014    6013    6025    1019    7471+
+            238    1773    7504    7503
CTETRA      1669       1    3353    5897    3362    5898    1426    1425+
+           4378    1927    7143    2265
CTETRA      1670       1    3371    5908    5919    5920    2148    7204+
+           2150    1797    7206    7205
CTETRA      1671       1    3393    3394    3403    5958    4464    4491+
+           4490     625     626    2409
CTETRA      1672       1    3315    5844    3316    5855    1842    2321+
+           4248    1843    7024    1849
CTETRA      1673       1    3620    3629    6231    6241    5119    2410+
+           1977    2411    1614    8113
CTETRA      1674       1    8935    8803    8802    5908    1388    8859+
+           2412    1389    8409    8408
CTETRA      1675       1    3629    6241    3639    6252    1614    1223+
+           5146    1615    8143    1225
CTETRA      1676       1    3493    6077    3503    6078    2413    2414+
+           4768    2415    7652    2416
CTETRA      1677       1    3655    6266    6265    6276     882    8182+
+           1963    1232    8212    8211
CTETRA      1678       1    3530    3539    6121    6131    4869    1715+
+           2004    2417    2199    7803
CTETRA      1679       1    3182    5677    5678      16    2418    6523+
+           2419    2420    1244    2421
CTETRA      1680       1    3619    6222    6221    6232    1249    8058+
+            503     505    8088    8087
CTETRA      1681       1    3462    6038    3463    6049    2008    2422+
+           4655    1582    7572    1586
CTETRA      1682       1    3601    6199    6209    6210    2423    8023+
+           2424    1260    8025    8024
CTETRA      1683       1    3610    6221    3619    6222    1247     503+
+           5091    2425    8058    1249
CTETRA      1684       1    3530    6110    6120    6121     968    7772+
+            162    2004    7774    7773
CTETRA      1685       1    3582    6189    3591    6190    1665    1668+
+           5013    2426    7968    2427
CTETRA      1686       1    3501    6079    3502    6090    1727     170+
+           4764     176    7687     572
CTETRA      1687       1    3538    6132    3548    6133    2200    2428+
+           4893    1718    7807    1723
CTETRA      1688       1    3599    3600    3609    6212    5036    5063+
+           5062    2429     514     515
CTETRA      1689       1    3502    6088    3512    6089     963     965+
+           4793     172    7683    2125
CTETRA      1690       1    3600    6200    3601    6211    1256    1259+
+           5039     512    8028    1261
CTETRA      1691       1    3608    6213    6212    6223    1969    8033+
+           2430     516    8063    8062
CTETRA      1692       1    3274    5806    3275    5817    2431     323+
+           4133      80    6918      81
CTETRA      1693       1    3502    6078    3503    6088     171    2416+
+           4767     963    7682     964
CTETRA      1694       1    3360    3370    3369    5910    4399    4398+
+           4397    1299    1305    1300
CTETRA      1695       1    3469    6030    3470    6041    2017     934+
+           4676    2018    7548    2133
CTETRA      1696       1    8924    8792    8791    6029      64    8870+
+             62      65    8431    8430
CTETRA      1697       1    3553    3562    6159    6169    4932    2221+
+           2220     944     946    7911
CTETRA      1698       1    8926    8793    6006    6017    1357    8564+
+           2432    1550    8563    7482
CTETRA      1699       1    3458    6022    6032    6033     229    7524+
+            996    1749    7526    7525
CTETRA      1700       1    3547    6143    3557    6144    1724    1980+
+           4918    1983    7838    1339
CTETRA      1701       1    3549    3558    6142    6152    4922    2306+
+           2305    2433    2434    7862
CTETRA      1702       1    3570    3571    3580    6181    4955    4982+
+           4981    1285     534    1277
CTETRA      1703       1    3451    6019    3460    6020     591     984+
+           4650     592    7487    1012
CTETRA      1704       1    3570    3580    3579    6192    4981    4980+
+           4979    1204     524    1205
CTETRA      1705       1    3469    6031    6041    6042    2016    7549+
+           2018    2435    7551    7550
CTETRA      1706       1    3549    6130    3550    6141     548    1292+
+           4898    2436    7830    1293
CTETRA      1707       1    3491    6080    3500    6081    1325     969+
+           4760    1735    7661    1308
CTETRA      1708       1    3460    3470    3469    6030    4677    4676+
+           4675     932     934    2017
CTETRA      1709       1    3528    6122    3538    6123    2211     553+
+           4865    2225    7779    1717
CTETRA      1710       1    3172    3182    3181    5678    3877    3876+
+           3875    2437    2419     910
CTETRA      1711       1    3540    3550    3549    6130    4899    4898+
+           4897     547    1292     548
CTETRA      1712       1    3539    3549    3548    6142    4896    4895+
+           4894    2438    2305    2304
CTETRA      1713       1    3558    6152    3568    6163    2434    1996+
+           4949    2197    7892     545
CTETRA      1714       1    3503    6077    6087    6088    2414    7679+
+           1570     964    7681    7680
CTETRA      1715       1    3482    6058    3483    6069     580    2023+
+           4711     577    7628     578
CTETRA      1716       1    3483    6058    6068    6069    2023    7626+
+           1894     578    7628    7627
CTETRA      1717       1    3630    3631    3640    6240    5123    5150+
+           5149    2403    2439    2440
CTETRA      1718       1    3517    6104    6103    6114    2441    7726+
+           2442    2443    7756    7755
CTETRA      1719       1    3503    6078    6077    6088    2416    7652+
+           2414     964    7682    7681
CTETRA      1720       1    3448    6012    3449    6022     232     231+
+           4617     227    7496     228
CTETRA      1721       1    3450    6020    3459    6021    1903    2009+
+           4647     220    7491     221
CTETRA      1722       1    3574    3584    3583    6177    4993    4992+
+           4991     145     146    1676
CTETRA      1723       1    3548    6142    3558    6153    2304    2306+
+           4921    2444    7864    2196
CTETRA      1724       1    3539    3548    6132    6142    4894    2428+
+           1716    2438    2304    7834
CTETRA      1725       1    3586    6174    6173    6184    2445    7922+
+            562     961    7952    7951
CTETRA      1726       1    3585    3586    3595    6185    4998    5025+
+           5024     925    1708    1973
CTETRA      1727       1    3576    3577    3586    6174    4973    5000+
+           4999    1711    2194    2445
CTETRA      1728       1    3446    6014    6025    6026    1763    7504+
+           1772    2446    7506    7505
CTETRA      1729       1    3454    6026    3455    6037    1327    2447+
+           4633    2448    7538    2449
CTETRA      1730       1    3557    6144    6143    6154    1339    7838+
+           1980    1341    7868    7867
CTETRA      1731       1    3537    6134    3546    6135    1721    2450+
+           4888    2451    7813     990
CTETRA      1732       1    3519    6112    3528    6113     978    2210+
+           4838     975    7751     976
CTETRA      1733       1    3454    6026    6037    6038    1327    7538+
+           2448    1328    7540    7539
CTETRA      1734       1    3425    5974    5985    5986    2254    7390+
+           2250    2252    7392    7391
CTETRA      1735       1    3433    5987    5986    5998    2452    7394+
+           2453    2454    7427    7426
CTETRA      1736       1    3431    5999    3440    6000    2103    2222+
+           4594    1592    7431    1593
CTETRA      1737       1    3433    5986    5997    5998    2453    7424+
+           2455    2454    7426    7425
CTETRA      1738       1    3685    6306    6305    6316    2406    8294+
+            422    2456    8324    8323
CTETRA      1739       1    3432    5987    5998    5999    2110    7427+
+           2457    2108    7429    7428
CTETRA      1740       1    3385    5946    3394    5947    1076    1077+
+           4466    1080    7282     624
CTETRA      1741       1    3384    3385    3394    5947    4439    4466+
+           4465    1079    1080     624
CTETRA      1742       1    8898    9029    3695    6315    9028    5453+
+           5454    2458    2459    2460
CTETRA      1743       1    3624    6237    6247    6248     806    8131+
+           1636    2085    8133    8132
CTETRA      1744       1    8912    8780    3561    6171    1991    1993+
+           5405    2461    8536    1200
CTETRA      1745       1    3440    6010    3449    6011    1342     225+
+           4619    1775    7463    1776
CTETRA      1746       1    8908    8776    8909    3597    2462    2366+
+           9017    5413    2463    5414
CTETRA      1747       1    3373    3383    3382    5938    4434    4433+
+           4432    2464    2465    1785
CTETRA      1748       1    3348    5892    5903    5904    2466    7160+
+           2467    2468    7162    7161
CTETRA      1749       1    3344    5886    3353    5887    2056    1704+
+           4353    1947    7112    1449
CTETRA      1750       1    3355    3365    3364    5916    4384    4383+
+           4382     648     292     645
CTETRA      1751       1    3575    3576    3585    6175    4970    4997+
+           4996     129    1710    2297
CTETRA      1752       1    3449    3459    3458    6021    4646    4645+
+           4644     219     221    2024
CTETRA      1753       1    3441    3451    3450    6009    4624    4623+
+           4622     223    1334    1902
CTETRA      1754       1    3327    5874    5873    5885    1430    7077+
+            667     669    7110    7109
CTETRA      1755       1    3566    6154    6164    6165    1978    7896+
+           1402    1401    7898    7897
CTETRA      1756       1    3409    3410    3419    5982    4508    4535+
+           4534    1909     252     253
CTETRA      1757       1    3639    3648    6252    6262    5172     494+
+           1225    2469     495    8172
CTETRA      1758       1    3666    3667    3676    6284    5223    5250+
+           5249      79      78     490
CTETRA      1759       1    3337    5883    5894    5895    2470    7135+
+           1375    1838    7137    7136
CTETRA      1760       1    8687    3689    8707    6323    5440     898+
+           3089     191     193    8500
CTETRA      1761       1    8898    8710    8765    6325    1516    8506+
+           1227    1069    8505    8507
CTETRA      1762       1    3663    3672    6289    6299    5238    2471+
+           2472    2473    2474    8277
CTETRA      1763       1    3152    5647    3153    5658    2475    2476+
+           3795    2477    6469    2478
CTETRA      1764       1    8940    3317    5842    5853    5538    2479+
+           1527    1236    1276    7018
CTETRA      1765       1    8940    5842    8808    5853    1527    8396+
+           1234    1236    7018    8399
CTETRA      1766       1    3309    5851    5862    5863    2285    7045+
+           2480    1526    7047    7046
CTETRA      1767       1    8911    8779    8912    3570    1211    2481+
+           9014    5407    2381    5408
CTETRA      1768       1    3316    5844    5843    5855    2321    6991+
+           2482    1849    7024    7023
CTETRA      1769       1    3190    3199    5689      19    3925    2483+
+           1764    1766    2484    1767
CTETRA      1770       1    3245    5754    5765    5766     731    6770+
+           2485    2054    6772    6771
CTETRA      1771       1    3342    5888    3351    5889    2042    2039+
+           4347    2269    7118    1455
CTETRA      1772       1    3287    5812    3288    5823    1406    2486+
+           4170    1407    6934    2487
CTETRA      1773       1    3200    5700    5699    5711    1743    6585+
+           1510    2488    6618    6617
CTETRA      1774       1    3269    3279    3278    5801    4146    4145+
+           4144    2294    2296    2489
CTETRA      1775       1    3136    5623    5634    5635    1159    6401+
+           1163    1925    6403    6402
CTETRA      1776       1    3287    5823    3296    5824    1407    2490+
+           4194    1397    6935    2491
CTETRA      1777       1    3288    5811    5822    5823    2492    6931+
+           2493    2487    6933    6932
CTETRA      1778       1    3599    6202    6212    6213    2494    8032+
+           2429    2495    8034    8033
CTETRA      1779       1    3276    5815    3285    5816    2496    1316+
+           4163     704    6913    1271
CTETRA      1780       1    3203    3204    3213    5728    3936    3963+
+           3962    2497    2498    2499
CTETRA      1781       1    3277    5814    3286    5815    2500    2230+
+           4166     697    6910    1317
CTETRA      1782       1    8941    8809    8808    5842    2100    8853+
+           1531    1529    8397    8396
CTETRA      1783       1    3176    5695    3185    5696    1145    1147+
+           3885     395    6575    2335
CTETRA      1784       1    3232    5749    5748    5760    1652    6724+
+           2501    2502    6757    6756
CTETRA      1785       1    3257    5783    3258    5794     714    1414+
+           4086    2079    6853    1416
CTETRA      1786       1    3269    5790    5801    5802    1134    6872+
+           2294    2503    6874    6873
CTETRA      1787       1    3249    5772    5771    5783    2308    6789+
+            175    1428    6822    6821
CTETRA      1788       1    3418    5982    3419    5993    2504     253+
+           4533     256    7414     255
CTETRA      1789       1    3249    5782    3258    5783    1427    1415+
+           4088    1428    6820    1414
CTETRA      1790       1    3304    5836    5835    5847    1412    6969+
+           2050    1459    7002    7001
CTETRA      1791       1    3237    5763    3238    5774     720    1431+
+           4030    1193    6797    1433
CTETRA      1792       1    3418    3419    3428    5993    4533    4560+
+           4559     256     255     257
CTETRA      1793       1    3267    5794    5793    5805     699    6851+
+           2070     701    6884    6883
CTETRA      1794       1    3607    6225    6224    6235     795    8067+
+            165     167    8097    8096
CTETRA      1795       1    3219    5741    5752    5753     537    6735+
+            539    2101    6737    6736
CTETRA      1796       1    8935    8802    5907    5918    2412    8582+
+           1404     638    8581    7203
CTETRA      1797       1    3211    5729    3212    5740    2505    2506+
+           3958    2507    6701    2508
CTETRA      1798       1    3343    5876    3344    5887     300    2509+
+           4326    1448    7114    1947
CTETRA      1799       1    3235    5744    5755    5756     760    6742+
+           2510    2511    6744    6743
CTETRA      1800       1    3419    3420    3429    5992    4536    4563+
+           4562     254    2512    1286
CTETRA      1801       1    3580    3589    6192    6202    5007    2513+
+            524     526    1984    8004
CTETRA      1802       1    3226    5734    5733    5745     161    6681+
+            159     761    6714    6713
CTETRA      1803       1    3234    5756    3243    5757    2514    1023+
+           4047     855    6746    1022
CTETRA      1804       1    3380    5919    5930    5931    2515    7235+
+           2516    2517    7237    7236
CTETRA      1805       1    3226    5733    3227    5744     159     753+
+           4001     759    6711     755
CTETRA      1806       1    3428    5993    5992    6004     257    7412+
+           2135    2518    7445    7444
CTETRA      1807       1    3190    5689    3199    5701    1764    2483+
+           3925     152    6589     153
CTETRA      1808       1    8934    8802    8935    5918    1822    2412+
+           8991     637    8581     638
CTETRA      1809       1    3590    6201    3599    6202     528    2519+
+           5035     529    8002    2494
CTETRA      1810       1    3196    3197    3206    5714    3917    3944+
+           3943    1904     747     751
CTETRA      1811       1    3381    5950    3390    5951    2520    2521+
+           4454    2522    7294    2523
CTETRA      1812       1    3499    3509    3508    6092    4784    4783+
+           4782    1309    1730    1729
CTETRA      1813       1    3378    5932    3387    5933    1604    1606+
+           4447    2524    7242    2142
CTETRA      1814       1    3445    6016    6015    6027    2525    7477+
+           1329    1331    7510    7509
CTETRA      1815       1    3150    5650    3151    5661     522    2379+
+           3789     523    6478    1475
CTETRA      1816       1    3160    5660    5671    5672    1474    6506+
+            399     401    6508    6507
CTETRA      1817       1    3413    3423    3422    5977    4546    4545+
+           4544    2032     598     597
CTETRA      1818       1    3414    3424    3423    5976    4549    4548+
+           4547    2526    2527     601
CTETRA      1819       1    3609    6212    6211    6222     515    8030+
+            513    2528    8060    8059
CTETRA      1820       1    3151    5648    5659    5660    2354    6472+
+           2529    1473    6474    6473
CTETRA      1821       1    3130    5631    5630    5642     443    6392+
+            412     413    6425    6424
CTETRA      1822       1    3430    6000    3440    6001    1591    1593+
+           4593    1589    7434    1590
CTETRA      1823       1    3149    3159    3158    5662    3812    3811+
+           3810     349     351     475
CTETRA      1824       1    3121    5619    5630    5631    2358    6391+
+           2530     442    6393    6392
CTETRA      1825       1    3628    6232    6242    6243     520    8116+
+            775     521    8118    8117
CTETRA      1826       1    3448    6022    3458    6023     227     229+
+           4643    1759    7497    1758
CTETRA      1827       1    3113    5618    3122    5619    2356    2349+
+           3703    1944    6355    2357
CTETRA      1828       1    3464    6036    3465    6047    2531    2532+
+           4661    2533    7566    2534
CTETRA      1829       1    8961    3119    8962    5611    5581    5582+
+           8964    1384    1490    1500
CTETRA      1830       1    3453    3454    3463    6038    4630    4657+
+           4656    2535    1328    2422
CTETRA      1831       1    3111    5609    5620    5621    2217    6361+
+            396    1552    6364    6363
CTETRA      1832       1    8731    3112    3111    5609    5599    3700+
+           5306    2536    2218    2217
CTETRA      1833       1    3473    6047    6058    6059    2019    7597+
+           2021    2178    7599    7598
CTETRA      1834       1    3468    6032    6042    6043     993    7552+
+           1007     987    7554    7553
CTETRA      1835       1    8962    8830    9031      13    1492    1491+
+           8963     906     889     907
CTETRA      1836       1    3627    6244    3636    6245    2111    2112+
+           5138     499    8123    2188
CTETRA      1837       1    8962    8723    9031    5600    5584    8733+
+           8963    1417     788     787
CTETRA      1838       1    8952    3209    3200    5710    5562    3953+
+           5563    1504    1901    1505
CTETRA      1839       1    8951    8819    8952      10    2537     824+
+           8974    1438     827     826
CTETRA      1840       1    8952    8953    3201    5720    8973    5326+
+           5325     825    1507    1437
CTETRA      1841       1    3377    5933    3386    5934    2538    2141+
+           4444    2539    7245    1792
CTETRA      1842       1    8951    3209    8952    5721    5561    5562+
+           8974    2540    2104    2541
CTETRA      1843       1    8915    3542    6117    6128    5488     155+
+           2156    2542    2223    7793
CTETRA      1844       1    8783    6127    3534    6138    8543    1512+
+           1424    8542    7823     233
CTETRA      1845       1    3368    5922    3377    5923    2543    2544+
+           4419    2545    7214    1918
CTETRA      1846       1    8915    8783    3534    6138    1422    1424+
+           5399    2546    8542     233
CTETRA      1847       1    8915    3534    3543    6138    5399    4879+
+           5402    2546     233     822
CTETRA      1848       1    3172    3182    5678      16    3877    2419+
+           2437    2547    2420    2421
CTETRA      1849       1    8700    3695    6315    6316    2548    2460+
+           8485    8486    2549    8322
CTETRA      1850       1    3611    6209    6219    6220    2550    8051+
+           2206    2551    8053    8052
CTETRA      1851       1    3377    5922    5933    5934    2544    7244+
+           2538    2539    7246    7245
CTETRA      1852       1    8773    6237    3624    6248    8523     806+
+           2201    8522    8133    2085
CTETRA      1853       1    3592    6199    3601    6200     930    2423+
+           5041    2215    7996    1259
CTETRA      1854       1    9029    8700    3695    6315    3101    2548+
+           5453    2459    8485    2460
CTETRA      1855       1    8926    6006    3435    6017    2432    2552+
+           5377    1550    7482    2553
CTETRA      1856       1    3528    6113    6123    6124     976    7781+
+           2225    2299    7783    7782
CTETRA      1857       1    3620    6231    6230    6241    1977    8083+
+           1976    2411    8113    8112
CTETRA      1858       1    8926    8794    8927    6006    1356    2554+
+           8999    2432    8565    2555
CTETRA      1859       1    3643    6268    3653    6279    2556    2557+
+           5184    2558    8220    2559
CTETRA      1860       1    8925    8793    8926    6017    1551    1357+
+           9000    1547    8563    1550
CTETRA      1861       1    8900    3668    6282    6293    5459    1574+
+           1573     487     489    8258
CTETRA      1862       1    8926    5996    8794    6007    2560    8424+
+           1356    1358    7452    8427
CTETRA      1863       1    8681    8701    8682    3694    3103    3104+
+           8696    5451     895    5450
CTETRA      1864       1    8898    8689    8710    6325    5435    3092+
+           1516    1069     474    8505
CTETRA      1865       1    3695    6305    6315    6316    2561    8321+
+           2460    2549    8323    8322
CTETRA      1866       1    3658    6273    6272    6283    1580    8201+
+           1974    1581    8231    8230
CTETRA      1867       1    3655    3664    6276    6286    5216    2562+
+           1232    1233    1626    8240
CTETRA      1868       1    3653    3654    3663    6278    5186    5213+
+           5212    2563    2564    2565
CTETRA      1869       1    3367    5924    3376    5925    1802    1803+
+           4416    1920    7220     277
CTETRA      1870       1    3653    6278    3663    6289    2563    2565+
+           5212    2566    8248    2472
CTETRA      1871       1    3648    3657    6263    6273    5197     500+
+            283    1238     501    8203
CTETRA      1872       1    3647    6264    6263    6274    1230    8176+
+            284     313    8206    8205
CTETRA      1873       1    3664    3665    3674    6286    5217    5244+
+           5243    1626    1625    1681
CTETRA      1874       1    3365    5915    3366    5926     290    1808+
+           4386     285    7225     635
CTETRA      1875       1    3573    6168    6178    6179     137    7936+
+           1669     139    7938    7937
CTETRA      1876       1    8685    3691    6320    6321    5444    2567+
+           2376    2568    2569    8337
CTETRA      1877       1    3365    3366    3375    5926    4386    4413+
+           4412     285     635    1800
CTETRA      1878       1    3618    6223    6233    6234     518    8091+
+           1250    1885    8093    8092
CTETRA      1879       1    3626    6235    6245    6246      96    8125+
+            914      98    8127    8126
CTETRA      1880       1    3644    6267    3654    6278    2183    2185+
+           5187    2570    8217    2564
CTETRA      1881       1    3644    3654    3653    6278    5187    5186+
+           5185    2570    2564    2563
CTETRA      1882       1    3172    5678    5667      16    2437    6525+
+           2571    2547    2421    2572
CTETRA      1883       1    8906    8774    3615    6237     831     816+
+           5417     804    8524     805
CTETRA      1884       1    3615    6237    6236    6247     805    8101+
+            801    1650    8131    8130
CTETRA      1885       1    3622    3623    3632    6228    5101    5128+
+           5127     114     113    2573
CTETRA      1886       1    5678    5690    5689      22    6558    6557+
+           6556    2574    2575    2576
CTETRA      1887       1    3613    6217    3623    6228     109     111+
+           5102     112    8075     113
CTETRA      1888       1    8775    6215    3606    6226    8527    2166+
+           2171    8526    8071     799
CTETRA      1889       1    3611    3621    3620    6230    5096    5095+
+           5094    2577    2578    1976
CTETRA      1890       1    3140    5640    3141    5651    1483    2121+
+           3761    2579    6450    2123
CTETRA      1891       1    3611    3612    3621    6219    5070    5097+
+           5096    2206    2205    2580
CTETRA      1892       1    3357    3358    3367    5914    4364    4391+
+           4390    1806    2581    1919
CTETRA      1893       1    8724    5601    3118    5602    1390     959+
+           5585    1171    6334     363
CTETRA      1894       1    3182    5678    5689      22    2419    6556+
+           2353    2582    2574    2576
CTETRA      1895       1    3602    6208    3612    6219    2207    2209+
+           5071    2204    8050    2205
CTETRA      1896       1    3584    6177    6176    6187     146    7931+
+            144     121    7961    7960
CTETRA      1897       1    3583    6177    3584    6187    1676     146+
+           4992     120    7961     121
CTETRA      1898       1    3572    3573    3582    6179    4961    4988+
+           4987     138     139    2583
CTETRA      1899       1    3165    5686    3174    5687    2584    2585+
+           3854    1263    6550    1269
CTETRA      1900       1    3581    3591    3590    6190    5012    5011+
+           5010    2586    2427    2587
CTETRA      1901       1    3582    6179    6178    6189    2583    7937+
+           1672    1665    7967    7966
CTETRA      1902       1    3572    3582    3581    6179    4987    4986+
+           4985     138    2583    1673
CTETRA      1903       1    3367    5913    5924    5925    1924    7219+
+           1802    1920    7221    7220
CTETRA      1904       1    3571    3572    3581    6180    4958    4985+
+           4984     533    1674    1675
CTETRA      1905       1    3570    6171    6181    6182    2380    7945+
+           1285    1203    7947    7946
CTETRA      1906       1    3358    5913    3367    5914    1923    1924+
+           4391    2581    7189    1919
CTETRA      1907       1    8777    6193    3588    6204    8531    1283+
+           2367    8530    8009     790
CTETRA      1908       1    8723    3119    8724    5601    5583    5586+
+           8734    1172     792    1390
CTETRA      1909       1    8727    3115    8728    5606    5591    5594+
+           8738     465    1945     466
CTETRA      1910       1    3572    6169    6168    6179     947    7909+
+            136     138    7939    7938
CTETRA      1911       1    3553    6148    6158    6159    2341    7880+
+           2119    2220    7882    7881
CTETRA      1912       1    3181    5678    3182      22     910    2419+
+           3876    2588    2574    2582
CTETRA      1913       1    3561    3562    3571    6170    4930    4957+
+           4956    1199    2372     532
CTETRA      1914       1    3539    3540    3549    6131    4870    4897+
+           4896    2199     549     550
CTETRA      1915       1    3132    5628    3133    5639    2287    2589+
+           3739    2327    6416    2590
CTETRA      1916       1    3512    3522    3521    6109    4821    4820+
+           4819     570    2591    1303
CTETRA      1917       1    3531    6119    3540    6120     169    1295+
+           4872     163    7770     164
CTETRA      1918       1    3529    3530    3539    6121    4842    4869+
+           4868    2003    2004    1715
CTETRA      1919       1    3129    3139    3138    5642    3756    3755+
+           3754    2073    1021    1662
CTETRA      1920       1    3134    5636    3143    5637    1174    2592+
+           3769    1175    6408    2593
CTETRA      1921       1    3499    3500    3509    6092    4758    4785+
+           4784    1309    1310    1730
CTETRA      1922       1    3113    3114    3123    5618    3708    3707+
+           3706    2356     876    2594
CTETRA      1923       1    3509    6092    6102    6103    1730    7722+
+            971    1732    7724    7723
CTETRA      1924       1    3170    5669    5670      23    2113    6501+
+           2595    2596    2597    2598
CTETRA      1925       1    3489    3490    3499    6082    4730    4757+
+           4756     202     189     190
CTETRA      1926       1    3148    3149    3158    5663    3783    3810+
+           3809     410     411     445
CTETRA      1927       1    3170    5669    3171    5680    2113     123+
+           3845     462    6531    1655
CTETRA      1928       1    3468    3478    3477    6042    4699    4698+
+           4697    1007    1751    2599
CTETRA      1929       1    3122    5619    5618    5630    2357    6355+
+           2349    2351    6391    6390
CTETRA      1930       1    3316    3326    3325    5854    4277    4276+
+           4275    1042     294     293
CTETRA      1931       1    3486    3487    3496    6064    4723    4750+
+           4749     768    2600    2601
CTETRA      1932       1    3486    6053    3487    6064     767    1756+
+           4723     768    7613    2600
CTETRA      1933       1    3448    3458    3457    6023    4643    4642+
+           4641    1759    1758     248
CTETRA      1934       1    3447    3448    3457    6023    4614    4641+
+           4640     239    1759     248
CTETRA      1935       1    3115    5605    5616    5617    1501    6345+
+           1503    1946    6348    6347
CTETRA      1936       1    3195    3196    3205    5716    3914    3941+
+           3940    2334    1467    1468
CTETRA      1937       1    3334    5865    3335    5876     304    1097+
+           4301     299    7083    1839
CTETRA      1938       1    3186    5705    3195      17    1819    1352+
+           3913    1820    1350    2131
CTETRA      1939       1    3181      14    5678      22     911     913+
+            910    2588    2602    2574
CTETRA      1940       1    5657    5669    5668       5    6499    6498+
+           6497    2603     127    2604
CTETRA      1941       1    3456    6024    6034    6035    2605    7530+
+           2606    2607    7532    7531
CTETRA      1942       1    3117    5613    3126    5614     403     453+
+           3719     418    6335     419
CTETRA      1943       1    3122    5618    3123       1    2349    2594+
+           3705    2303    2608    2311
CTETRA      1944       1    3456    6034    3466    6035    2606    2238+
+           4665    2607    7531    2609
CTETRA      1945       1    3455    6026    6025    6037    2447    7505+
+           2610    2449    7538    7537
CTETRA      1946       1    3120    3130    3129    5631    3731    3730+
+           3729     438     443     439
CTETRA      1947       1    3445    6015    3446    6026    1329    2245+
+           4608    1330    7507    2446
CTETRA      1948       1    3446    3456    3455    6025    4637    4636+
+           4635    1772    1774    2610
CTETRA      1949       1    3437    6014    3446    6015    1017    1763+
+           4610    2244    7474    2245
CTETRA      1950       1    3170    5670    5669    5681    2595    6501+
+           2113     835    6534    6533
CTETRA      1951       1    3405    3415    3414    5965    4524    4523+
+           4522     266     268    1783
CTETRA      1952       1    3414    5965    3415    5976    1783     268+
+           4523    2526    7365    2611
CTETRA      1953       1    3414    3415    3424    5976    4523    4550+
+           4549    2526    2611    2527
CTETRA      1954       1    3334    3335    3344    5876    4301    4328+
+           4327     299    1839    2509
CTETRA      1955       1    3415    3425    3424    5975    4552    4551+
+           4550    2246    2248    2612
CTETRA      1956       1    3405    5955    5954    5966    1052    7304+
+            264    1779    7337    7336
CTETRA      1957       1    3394    3404    3403    5956    4493    4492+
+           4491    2613    2258    2038
CTETRA      1958       1    3403    3404    3413    5967    4492    4519+
+           4518    2614     616     609
CTETRA      1959       1    3374    5927    5926    5938     288    7226+
+            286    2615    7259    7258
CTETRA      1960       1    3144    5636    5635    5647     183    6405+
+            182    2616    6438    6437
CTETRA      1961       1    3364    3374    3373    5927    4409    4408+
+           4407    1037     288    1998
CTETRA      1962       1    8952    5710    8820    5721    1504    8372+
+           2134    2541    6646    8375
CTETRA      1963       1    3165    5675    5686    5687     436    6549+
+           2584    1263    6551    6550
CTETRA      1964       1    3195    5716    3204    5717    2334    2617+
+           3938     274    6634     275
CTETRA      1965       1    8938    5874    3327    5885    1105    1430+
+           5353    1237    7110     669
CTETRA      1966       1    3373    5927    3374    5938    1998     288+
+           4408    2464    7259    2615
CTETRA      1967       1    8937    3344    3335    5875    5532    4328+
+           5533    1167    2055     663
CTETRA      1968       1    3373    3374    3383    5938    4408    4435+
+           4434    2464    2615    2465
CTETRA      1969       1    3212    5728    3213    5739    2618    2499+
+           3961    1008    6698    1009
CTETRA      1970       1    3145    5635    5634    5646    1185    6402+
+           1165    1831    6435    6434
CTETRA      1971       1    3223    3233    3232    5747    4018    4017+
+           4016     705     707    1335
CTETRA      1972       1    3362    5908    3371    5909    2147    2148+
+           4403    2619    7174    1795
CTETRA      1973       1    3352    3362    3361    5898    4377    4376+
+           4375    1926    2265    1306
CTETRA      1974       1    5678      14    5690      22     913    2620+
+           6558    2574    2602    2575
CTETRA      1975       1    3181    3191    3190      22    3902    3901+
+           3900    2588    2621    2622
CTETRA      1976       1    3315    3316    3325    5855    4248    4275+
+           4274    1843    1849    1370
CTETRA      1977       1    3312    5859    3321    5860    1094    1855+
+           4263    1408    7037    2623
CTETRA      1978       1    3320    5860    3321    5871    2624    2623+
+           4261    2625    7070    2626
CTETRA      1979       1    3204    5716    3205    5727    2617    1468+
+           3939    2627    6664    1479
CTETRA      1980       1    3320    3321    3330    5871    4261    4288+
+           4287    2625    2626    2628
CTETRA      1981       1    3322    5869    3331    5870     310     311+
+           4291    1312    7065    1313
CTETRA      1982       1    3180    3181    5679      24    3873     909+
+           2629    2630    2631    2632
CTETRA      1983       1    3123    5618    5617       1    2594    6351+
+           2633    2311    2608      39
CTETRA      1984       1    8944    5798    8812    5809     817    8388+
+           1117     335    6894    8391
CTETRA      1985       1    8954    5698    3183    5709    1136    2259+
+           5321      29    6614      30
CTETRA      1986       1    3289    3290    3299    5821    4176    4203+
+           4202    2634    2635    2636
CTETRA      1987       1    3193    5718    3202    5719    2637    2638+
+           3932    2639    6640     838
CTETRA      1988       1    8942    8943    8810    5820    8983     860+
+            867    2291     865    8392
CTETRA      1989       1    3325    5854    5865    5866     293    7052+
+            295    1371    7054    7053
CTETRA      1990       1    3219    3229    3228    5752    4006    4005+
+           4004     539     724     723
CTETRA      1991       1    3220    5740    5751    5752    2312    6732+
+           2314     540    6734    6733
CTETRA      1992       1    3203    3213    3212    5728    3962    3961+
+           3960    2497    2499    2618
CTETRA      1993       1    3269    5790    3270    5801    1134    2396+
+           4120    2294    6872    2295
CTETRA      1994       1    3270    5790    5789    5801    2396    6839+
+           2346    2295    6872    6871
CTETRA      1995       1    3167    3177    3176    5684    3862    3861+
+           3860     381     383     394
CTETRA      1996       1    3203    5728    3212    5729    2497    2618+
+           3960    2640    6668    2506
CTETRA      1997       1    3279    3289    3288    5811    4174    4173+
+           4172    1876    1872    2492
CTETRA      1998       1    3279    5800    5811    5812    1875    6900+
+           1876    2641    6902    6901
CTETRA      1999       1    8949    3228    5753      12    5331    2642+
+           2643    2364     886    1435
CTETRA      2000       1    3204    5727    3213    5728    2627    2644+
+           3963    2498    6665    2499
CTETRA      2001       1    3278    5801    3279    5812    2489    2296+
+           4145    2645    6903    2641
CTETRA      2002       1    3227    5743    3236    5744    2646     736+
+           4028     755    6709     745
CTETRA      2003       1    3240    5771    3249    5772     173     175+
+           4063    2307    6789    2308
CTETRA      2004       1    3241    5760    5759    5771     797    6755+
+           2647     361    6788    6787
CTETRA      2005       1    3248    3249    3258    5783    4061    4088+
+           4087    1132    1428    1414
CTETRA      2006       1    3207    5713    5712    5724     379    6622+
+            377     738    6655    6654
CTETRA      2007       1    3180    5679    3181      14    2629     909+
+           3873    1462     912     911
CTETRA      2008       1    3232    3242    3241    5758    4043    4042+
+           4041    1336    1888     345
CTETRA      2009       1    3324    3334    3333    5866    4299    4298+
+           4297    1928     303    1847
CTETRA      2010       1    3241    5759    5770    5771    2647    6785+
+            347     361    6787    6786
CTETRA      2011       1    3222    3232    3231    5749    4015    4014+
+           4013     849    1652     850
CTETRA      2012       1    3249    3250    3259    5782    4064    4091+
+           4090    1427    1882    1883
CTETRA      2013       1    3220    3221    3230    5751    3983    4010+
+           4009    2314    2315    2648
CTETRA      2014       1    3196    5703    3197    5714    1143     746+
+           3917    1904    6627     747
CTETRA      2015       1    3324    5866    3333    5867    1928    1847+
+           4297     676    7056    1846
CTETRA      2016       1    3239    5772    3248    5773    1892    1131+
+           4060    1893    6792    1152
CTETRA      2017       1    3252    3262    3261    5778    4099    4098+
+           4097     198     200    2162
CTETRA      2018       1    3171    5668    3172      24    1653    2649+
+           3848    2650    2651    2652
CTETRA      2019       1    3230    3231    3240    5761    4011    4038+
+           4037    2082     354     355
CTETRA      2020       1    3242    3243    3252    5768    4045    4072+
+           4071    1878    1024    1879
CTETRA      2021       1    3229    5752    5751    5763     724    6733+
+            728     725    6766    6765
CTETRA      2022       1    3306    3316    3315    5844    4249    4248+
+           4247     682    2321    1842
CTETRA      2023       1    3237    3238    3247    5774    4030    4057+
+           4056    1193    1433    2231
CTETRA      2024       1    3261    3262    3271    5789    4098    4125+
+           4124    2163    2164    2165
CTETRA      2025       1    3171    3172    5668       5    3848    2649+
+           1653     126    2653    2604
CTETRA      2026       1    3229    5762    3238    5763     729    1432+
+           4032     725    6764    1431
CTETRA      2027       1    3233    5747    5746    5758     707    6718+
+            852    1337    6751    6750
CTETRA      2028       1    3207    3217    3216    5723    3974    3973+
+           3972     737     740     688
CTETRA      2029       1    8949    3228    3237    5764    5331    4029+
+           5334    2386     721     722
CTETRA      2030       1    3314    3315    3324    5856    4245    4272+
+           4271    2069    1844     674
CTETRA      2031       1    3294    5837    3303    5838     321    2044+
+           4213     322    6975    2273
CTETRA      2032       1    3235    3245    3244    5755    4052    4051+
+           4050    2510     733    2654
CTETRA      2033       1    3197    3207    3206    5713    3946    3945+
+           3944     380     379     752
CTETRA      2034       1    3234    3244    3243    5756    4049    4048+
+           4047    2514    1476    1023
CTETRA      2035       1    3198    5701    3199    5712    1016     153+
+           3923     369    6621     370
CTETRA      2036       1    3206    3207    3216    5724    3945    3972+
+           3971    2064     738     687
CTETRA      2037       1    3284    3285    3294    5827    4161    4188+
+           4187    1929    1809    1810
CTETRA      2038       1    3215    5724    3216    5735    2065     687+
+           3970    2109    6686     689
CTETRA      2039       1    3172    5668    5667      24    2649    6495+
+           2571    2652    2651    2655
CTETRA      2040       1    3259    5780    3260    5791     342     341+
+           4092    1119    6844    1120
CTETRA      2041       1    3212    5729    5728    5740    2506    6668+
+           2618    2508    6701    6700
CTETRA      2042       1    3171    5668    5669       5    1653    6498+
+            123     126    2604     127
CTETRA      2043       1    3199    5689    5700    5701    2483    6587+
+           2656     153    6589    6588
CTETRA      2044       1    3186    3196    3195    5705    3915    3914+
+           3913    1819    1826    1352
CTETRA      2045       1    3276    5804    5815    5816     709    6912+
+           2496     704    6914    6913
CTETRA      2046       1    3237    3247    3246    5774    4056    4055+
+           4054    1193    2231    1196
CTETRA      2047       1    3293    5827    3294    5838    1930    1810+
+           4186    2394    6977     322
CTETRA      2048       1    3281    5809    3290    5810     334     864+
+           4178     331    6895     332
CTETRA      2049       1    3200    5710    3209    5711    1505    1901+
+           3953    2488    6616    1900
CTETRA      2050       1    8939    5853    8807    5864    1275    8398+
+           1141    1273    7049    8401
CTETRA      2051       1    3196    5704    5715    5716    1824    6630+
+           1465    1467    6632    6631
CTETRA      2052       1    3265    3275    3274    5806    4134    4133+
+           4132    1470     323    2431
CTETRA      2053       1    3177    3187    3186    5694    3890    3889+
+           3888    2115    2036    1818
CTETRA      2054       1    3165    3166    3175    5686    3830    3857+
+           3856    2584    1004    2355
CTETRA      2055       1    3175    5685    3176    5696     779     393+
+           3858    1488    6577     395
CTETRA      2056       1    3293    5827    5838    5839    1930    6977+
+           2394     316    6979    6978
CTETRA      2057       1    3283    5828    3292    5829    1322     318+
+           4182     848    6950    1320
CTETRA      2058       1    3166    5674    3167    5685    1003    1907+
+           3833     778    6546     774
CTETRA      2059       1    3167    5674    5673    5685    1907    6513+
+            773     774    6546    6545
CTETRA      2060       1    3293    5828    5827    5839     319    6947+
+           1930     316    6980    6979
CTETRA      2061       1    8945    3272    3263    5787    5548    4128+
+           5549    1643    1115    1644
CTETRA      2062       1    3154    5656    3163    5657    1914    2657+
+           3825    1495    6464    2658
CTETRA      2063       1    3628    6242    3638    6243     775     777+
+           5143     521    8117    1555
CTETRA      2064       1    3144    5635    3145    5646     182    1185+
+           3773    2339    6435    1831
CTETRA      2065       1    3247    3257    3256    5784    4084    4083+
+           4082    1153     713    1190
CTETRA      2066       1    3296    5834    3305    5835    1627    1629+
+           4219    2159    6966    2157
CTETRA      2067       1    3124    3125    3134       4    3713    3744+
+           3743      92    2347    1936
CTETRA      2068       1    3124    5627    3133    5628      90    2659+
+           3741    2660    6383    2589
CTETRA      2069       1    5626    5627    5638       4    6380    6413+
+           6412    1937      93    2661
CTETRA      2070       1    3114    3124    3123    5617    3710    3709+
+           3707     875    2662    2633
CTETRA      2071       1    3286    3296    3295    5824    4193    4192+
+           4191    1297    2491     693
CTETRA      2072       1    3115    5604    5615    5616    1502    6341+
+           2344    1503    6344    6343
CTETRA      2073       1    8730    8750    5608    5609    8675    8642+
+           1941    2348    8643    6362
CTETRA      2074       1    3130    3140    3139    5641    3759    3758+
+           3757     102     104    1020
CTETRA      2075       1    3302    5849    3311    5850    1110    1112+
+           4235    1108    7009    1109
CTETRA      2076       1    3289    5810    3290    5821    1870     332+
+           4176    2634    6928    2635
CTETRA      2077       1    3277    5803    5814    5815     696    6909+
+           2500     697    6911    6910
CTETRA      2078       1    8942    8809    5830    5841    2663    8596+
+            869    2094    8595    6986
CTETRA      2079       1    3276    3286    3285    5815    4165    4164+
+           4163    2496    1317    1316
CTETRA      2080       1    3258    3268    3267    5793    4115    4114+
+           4113    2080    2071    2070
CTETRA      2081       1    3638    6252    3648    6263    1546     494+
+           5171     282    8174     283
CTETRA      2082       1    8946    5786    3255    5797    2664    2361+
+           5337     671    6862     712
CTETRA      2083       1    8912    8779    3569    6150    2481    2665+
+           5482    2666    8454     613
CTETRA      2084       1    3329    5872    5871    5883    2383    7071+
+           2667    2668    7104    7103
CTETRA      2085       1    3550    3551    3560    6140    4901    4928+
+           4927     620    2669     621
CTETRA      2086       1    8930    8798    8797    5963    2670    8864+
+           2671    2672    8419    8418
CTETRA      2087       1    3671    3681    3680    6311    5262    5261+
+           5260    1537    1541    1538
CTETRA      2088       1    3689    6312    6322    6323     241    8342+
+            244     193    8344    8343
CTETRA      2089       1    3661    6290    3671    6301    2673    2674+
+           5234    2675    8282    1536
CTETRA      2090       1    8688    8708    8709    6324    3094    8713+
+           3095     781    8502    8503
CTETRA      2091       1    3274    5806    5817    5818    2431    6918+
+             80    1035    6920    6919
CTETRA      2092       1    3675    6296    6295    6306    2179    8266+
+           1603    2405    8296    8295
CTETRA      2093       1    3298    5822    5821    5833    2324    6929+
+           2676    2326    6962    6961
CTETRA      2094       1    3291    5840    3300    5841    1861    1863+
+           4204    2677    6984    2095
CTETRA      2095       1    8937    8804    5885    5896    1073    8586+
+           1075     651    8585    7141
CTETRA      2096       1    3371    5919    3380    5920    2150    2515+
+           4428    1797    7205    2678
CTETRA      2097       1    3307    5843    3316    5844    2067    2482+
+           4250    2061    6991    2321
CTETRA      2098       1    3356    5905    5904    5916    1622    7164+
+           1377     291    7197    7196
CTETRA      2099       1    3354    5917    3363    5918     642    1811+
+           4379    1382    7201     639
CTETRA      2100       1    3661    6291    6290    6301    2390    8253+
+           2673    2675    8283    8282
CTETRA      2101       1    8903    6249    8770    6260    1184    8472+
+           1183    1266    8165    8473
CTETRA      2102       1    3162    3172    3171       5    3849    3848+
+           3847     125    2653     126
CTETRA      2103       1    3284    5827    3293    5828    1929    1930+
+           4185    1323    6947     319
CTETRA      2104       1    3311    5860    3320    5861    2272    2624+
+           4260    2679    7040    2680
CTETRA      2105       1    8901    6292    3669    6303     482    1964+
+           5430     477    8288     478
CTETRA      2106       1    3328    5873    5872    5884    2046    7074+
+           2048    2047    7107    7106
CTETRA      2107       1    3327    3328    3337    5884    4280    4307+
+           4306     668    2047    1836
CTETRA      2108       1    3642    6259    6269    6270    2091    8193+
+           2681    2682    8195    8194
CTETRA      2109       1    3310    5850    5861    5862    2284    7042+
+           2683    2684    7044    7043
CTETRA      2110       1    3657    6274    6273    6284     314    8204+
+            501      77    8234    8233
CTETRA      2111       1    3331    3341    3340    5879    4318    4317+
+           4316    2685    2270    2686
CTETRA      2112       1    3302    5839    5838    5850     317    6978+
+           2395    1108    7011    7010
CTETRA      2113       1    3380    5930    3389    5931    2516    2687+
+           4453    2517    7236    2140
CTETRA      2114       1    3640    3650    3649    6261    5177    5176+
+           5175    2688     904     903
CTETRA      2115       1    8925    8792    6017    6028    1543    8562+
+           1547      57    8561    7513
CTETRA      2116       1    3322    5859    5858    5870    1096    7034+
+           1311    1312    7067    7066
CTETRA      2117       1    3650    6261    6260    6271     904    8167+
+           1520    1411    8197    8196
CTETRA      2118       1    3340    5891    3349    5892    2689    2690+
+           4341    2691    7127    2692
CTETRA      2119       1    8932    8800    8933    5940    2693    1452+
+           8993    2694    8577    1453
CTETRA      2120       1    3649    6251    6261    6262    2695    8169+
+            903    1873    8171    8170
CTETRA      2121       1    3357    5903    3358    5914    2696    2697+
+           4364    1806    7191    2581
CTETRA      2122       1    3639    6251    3649    6262    1224    2695+
+           5174    2469    8171    1873
CTETRA      2123       1    3337    5894    3346    5895    1375    1082+
+           4332    1838    7136    1081
CTETRA      2124       1    3677    6294    6293    6304     902    8260+
+            488    2698    8290    8289
CTETRA      2125       1    3295    5826    5825    5837    2228    6941+
+            692    1409    6974    6973
CTETRA      2126       1    3317    5853    3326    5854    1276     297+
+           4278    1043    7019     294
CTETRA      2127       1    3350    5889    3351    5900    1456    1455+
+           4345    1457    7151    2040
CTETRA      2128       1    3358    5901    5912    5913    2401    7185+
+           1922    1923    7187    7186
CTETRA      2129       1    3294    3304    3303    5837    4215    4214+
+           4213     321    1413    2044
CTETRA      2130       1    3347    5893    3348    5904    1084    2699+
+           4336    1085    7163    2468
CTETRA      2131       1    3620    3630    3629    6241    5121    5120+
+           5119    2411    2402    1614
CTETRA      2132       1    3382    5939    5938    5950    2700    7260+
+           1785    1787    7293    7292
CTETRA      2133       1    3275    5816    3284    5817     703    1272+
+           4160      81    6916      82
CTETRA      2134       1    3358    3368    3367    5912    4393    4392+
+           4391    1922    2701    1921
CTETRA      2135       1    3401    5970    3410    5971    2702    2703+
+           4510    2704    7350    2705
CTETRA      2136       1    3610    6210    3611    6220    1246    2706+
+           5067    1982    8054    2551
CTETRA      2137       1    3348    3358    3357    5903    4365    4364+
+           4363    2467    2697    2696
CTETRA      2138       1    3611    3620    6220    6230    5094    1975+
+           2551    2577    1976    8082
CTETRA      2139       1    3381    3382    3391    5950    4430    4457+
+           4456    2520    1787    2010
CTETRA      2140       1    3359    5901    5900    5912    2400    7152+
+           2707    2708    7185    7184
CTETRA      2141       1    3378    5922    5921    5933    2709    7211+
+           2710    2524    7244    7243
CTETRA      2142       1    3296    5824    5823    5835    2491    6935+
+           2490    2159    6968    6967
CTETRA      2143       1    3611    6210    6209    6220    2706    8024+
+           2550    2551    8054    8053
CTETRA      2144       1    3333    5867    5866    5878    1846    7056+
+           1847    1848    7089    7088
CTETRA      2145       1    3621    6219    6229    6230    2580    8079+
+           2711    2578    8081    8080
CTETRA      2146       1    3370    3380    3379    5920    4427    4426+
+           4425    1796    2678    2712
CTETRA      2147       1    8933    8801    8934    5929    2713    1821+
+           8992    1450    8579    1446
CTETRA      2148       1    3178    5681    3179      25     770     836+
+           3867    2714    2715    2716
CTETRA      2149       1    3179    5681    5692      25     836    6565+
+            636    2716    2715    2717
CTETRA      2150       1    3609    6211    3610    6222     513    1245+
+           5064    2528    8059    2425
CTETRA      2151       1    3359    3369    3368    5911    4396    4395+
+           4394    2718    1302    2719
CTETRA      2152       1    3562    6169    3572    6180     946     947+
+           4959    1684    7941    1674
CTETRA      2153       1    3581    6179    3582    6190    1673    2583+
+           4986    2586    7969    2426
CTETRA      2154       1    3377    5922    3378    5933    2544    2709+
+           4420    2538    7244    2524
CTETRA      2155       1    3408    5983    3417    5984    2720     259+
+           4529    2721    7387    2722
CTETRA      2156       1    8933    3380    5919    5930    5524    2515+
+           2152    2723    2516    7235
CTETRA      2157       1    3562    6170    6169    6180    2372    7912+
+            946    1684    7942    7941
CTETRA      2158       1    3570    6182    6181    6192    1203    7946+
+           1285    1204    7976    7975
CTETRA      2159       1    3579    6192    3589    6203    1205    2513+
+           5006    2724    8006    1985
CTETRA      2160       1    8927    8928    8795    5985    8998    1957+
+           2725    2249    1960    8422
CTETRA      2161       1    8931    3398    5941    5952    5520    2726+
+           2727    2728    2729    7297
CTETRA      2162       1    8898    3686    8899    6304    5455    5456+
+           9027    1228    2730    2731
CTETRA      2163       1    3522    6097    3523    6108    2391    1000+
+           4823    1698    7737    1002
CTETRA      2164       1    3390    5951    5950    5962    2523    7294+
+           2521    2732    7327    7326
CTETRA      2165       1    3391    3401    3400    5960    4484    4483+
+           4482    1789    1374    2733
CTETRA      2166       1    3381    3391    3390    5950    4456    4455+
+           4454    2520    2010    2521
CTETRA      2167       1    8931    3390    3399    5962    5367    4479+
+           5370    2734    2732    2735
CTETRA      2168       1    3558    3559    3568    6152    4923    4950+
+           4949    2434     543    1996
CTETRA      2169       1    3549    6142    6141    6152    2305    7832+
+           2436    2433    7862    7861
CTETRA      2170       1    3376    5923    3377    5934    1798    1918+
+           4417    1791    7247    2539
CTETRA      2171       1    3484    6056    6066    6067    2736    7620+
+           2737    2014    7622    7621
CTETRA      2172       1    3666    3676    3675    6295    5249    5248+
+           5247     491     492    1603
CTETRA      2173       1    3409    5972    5971    5983    1912    7353+
+           1908    1910    7386    7385
CTETRA      2174       1    3532    3533    3542    6118    4851    4878+
+           4877    1694     156     157
CTETRA      2175       1    3474    6046    6056    6057    2738    7592+
+           2739    2740    7594    7593
CTETRA      2176       1    3390    3400    3399    5961    4481    4480+
+           4479    2741    2317    2316
CTETRA      2177       1    3282    3283    3292    5829    4155    4182+
+           4181     847     848    1320
CTETRA      2178       1    3484    6057    6056    6067    2012    7593+
+           2736    2014    7623    7622
CTETRA      2179       1    3429    5991    6002    6003    1287    7439+
+           1598    1288    7441    7440
CTETRA      2180       1    3465    6036    6046    6047    2532    7564+
+           2742    2534    7566    7565
CTETRA      2181       1    3400    3401    3410    5971    4483    4510+
+           4509    1916    2704    2705
CTETRA      2182       1    3427    5994    5993    6005     263    7415+
+            258    1033    7448    7447
CTETRA      2183       1    3390    3391    3400    5961    4455    4482+
+           4481    2741    1790    2317
CTETRA      2184       1    3368    5912    5911    5923    2701    7183+
+           2719    2545    7216    7215
CTETRA      2185       1    3465    6046    3474    6047    2742    2738+
+           4688    2534    7565    2020
CTETRA      2186       1    3492    6068    3493    6079    1896    1895+
+           4739    1726    7656    1890
CTETRA      2187       1    3483    3484    3493    6067    4714    4741+
+           4740    2013    2014    2743
CTETRA      2188       1    3368    3378    3377    5922    4421    4420+
+           4419    2543    2709    2544
CTETRA      2189       1    3473    6058    3482    6059    2021     580+
+           4710    2178    7598     215
CTETRA      2190       1    3453    6028    6027    6039      58    7511+
+           2744      60    7544    7543
CTETRA      2191       1    3427    5993    6004    6005     258    7445+
+           2239    1033    7447    7446
CTETRA      2192       1    3395    3405    3404    5955    4496    4495+
+           4494    1050    1052     614
CTETRA      2193       1    3452    6007    6018    6019     588    7483+
+             55     589    7485    7484
CTETRA      2194       1    3432    5987    3433    5998    2110    2452+
+           4573    2457    7427    2454
CTETRA      2195       1    3392    5948    3393    5959     618    2035+
+           4461    1372    7318     632
CTETRA      2196       1    3469    6041    3478    6042    2018    1752+
+           4700    2435    7550    1751
CTETRA      2197       1    3410    3411    3420    5981    4511    4538+
+           4537     250    1441    2745
CTETRA      2198       1    3461    6019    6018    6030     985    7484+
+             54     933    7517    7516
CTETRA      2199       1    3420    3421    3430    5991    4539    4566+
+           4565    1594    1291    1595
CTETRA      2200       1    3419    5981    3420    5992     251    2745+
+           4536     254    7411    2512
CTETRA      2201       1    3400    5961    5960    5972    2317    7322+
+           2733    1917    7355    7354
CTETRA      2202       1    3359    5900    5911    5912    2707    7182+
+           2718    2708    7184    7183
CTETRA      2203       1    3424    3425    3434    5986    4551    4578+
+           4577    2746    2252    2253
CTETRA      2204       1    3457    6023    6033    6034     248    7527+
+           1748    2236    7529    7528
CTETRA      2205       1    3442    5998    5997    6009     593    7425+
+           2747     594    7458    7457
CTETRA      2206       1    3439    6002    6001    6013    1600    7437+
+           1030     236    7470    7469
CTETRA      2207       1    3433    5986    3434    5997    2453    2253+
+           4576    2455    7424    2748
CTETRA      2208       1    3430    5991    5990    6002    1595    7406+
+           1597    1599    7439    7438
CTETRA      2209       1    3283    3293    3292    5828    4184    4183+
+           4182    1322     319     318
CTETRA      2210       1    3434    5985    5996    5997    2251    7421+
+           2749    2748    7423    7422
CTETRA      2211       1    3450    3451    3460    6020    4623    4650+
+           4649    1903     592    1012
CTETRA      2212       1    3451    6008    3452    6019     590     587+
+           4626     591    7486     589
CTETRA      2213       1    8924    3461    6018    6029    5506      54+
+             53      65     982    7514
CTETRA      2214       1    3404    3405    3414    5966    4495    4522+
+           4521     615    1779    1784
CTETRA      2215       1    3431    3441    3440    5999    4596    4595+
+           4594    2103    2750    2222
CTETRA      2216       1    3406    5953    3407    5964    1777    2751+
+           4501     269    7331    2752
CTETRA      2217       1    3418    5993    3427    5994     256     258+
+           4557     262    7415     263
CTETRA      2218       1    3445    3446    3455    6026    4608    4635+
+           4634    1330    2446    2447
CTETRA      2219       1    3283    5817    5828    5829    1034    6949+
+           1322     848    6951    6950
CTETRA      2220       1    3686    6305    6304    6315     421    8291+
+           2730    2753    8321    8320
CTETRA      2221       1    3686    6294    6304    6305    2754    8290+
+           2730     421    8292    8291
CTETRA      2222       1    3367    5912    3368    5923    1921    2701+
+           4392    1801    7216    2545
CTETRA      2223       1    3383    5937    3384    5948    1780    2260+
+           4436    1781    7287    2034
CTETRA      2224       1    3251    3261    3260    5779    4096    4095+
+           4094     343     337     336
CTETRA      2225       1    3432    3433    3442    5998    4573    4600+
+           4599    2457    2454     593
CTETRA      2226       1    3357    5904    5903    5915    1619    7161+
+           2696    1807    7194    7193
CTETRA      2227       1    3383    5948    3392    5949    1781     618+
+           4460    1782    7288     617
CTETRA      2228       1    3328    5872    3329    5883    2048    2383+
+           4283    2049    7104    2668
CTETRA      2229       1    3329    5871    5882    5883    2667    7101+
+           2755    2668    7103    7102
CTETRA      2230       1    3470    6029    6040    6041    1739    7545+
+           2132    2133    7547    7546
CTETRA      2231       1    3328    5883    3337    5884    2049    2470+
+           4307    2047    7105    1836
CTETRA      2232       1    8938    8939    3327    5874    8987    5354+
+           5353    1105    1274    1430
CTETRA      2233       1    8790    3470    6029    6040    1738    1739+
+           8432    8433    2132    7545
CTETRA      2234       1    3261    5779    5778    5790     337    6808+
+           2162     339    6841    6840
CTETRA      2235       1    8941    8808    8809    5841    1531    8853+
+           2100    2093    8594    8595
CTETRA      2236       1    3308    5831    5842    5843    2756    6987+
+           1528    2757    6989    6988
CTETRA      2237       1    3317    5843    5842    5854    2758    6988+
+           2479    1043    7021    7020
CTETRA      2238       1    3451    3452    3461    6019    4626    4653+
+           4652     591     589     985
CTETRA      2239       1    3441    3442    3451    6009    4598    4625+
+           4624     223     594    1334
CTETRA      2240       1    3296    5823    3297    5834    2490    2759+
+           4195    1627    6965    1630
CTETRA      2241       1    8930    3407    3398    5952    5518    4503+
+           5519    2760    2761    2729
CTETRA      2242       1    8930    8797    8798    5962    2671    8864+
+           2670    2762    8572    8573
CTETRA      2243       1    3315    5845    5844    5856    1099    6994+
+           1842    1844    7027    7026
CTETRA      2244       1    3297    5823    5822    5834    2759    6932+
+           2323    1630    6965    6964
CTETRA      2245       1    3464    6037    6036    6048    2763    7536+
+           2531    2764    7569    7568
CTETRA      2246       1    3242    5757    3243    5768    1931    1022+
+           4045    1878    6779    1024
CTETRA      2247       1    8898    3686    6304    6315    5455    2730+
+           1228    2458    2753    8320
CTETRA      2248       1    3276    5804    3277    5815     709     695+
+           4139    2496    6912     697
CTETRA      2249       1    8899    3677    6293    6304    5457     488+
+           1162    2731    2698    8289
CTETRA      2250       1    3468    3469    3478    6042    4673    4700+
+           4699    1007    2435    1751
CTETRA      2251       1    3275    5805    5816    5817     324    6915+
+            703      81    6917    6916
CTETRA      2252       1    3463    3464    3473    6048    4658    4685+
+           4684     584    2764     585
CTETRA      2253       1    3230    5751    5750    5762    2648    6730+
+           2081    1138    6763    6762
CTETRA      2254       1    3473    3483    3482    6058    4712    4711+
+           4710    2021    2023     580
CTETRA      2255       1    3465    3466    3475    6045    4664    4691+
+           4690    2765    2766    2767
CTETRA      2256       1    3497    6063    6062    6073    1742    7609+
+           1394    1220    7639    7638
CTETRA      2257       1    3456    6024    3457    6034    2605     249+
+           4639    2606    7530    2236
CTETRA      2258       1    3457    6024    6023    6034     249    7500+
+            248    2236    7530    7529
CTETRA      2259       1    3250    5769    3251    5780    1932    1934+
+           4067     340    6813     344
CTETRA      2260       1    3480    6061    6060    6072    1762    7604+
+           1279    1281    7637    7636
CTETRA      2261       1    3238    3248    3247    5773    4059    4058+
+           4057    1898    1152    1151
CTETRA      2262       1    3240    5760    3241    5771     353     797+
+           4039     173    6788     361
CTETRA      2263       1    3231    5749    3232    5760     850    1652+
+           4014     352    6757    2502
CTETRA      2264       1    3237    5774    3246    5775    1193    1196+
+           4054    1194    6798    1195
CTETRA      2265       1    3256    5795    3265    5796    2768    1469+
+           4107    2769    6857    2051
CTETRA      2266       1    3376    5925    5924    5936     277    7220+
+           1803     279    7253    7252
CTETRA      2267       1    3255    5785    5796    5797    2360    6859+
+            710     712    6861    6860
CTETRA      2268       1    3667    3676    6284    6294    5250     490+
+             78      84     980    8262
CTETRA      2269       1    3483    6067    3493    6068    2013    2743+
+           4740    1894    7624    1895
CTETRA      2270       1    3192    3202    3201    5719    3931    3930+
+           3929     949     838     837
CTETRA      2271       1    3512    6088    6098    6099     965    7710+
+            569     568    7712    7711
CTETRA      2272       1    3241    3251    3250    5769    4068    4067+
+           4066     346    1934    1932
CTETRA      2273       1    3685    6295    6305    6306    2770    8293+
+            422    2406    8295    8294
CTETRA      2274       1    3169    5671    5670    5682     400    6504+
+            763     765    6537    6536
CTETRA      2275       1    3171    3172    3181      24    3848    3875+
+           3874    2650    2652    2631
CTETRA      2276       1    3178    5693    5681      25     771    6567+
+            770    2714    2771    2715
CTETRA      2277       1    3180    5668    5679    5680    1654    6528+
+           2629     463    6530    6529
CTETRA      2278       1    3485    6056    6055    6066    2772    7590+
+           2773    2774    7620    7619
CTETRA      2279       1    3202    5729    3211    5730    2775    2505+
+           3957     840    6671    2776
CTETRA      2280       1    3160    5659    5670    5671    2777    6503+
+           2377     399    6505    6504
CTETRA      2281       1    3503    3504    3513    6087    4770    4797+
+           4796    1570    1577    1571
CTETRA      2282       1    3187    5703    3196    5704     679    1143+
+           3916    1823    6597    1824
CTETRA      2283       1    5681    5693    5692      25    6567    6566+
+           6565    2715    2771    2717
CTETRA      2284       1    3131    5629    3132      20     785    2288+
+           3736    2778    2333    2328
CTETRA      2285       1    3140    3141    3150    5651    3761    3788+
+           3787    2579    2123     531
CTETRA      2286       1    3477    6043    6053    6054     988    7583+
+           2229    2779    7585    7584
CTETRA      2287       1    3485    6065    3494    6066    2780    2781+
+           4744    2774    7618    2782
CTETRA      2288       1    3132    5639    3141      20    2327    2122+
+           3763    2328    2129    2783
CTETRA      2289       1    3142    5639    5638    5650    2784    6414+
+           2785    2786    6447    6446
CTETRA      2290       1    3156    5665    5664    5676     424    6488+
+            414     426    6521    6520
CTETRA      2291       1    3495    3505    3504    6075    4774    4773+
+           4772    2787    2788    2789
CTETRA      2292       1    3141    5639    5650    5651    2122    6447+
+           2378    2123    6449    6448
CTETRA      2293       1    3179    5692      11      25     636     943+
+            872    2716    2717    2790
CTETRA      2294       1    8927    8795    8794    5996    2725    8867+
+           2554    2791    8425    8424
CTETRA      2295       1    3199    5700    5711    5712    2656    6618+
+           2137     370    6620    6619
CTETRA      2296       1    3211    3221    3220    5740    3984    3983+
+           3982    2507    2313    2312
CTETRA      2297       1    8909    8777    8910    3588    1560    1559+
+           9016    5411    2367    5412
CTETRA      2298       1    3209    5721    3218    5722    2104    2329+
+           3978     246    6647     247
CTETRA      2299       1    3208    5711    3209    5722    1899    1900+
+           3951     245    6649     246
CTETRA      2300       1    8925    6007    8793    6018    1359    8426+
+           1551    1360    7483    8429
CTETRA      2301       1    8932    8933    3381    5940    8993    5366+
+           5365    2694    1453    2792
CTETRA      2302       1    8933    8934    8801    5919    8992    1821+
+           2713    2152    2149    8410
CTETRA      2303       1    8932    8933    8800    5930    8993    1452+
+           2693    2793    2723    8412
CTETRA      2304       1    3498    3508    3507    6093    4781    4780+
+           4779    2794    1734    2795
CTETRA      2305       1    8933    5919    8801    5930    2152    8410+
+           2713    2723    7235    8413
CTETRA      2306       1    8933    5929    3372    5940    1450    1451+
+           5363    1453    7265    2037
CTETRA      2307       1    3211    5740    3220    5741    2507    2312+
+           3982     538    6702     536
CTETRA      2308       1    3178    3179      11      25    3867     872+
+            871    2714    2716    2790
CTETRA      2309       1    3496    3497    3506    6074    4751    4778+
+           4777    2796    2797    2798
CTETRA      2310       1    8914    8915    8782    6128    9011    2799+
+           2800    2801    2542    8449
CTETRA      2311       1    3506    6084    3515    6085    2802    2803+
+           4803    2804    7671    2805
CTETRA      2312       1    3606    3607    3616    6225    5055    5082+
+           5081     796     795    1971
CTETRA      2313       1    3588    3589    3598    6203    5005    5032+
+           5031    1284    1985    2806
CTETRA      2314       1    3190    3200    3199      19    3927    3926+
+           3925    1766    1744    2484
CTETRA      2315       1    8909    3596    6183    6194    5476     510+
+           1558    2807     468    7979
CTETRA      2316       1    3219    5753    3228      12    2101    2642+
+           4004     885    1435     886
CTETRA      2317       1    3577    6162    3578    6173     576     575+
+           4976     554    7920     555
CTETRA      2318       1    8909    3597    8776    6204    5414    2463+
+           2366     789     791    8529
CTETRA      2319       1    3526    6115    6125    6126    1419    7787+
+           2808    1421    7789    7788
CTETRA      2320       1    8907    8774    8775    6226     832    8887+
+           2169    2809    8525    8526
CTETRA      2321       1    8907    8775    3606    6226    2169    2171+
+           5415    2809    8526     799
CTETRA      2322       1    8909    6183    8776    6194    1558    8460+
+           2366    2807    7979    8461
CTETRA      2323       1    3255    3265    3264    5796    4106    4105+
+           4104     710    2051     711
CTETRA      2324       1    8919    8787    3498    6094    1055    1221+
+           5391    1851    8550    2264
CTETRA      2325       1    8949    5753    8817      12    2643    8611+
+           2362    2364    1435    1434
CTETRA      2326       1    3536    6135    3545    6136     989     991+
+           4885    2810    7816    2343
CTETRA      2327       1    3530    3540    3539    6131    4871    4870+
+           4869    2417     549    2199
CTETRA      2328       1    8944    8945    3273    5808    8981    5342+
+           5341    1118     857     878
CTETRA      2329       1    3474    6046    3475    6056    2738    2811+
+           4689    2739    7592    2812
CTETRA      2330       1    3678    3687    6314    6324    5279    2105+
+           1065     367     782    8348
CTETRA      2331       1    3524    6096    6106    6107    2813    7732+
+             50    2155    7734    7733
CTETRA      2332       1    3565    6155    3566    6165     952    2814+
+           4942    2331    7899    1401
CTETRA      2333       1    8950    8817    5742      12    2363    8612+
+           2815     884    1434    1436
CTETRA      2334       1    3546    6135    6134    6145     990    7813+
+           2450    1567    7843    7842
CTETRA      2335       1    3528    6123    3537    6124    2225    2816+
+           4863    2299    7782     654
CTETRA      2336       1    3557    3567    3566    6164    4946    4945+
+           4944    1979    1713    1402
CTETRA      2337       1    3556    3566    3565    6155    4943    4942+
+           4941    2817    2814     952
CTETRA      2338       1    3263    5776    5787    5788    2818    6832+
+           1644    1639    6834    6833
CTETRA      2339       1    3199    3200    5700      19    3926    1743+
+           2656    2484    1744    1746
CTETRA      2340       1    3199    5711    3208    5712    2137    1899+
+           3950     370    6619     371
CTETRA      2341       1    3170    3171    5669      23    3845     123+
+           2113    2596    2819    2597
CTETRA      2342       1    8945    3264    3273    5808    5339    4129+
+           5342     857     979     878
CTETRA      2343       1    8944    8812    8945    5808    1117     856+
+           8981    1118    8601     857
CTETRA      2344       1    3577    6163    6162    6173     546    7891+
+            576     554    7921    7920
CTETRA      2345       1    8945    5787    8813    5798    1643    8386+
+            690     818    6863    8389
CTETRA      2346       1    3684    3685    3694    6306    5273    5300+
+           5299    1948    2406    1949
CTETRA      2347       1    5658    5670    5669      23    6502    6501+
+           6500    2820    2598    2597
CTETRA      2348       1    3199    3200    3209    5711    3926    3953+
+           3952    2137    2488    1900
CTETRA      2349       1    8898    3695    3686    6315    5454    5303+
+           5455    2458    2460    2753
CTETRA      2350       1    3161    5670    5658      23    2821    6502+
+           2822    2823    2598    2820
CTETRA      2351       1    3169    5670    3170    5681     763    2595+
+           3842     764    6534     835
CTETRA      2352       1    3168    5672    3169    5683     829     402+
+           3839     390    6540     391
CTETRA      2353       1    3567    3577    3576    6174    4974    4973+
+           4972    1714    2194    1711
CTETRA      2354       1    3585    6185    3595    6196     925    1973+
+           5024     926    7985    2114
CTETRA      2355       1    8900    8767    6303    6314    1967    8511+
+            476    1968    8510    8319
CTETRA      2356       1    3673    3674    3683    6297    5242    5269+
+           5268    2824    1678    1677
CTETRA      2357       1    3674    6296    3684    6307    1683    2182+
+           5271    1679    8298    1952
CTETRA      2358       1    3598    3608    3607    6224    5059    5058+
+           5057    2825    1970     165
CTETRA      2359       1    3160    3161    3170    5670    3817    3844+
+           3843    2377    2821    2595
CTETRA      2360       1    3664    3674    3673    6297    5243    5242+
+           5241    2826    1678    2824
CTETRA      2361       1    3675    3684    6296    6306    5272    2182+
+           2179    2405    1948    8296
CTETRA      2362       1    3616    3626    3625    6246    5109    5108+
+           5107      97      98      99
CTETRA      2363       1    3634    3644    3643    6268    5159    5158+
+           5157    2827    2828    2556
CTETRA      2364       1    3634    6257    3644    6268     892     894+
+           5159    2827    8189    2828
CTETRA      2365       1    3643    3644    3653    6268    5158    5185+
+           5184    2556    2828    2557
CTETRA      2366       1    3631    3632    3641    6239    5126    5153+
+           5152    2829    2830    2831
CTETRA      2367       1    3637    6244    6243    6254    1689    8120+
+           1554     887    8150    8149
CTETRA      2368       1    8687    8707    8708    6323    3089    8711+
+           3090     191    8500    8501
CTETRA      2369       1    3161    3171    3170      23    3846    3845+
+           3844    2823    2819    2596
CTETRA      2370       1    3623    6227    3632    6228     108    2832+
+           5128     113    8074    2573
CTETRA      2371       1    3622    6228    3632    6239     114    2573+
+           5127    2833    8106    2830
CTETRA      2372       1    3615    6226    6236    6237     798    8100+
+            801     805    8102    8101
CTETRA      2373       1    3160    3170    3169    5670    3843    3842+
+           3841    2377    2595     763
CTETRA      2374       1    3526    6125    3535    6126    2808    2834+
+           4857    1421    7788    2835
CTETRA      2375       1    3555    6146    6145    6156    1565    7844+
+           2836     953    7874    7873
CTETRA      2376       1    3581    3582    3591    6190    4986    5013+
+           5012    2586    2426    2427
CTETRA      2377       1    3592    6189    6199    6200    1667    7995+
+            930    2215    7997    7996
CTETRA      2378       1    3169    3179    3178    5681    3868    3867+
+           3866     764     836     770
CTETRA      2379       1    3618    6223    6222    6233     518    8061+
+           1248    1250    8091    8090
CTETRA      2380       1    3599    6201    3600    6212    2519    1255+
+           5036    2429    8031     514
CTETRA      2381       1    3112    5608    3113      21    2275    1942+
+           3704    2280    2279    2837
CTETRA      2382       1    3548    6132    6142    6143    2428    7834+
+           2304    1725    7836    7835
CTETRA      2383       1    3571    6181    6180    6191     534    7943+
+            533    1257    7973    7972
CTETRA      2384       1    3598    6213    3608    6224    2838    1969+
+           5059    2825    8065    1970
CTETRA      2385       1    3113    5608    5619      21    1942    6357+
+           1944    2837    2279    2337
CTETRA      2386       1    3520    6110    3530    6111     966     968+
+           4843     559    7745     560
CTETRA      2387       1    3545    6136    6135    6146    2343    7816+
+            991    1566    7846    7845
CTETRA      2388       1    3608    3618    3617    6223    5087    5086+
+           5085     516     518    1884
CTETRA      2389       1    3519    6101    3520    6112     977    1994+
+           4814     978    7749    1995
CTETRA      2390       1    3493    3503    3502    6078    4768    4767+
+           4766    2415    2416     171
CTETRA      2391       1    3502    6078    6088    6089     171    7682+
+            963     172    7684    7683
CTETRA      2392       1    3601    3602    3611    6209    5042    5069+
+           5068    2424    2839    2550
CTETRA      2393       1    3519    6102    6112    6113     973    7750+
+            978     975    7752    7751
CTETRA      2394       1    3629    3638    6242    6252    5144     777+
+            776    1615    1546    8144
CTETRA      2395       1    3610    6211    6221    6222    1245    8057+
+           1247    2425    8059    8058
CTETRA      2396       1    3593    6198    6197    6208     928    7990+
+            938    2840    8020    8019
CTETRA      2397       1    3518    3528    3527    6113    4837    4836+
+           4835     974     976    2298
CTETRA      2398       1    3601    6210    3610    6211    1260    1246+
+           5066    1261    8027    1245
CTETRA      2399       1    3613    6207    6206    6217     918    8015+
+            118     109    8045    8044
CTETRA      2400       1    3617    6235    6234    6245     101    8095+
+            496     498    8125    8124
CTETRA      2401       1    3528    6113    6112    6123     976    7751+
+           2210    2225    7781    7780
CTETRA      2402       1    3664    3673    6287    6297    5241    2841+
+           2842    2826    2824    8271
CTETRA      2403       1    3600    3610    3609    6211    5065    5064+
+           5063     512    1245     513
CTETRA      2404       1    3507    3508    3517    6104    4780    4807+
+           4806    2843    2844    2441
CTETRA      2405       1    3498    3499    3508    6093    4755    4782+
+           4781    2794    1733    1734
CTETRA      2406       1    3626    3635    6246    6256    5135     100+
+             98     915    2187    8156
CTETRA      2407       1    3507    6093    3508    6104    2795    1734+
+           4780    2843    7727    2844
CTETRA      2408       1    3636    6244    3637    6255    2112    1689+
+           5139    1685    8152    1690
CTETRA      2409       1    3635    6246    6256    6257     100    8156+
+           2187     893    8158    8157
CTETRA      2410       1    3508    6093    6092    6103    1734    7695+
+           1729    1731    7725    7724
CTETRA      2411       1    3619    6232    3628    6233     505     520+
+           5116    1251    8089     519
CTETRA      2412       1    8919    6073    8786    6084    1057    8440+
+           1056    1853    7669    8441
CTETRA      2413       1    3498    6093    3507    6094    2794    2795+
+           4779    2264    7697    1852
CTETRA      2414       1    8918    3506    8919    6084    5495    5496+
+           9007    1144    2802    1853
CTETRA      2415       1    3619    6231    3629    6232     504    2410+
+           5118     505    8086    1239
CTETRA      2416       1    3113    5619    3122      21    1944    2357+
+           3703    2837    2337    2359
CTETRA      2417       1    3629    6232    6231    6242    1239    8086+
+           2410     776    8116    8115
CTETRA      2418       1    8919    3506    3497    6073    5496    4778+
+           5497    1057    2845    1220
CTETRA      2419       1    8919    3506    6073    6084    5496    2845+
+           1057    1853    2802    7669
CTETRA      2420       1    3657    6273    3667    6284     501     493+
+           5224      77    8233      78
CTETRA      2421       1    3507    6093    6104    6105    2795    7727+
+           2843      46    7729    7728
CTETRA      2422       1    8918    3515    3506    6084    5494    4803+
+           5495    1144    2803    2802
CTETRA      2423       1    3476    3477    3486    6054    4695    4722+
+           4721    2846    2779     766
CTETRA      2424       1    3467    3477    3476    6043    4696    4695+
+           4694     986     988    2847
CTETRA      2425       1    3621    3622    3631    6229    5098    5125+
+           5124    2711    2848    2849
CTETRA      2426       1    3476    6043    3477    6054    2847     988+
+           4695    2846    7585    2779
CTETRA      2427       1    3456    3457    3466    6034    4639    4666+
+           4665    2606    2236    2238
CTETRA      2428       1    3644    6257    6267    6268     894    8187+
+           2183    2828    8189    8188
CTETRA      2429       1    3465    6035    6045    6046    2850    7561+
+           2765    2742    7563    7562
CTETRA      2430       1    3465    6045    3475    6046    2765    2767+
+           4690    2742    7562    2811
CTETRA      2431       1    3466    6044    3476    6045    2233    2235+
+           4693    2766    7559    2851
CTETRA      2432       1    3438    6013    3447    6014    1026     238+
+           4613    1018    7471    1019
CTETRA      2433       1    3435    6005    6016    6017    2852    7479+
+           2853    2553    7481    7480
CTETRA      2434       1    8687    8708    3688    6323    3090    1064+
+           5439     191    8501     192
CTETRA      2435       1    8906    6216    8773    6227     106    8466+
+           2202     107    8072    8467
CTETRA      2436       1    3436    6005    6004    6016    1036    7446+
+           2241    2854    7479    7478
CTETRA      2437       1    3119    5611    3128    5612    1490    1383+
+           3727     388    6327     389
CTETRA      2438       1    3651    3652    3661    6280    5180    5207+
+           5206    2397    2855    2856
CTETRA      2439       1    3660    6292    6291    6302    1965    8256+
+           1961    1217    8286    8285
CTETRA      2440       1    3435    6005    3436    6016    2852    1036+
+           4580    2853    7479    2854
CTETRA      2441       1    3435    3436    3445    6016    4580    4607+
+           4606    2853    2854    2525
CTETRA      2442       1    3416    5974    3425    5975    2857    2254+
+           4553    2247    7360    2248
CTETRA      2443       1    8899    3678    3687    6314    5431    5279+
+           5434    1150    1065    2105
CTETRA      2444       1    3424    5976    5975    5987    2527    7363+
+           2612    2858    7396    7395
CTETRA      2445       1    8772    6248    3633    6259    8521    2086+
+            810    8520    8164    2092
CTETRA      2446       1    3662    3671    6290    6300    5235    2674+
+           2859    2860    2861    8280
CTETRA      2447       1    3651    3660    6281    6291    5204     758+
+            757    2398    1961    8255
CTETRA      2448       1    3672    6289    6299    6300    2471    8277+
+           2474    2862    8279    8278
CTETRA      2449       1    3644    3653    6268    6278    5185    2557+
+           2828    2570    2563    8218
CTETRA      2450       1    3658    3659    3668    6272    5201    5228+
+           5227    1974     936    2282
CTETRA      2451       1    3424    5975    3425    5986    2612    2248+
+           4551    2746    7393    2252
CTETRA      2452       1    3423    3424    3433    5987    4548    4575+
+           4574    2863    2858    2452
CTETRA      2453       1    3664    6287    6286    6297    2842    8241+
+           1626    2826    8271    8270
CTETRA      2454       1    3384    3394    3393    5947    4465    4464+
+           4463    1079     624     623
CTETRA      2455       1    3664    6277    6276    6287    1618    8213+
+           2562    2842    8243    8242
CTETRA      2456       1    3682    6309    3691    6310    2864    2865+
+           5291     657    8306     658
CTETRA      2457       1    3394    5945    3395    5956    1068    1067+
+           4467    2613    7309    2257
CTETRA      2458       1    3392    3402    3401    5959    4487    4486+
+           4485    1372     633    1373
CTETRA      2459       1    3373    5938    3382    5939    2464    1785+
+           4432    1999    7260    2700
CTETRA      2460       1    3374    5937    3383    5938    1804    1780+
+           4435    2615    7257    2465
CTETRA      2461       1    3671    6300    3681    6311    2861    1540+
+           5262    1537    8310    1541
CTETRA      2462       1    3384    5937    5936    5948    2260    7254+
+           1078    2034    7287    7286
CTETRA      2463       1    3681    3690    6311    6321    5288    2866+
+           1541    2867    2387    8339
CTETRA      2464       1    3670    3671    3680    6301    5233    5260+
+           5259    1533    1536    1534
CTETRA      2465       1    3681    6310    3691    6321     656     658+
+           5290    2867    8338    2569
CTETRA      2466       1    8707    3689    6322    6323     898     244+
+           8499    8500     193    8343
CTETRA      2467       1    3680    6311    3690    6322    1538    2866+
+           5287     243    8341     348
CTETRA      2468       1    3366    5915    5914    5926    1808    7192+
+            634     635    7225    7224
CTETRA      2469       1    3672    3673    3682    6299    5239    5266+
+           5265    2474    2868    2869
CTETRA      2470       1    3375    5925    5936    5937     276    7253+
+            278    1805    7255    7254
CTETRA      2471       1    8685    3691    8704    6320    5444    2870+
+           3106    2376    2567    8494
CTETRA      2472       1    3376    5924    5935    5936    1803    7250+
+           1799     279    7252    7251
CTETRA      2473       1    8686    8706    8707    6322    3099    8716+
+           3100     899    8498    8499
CTETRA      2474       1    3394    5957    3403    5958    1365    2031+
+           4491     626    7313    2409
CTETRA      2475       1    8686    8707    8687    3689    3100    3089+
+           8694    5441     898    5440
CTETRA      2476       1    5613    5624       6       7    6373    1933+
+            454     457    1905     458
CTETRA      2477       1    8952    3209    5710    5721    5562    1901+
+           1504    2541    2104    6646
CTETRA      2478       1    3244    5755    3245    5766    2654     733+
+           4051    2871    6773    2054
CTETRA      2479       1    3351    3352    3361    5899    4348    4375+
+           4374    2872    1393    1793
CTETRA      2480       1    3245    5765    3254    5766    2485    2058+
+           4078    2054    6771    2057
CTETRA      2481       1    3352    5898    3361    5899    1926    1306+
+           4375    1393    7146    1793
CTETRA      2482       1    8951    3218    5721    5732    5560    2329+
+           2540    2873    2874    6677
CTETRA      2483       1    8935    3362    5897    5908    5528    1425+
+           1387    1389    2147    7173
CTETRA      2484       1    3332    3333    3342    5878    4295    4322+
+           4321    2227    1848    2266
CTETRA      2485       1    8953    5709    3192    5720      38      31+
+           5323    1507    6645     950
CTETRA      2486       1    3128    5612    5611    5623     389    6327+
+           1383    1166    6370    6369
CTETRA      2487       1    3192    5709    5708    5720      31    6612+
+            948     950    6645    6644
CTETRA      2488       1    3341    5889    3350    5890    1454    1456+
+           4344    2271    7121    2875
CTETRA      2489       1    3340    5879    3341    5890    2686    2270+
+           4317    2876    7123    2271
CTETRA      2490       1    3331    3332    3341    5879    4292    4319+
+           4318    2685     307    2270
CTETRA      2491       1    8726    8727    8746    5604    8737    8667+
+           8669    2077     447    8650
CTETRA      2492       1    3313    5858    3322    5859     686    1311+
+           4266    1095    7034    1096
CTETRA      2493       1    3217    5723    5722    5734     740    6650+
+            744     160    6683    6682
CTETRA      2494       1    8950    8951    3219    5742    8975    5330+
+           5329    2815    1444    1445
CTETRA      2495       1    3310    5850    3311    5861    2284    1109+
+           4233    2683    7042    2679
CTETRA      2496       1    3310    3311    3320    5861    4233    4260+
+           4259    2683    2679    2680
CTETRA      2497       1    3280    3290    3289    5810    4177    4176+
+           4175     330     332    1870
CTETRA      2498       1    3298    5821    3299    5832    2676    2636+
+           4201    2877    6959    2878
CTETRA      2499       1    3298    3299    3308    5832    4201    4228+
+           4227    2877    2878    2879
CTETRA      2500       1    8929    3408    3417    5984    5371    4529+
+           5374    2880    2721    2722
CTETRA      2501       1    3397    5942    3398    5953    1044    1613+
+           4476    1045    7300    2881
CTETRA      2502       1    3290    5820    3299    5821     866    2882+
+           4203    2635    6926    2636
CTETRA      2503       1    8942    8810    8809    5831     867    8852+
+           2663    2098    8395    8394
CTETRA      2504       1    3250    5771    5770    5782     174    6786+
+            360    1882    6819    6818
CTETRA      2505       1    3248    3258    3257    5783    4087    4086+
+           4085    1132    1414     714
CTETRA      2506       1    3258    5782    3259    5793    1415    1883+
+           4089    2080    6850    2309
CTETRA      2507       1    8930    8931    3399    5962    8995    5370+
+           5369    2762    2734    2735
CTETRA      2508       1    3250    5770    5781    5782     360    6816+
+           1880    1882    6818    6817
CTETRA      2509       1    3215    3216    3225    5735    3970    3997+
+           3996    2109     689     716
CTETRA      2510       1    3215    5735    3224    5736    2109    1812+
+           3994    2883    6687    1344
CTETRA      2511       1    3370    5910    5909    5921    1305    7177+
+           1794    2884    7210    7209
CTETRA      2512       1    3114    5607    5606    5618     460    6354+
+            874     876    6353    6352
CTETRA      2513       1    8906    8774    8773    6216     831    8888+
+           2202     106    8465    8466
CTETRA      2514       1    3217    5722    5733    5734     744    6680+
+            158     160    6682    6681
CTETRA      2515       1    3215    5725    5724    5736     750    6656+
+           2065    2883    6689    6688
CTETRA      2516       1    3601    6209    3611    6210    2424    2550+
+           5068    1260    8024    2706
CTETRA      2517       1    3216    5723    5734    5735     688    6683+
+           2322     689    6685    6684
CTETRA      2518       1    3551    6129    6128    6139    1029    7795+
+           2224    2885    7825    7824
CTETRA      2519       1    3544    6137    6136    6147     998    7819+
+           2342    2340    7849    7848
CTETRA      2520       1    3525    6115    6126    6127    1418    7789+
+           1420    1530    7791    7790
CTETRA      2521       1    3589    3598    6203    6213    5032    2806+
+           1985    1986    2838    8035
CTETRA      2522       1    3196    5703    5714    5715    1143    6627+
+           1904    1465    6629    6628
CTETRA      2523       1    3169    5671    5682    5683     400    6537+
+            765     391    6539    6538
CTETRA      2524       1    3195    5705    5716    5717    1352    6633+
+           2334     274    6635    6634
CTETRA      2525       1    3593    3594    3603    6197    5020    5047+
+           5046     938    2213    2212
CTETRA      2526       1    3508    6103    3517    6104    1731    2442+
+           4807    2844    7726    2441
CTETRA      2527       1    3175    5696    3184    5697    1488    2886+
+           3882    1489    6578    2887
CTETRA      2528       1    8913    3561    8780    6160    5406    1993+
+           1992    1989    1198    8537
CTETRA      2529       1    3543    3544    3553    6148    4880    4907+
+           4906     823     999    2341
CTETRA      2530       1    3516    6115    3525    6116    2888    1418+
+           4829    2889    7759      52
CTETRA      2531       1    3535    6126    6136    6137    2835    7818+
+           2890    2891    7820    7819
CTETRA      2532       1    3166    5675    5674    5686     435    6516+
+           1003    1004    6549    6548
CTETRA      2533       1    3112    3113    3122      21    3704    3703+
+           3702    2280    2837    2359
CTETRA      2534       1    3692    6308    6318    6319    2892    8330+
+           2893    2894    8332    8331
CTETRA      2535       1    3174    5686    3175    5697    2585    2355+
+           3855    2895    6580    1489
CTETRA      2536       1    3140    3141    5640      20    3761    2121+
+           1483    2896    2783    2128
CTETRA      2537       1    8685    8706    8686    3690    3097    3099+
+           8693    5443    1216    5442
CTETRA      2538       1    3174    5686    5697    5698    2585    6580+
+           2895    2897    6582    6581
CTETRA      2539       1    8955    3174    5687      15    5319    1269+
+             33    1841    1270    1264
CTETRA      2540       1    3165    5675    3166    5686     436     435+
+           3830    2584    6549    1004
CTETRA      2541       1    3156    5664    5675    5676     414    6518+
+            416     426    6520    6519
CTETRA      2542       1    8954    3182    8955    5688    5567    5568+
+           8971    1508    2352    1062
CTETRA      2543       1    3665    6286    6285    6296    1625    8238+
+           1610    1682    8268    8267
CTETRA      2544       1    3683    3684    3693    6307    5270    5297+
+           5296    1680    1952    2898
CTETRA      2545       1    8912    3560    8913    6150    5483    5484+
+           9013    2666     612    2899
CTETRA      2546       1    8955    3182    3173    5677    5568    3878+
+           5569    1207    2418    1241
CTETRA      2547       1    8910    3587    3578    6172    5478    5003+
+           5479    2365     558     557
CTETRA      2548       1    3623    6217    6216    6227     111    8043+
+            105     108    8073    8072
CTETRA      2549       1    8911    3569    8779    6161    5481    2665+
+           1211    2900     841    8455
CTETRA      2550       1    3129    5632    5643       8     441    6428+
+            446     783     641     567
CTETRA      2551       1    3154    5645    3155    5656    1494    1181+
+           3801    1914    6463    1499
CTETRA      2552       1    8906    8907    8774    6216    9019     832+
+            831     106     815    8465
CTETRA      2553       1    3143    3144    3153    5647    3770    3797+
+           3796    2901    2616    2476
CTETRA      2554       1    3140    5640    5629      20    1483    6419+
+            786    2896    2128    2333
CTETRA      2555       1    3566    3575    6165    6175    4969    2332+
+           1401    1403     129    7927
CTETRA      2556       1    3144    5646    3153    5647    2339    2902+
+           3797    2616    6436    2476
CTETRA      2557       1    8912    3570    8779    6171    5408    2381+
+           2481    2461    2380    8535
CTETRA      2558       1    3595    6195    3604    6196    1557     920+
+           5050    2114    7984     919
CTETRA      2559       1    3594    3604    3603    6207    5049    5048+
+           5047     923     917     916
CTETRA      2560       1    8912    3561    3570    6171    5405    4954+
+           5408    2461    1200    2380
CTETRA      2561       1    8914    6128    8781    6139    2801    8450+
+           2903    2904    7824    8451
CTETRA      2562       1    8910    8778    3579    6193    2905    2906+
+           5409    2907    8532    2908
CTETRA      2563       1    8782    6138    3543    6149    8541     822+
+           2909    8540    7854    2374
CTETRA      2564       1    3584    3594    3593    6197    5021    5020+
+           5019     937    2213     938
CTETRA      2565       1    3144    3154    3153    5646    3799    3798+
+           3797    2339    1493    2902
CTETRA      2566       1    3434    5986    5985    5997    2253    7391+
+           2251    2748    7424    7423
CTETRA      2567       1    3134    5626    5625    5637    1935    6377+
+           1173    1175    6410    6409
CTETRA      2568       1    3123    3124    3133    5628    3709    3741+
+           3740    2318    2660    2589
CTETRA      2569       1    3132    3142    3141    5639    3765    3764+
+           3763    2327    2784    2122
CTETRA      2570       1    8930    8931    8798    5952    8995    2910+
+           2670    2760    2728    8416
CTETRA      2571       1    3132    3133    3142    5639    3739    3766+
+           3765    2327    2590    2784
CTETRA      2572       1    3403    5967    3412    5968    2614     606+
+           4516    2026    7341    2027
CTETRA      2573       1    3125    5626    3134       4    1939    1935+
+           3744    2347    1937    1936
CTETRA      2574       1    3409    3419    3418    5982    4534    4533+
+           4532    1909     253    2504
CTETRA      2575       1    5626    5638    5637       4    6412    6411+
+           6410    1937    2661    1938
CTETRA      2576       1    3133    5628    5627    5639    2589    6383+
+           2659    2590    6416    6415
CTETRA      2577       1    8932    8799    8800    5940    2911    8862+
+           2693    2694    8576    8577
CTETRA      2578       1    8708    3688    6323    6324    1064     192+
+           8501    8502     368    8346
CTETRA      2579       1    8685    8705    8706    6321    3098    8715+
+           3097    2568    8496    8497
CTETRA      2580       1    3399    5961    5972    5973    2316    7355+
+           1911    2912    7357    7356
CTETRA      2581       1    8930    5962    3399    5973    2762    2735+
+           5369    2913    7358    2912
CTETRA      2582       1    8929    3416    3407    5963    5516    4528+
+           5517    2914    2915    2916
CTETRA      2583       1    8685    6320    8705    6321    2376    8495+
+           3098    2568    8337    8496
CTETRA      2584       1    8728    3115    3114    5606    5594    3712+
+           5593     466    1945     874
CTETRA      2585       1    8727    8747    5605    5606    8668    8648+
+            448     465    8649    6350
CTETRA      2586       1    8949    8950    8817    5743    8976    2363+
+           2362    2917    2918    8378
CTETRA      2587       1    8948    3245    5754    5765    5554     731+
+           2919    2384    2485    6770
CTETRA      2588       1    3255    5786    5785    5797    2361    6829+
+           2360     712    6862    6861
CTETRA      2589       1    8944    8945    8812    5798    8981     856+
+           1117     817     818    8388
CTETRA      2590       1    8946    3263    5776    5787    5550    2818+
+           1641    1645    1644    6832
CTETRA      2591       1    3263    5777    5776    5788     843    6802+
+           2818    1639    6835    6834
CTETRA      2592       1    8908    8776    3597    6215    2462    2463+
+           5413    2168    8528    1701
CTETRA      2593       1    3273    3274    3283    5818    4130    4157+
+           4156     939    1035     846
CTETRA      2594       1    8728    8748    5606    5607    8677    8646+
+            466     459    8647    6354
CTETRA      2595       1    3277    5813    3286    5814    2920    1296+
+           4166    2500    6907    2230
CTETRA      2596       1    3291    5830    5829    5841     859    6953+
+            858    2677    6986    6985
CTETRA      2597       1    8948    8949    3237    5764    8977    5334+
+           5333    1189    2386     722
CTETRA      2598       1    8949    8816    5753    5764    2385    8610+
+           2643    2386    8609    6769
CTETRA      2599       1    8947    3254    3245    5765    5552    4078+
+           5553    2921    2058    2485
CTETRA      2600       1    3262    3263    3272    5788    4101    4128+
+           4127    1332    1639    1054
CTETRA      2601       1    3552    6149    6159    6160    2375    7883+
+           2219    1990    7885    7884
CTETRA      2602       1    8946    8813    8814    5786     691    8848+
+           1640    2664    8604    8605
CTETRA      2603       1    8683    8702    8703    6318    3108    8721+
+           3109    2922    8490    8491
CTETRA      2604       1    8684    3692    8703    6319    5446    2923+
+           3110    2924    2894    8492
CTETRA      2605       1    8911    3578    3569    6161    5480    4978+
+           5481    2900     870     841
CTETRA      2606       1    8912    8779    8780    6171    2481    8882+
+           1991    2461    8535    8536
CTETRA      2607       1    8948    8815    5764    5775    1187    8608+
+           1189    2388    8607    6800
CTETRA      2608       1    8776    6204    3597    6215    8529     791+
+           2463    8528    8040    1701
CTETRA      2609       1    3115    5616    3124    5617    1503    2338+
+           3711    1946    6347    2662
CTETRA      2610       1    3115    5615    3124    5616    2344      91+
+           3711    1503    6343    2338
CTETRA      2611       1    3124    5615    3125       4      91    2345+
+           3713      92      94    2347
CTETRA      2612       1    8961    8962    3120    5621    8964    5308+
+           5307      68      69    1553
CTETRA      2613       1    3228    5752    5763    5764     723    6766+
+            719     721    6768    6767
CTETRA      2614       1    3136    5635    3145       6    1925    1185+
+           3775    1835     185    1186
CTETRA      2615       1    8908    6194    8775    6205    2925    8462+
+           2170     924    8010    8463
CTETRA      2616       1    3588    3598    3597    6214    5031    5030+
+           5029    1703    2161    1702
CTETRA      2617       1    8948    8949    8816    5754    8977    2385+
+           1188    2919    2926    8380
CTETRA      2618       1    3596    6194    3605    6195     468    2927+
+           5053     469    7981     115
CTETRA      2619       1    3244    3245    3254    5766    4051    4078+
+           4077    2871    2054    2057
CTETRA      2620       1    8949    8817    8816    5754    2362    8845+
+           2385    2926    8381    8380
CTETRA      2621       1    8948    5754    8816    5765    2919    8380+
+           1188    2384    6770    8383
CTETRA      2622       1    3235    5744    3236    5755     760     745+
+           4026    2510    6742     732
CTETRA      2623       1    8947    8815    8948    5775    1213    1187+
+           8978    1953    8607    2388
CTETRA      2624       1    8725    8726    8745    5603    8736    8670+
+           8659     449     581    8652
CTETRA      2625       1    8946    8814    8947    5786    1640    1214+
+           8979    2664    8605    2928
CTETRA      2626       1    3127    3137    3136    5623    3752    3751+
+           3750    1158    2176    1159
CTETRA      2627       1    8950    8817    8818    5742    2363    8844+
+           2929    2815    8612    8613
CTETRA      2628       1    8727    3116    3115    5604    5592    3716+
+           5591     447    2078    1502
CTETRA      2629       1    3151    3152    3161    5659    3792    3819+
+           3818    2529    2930    2931
CTETRA      2630       1    3144    5635    5646    5647     182    6435+
+           2339    2616    6437    6436
CTETRA      2631       1    3131    3140    5629      20    3760     786+
+            785    2778    2896    2333
CTETRA      2632       1    8908    3596    8909    6194    5475    5476+
+           9017    2925     468    2807
CTETRA      2633       1    5624    5636    5635       6    6406    6405+
+           6404    1933     186     185
CTETRA      2634       1    3681    6311    6310    6321    1541    8309+
+            656    2867    8339    8338
CTETRA      2635       1    3691    6310    6320    6321     658    8336+
+           2567    2569    8338    8337
CTETRA      2636       1    8685    8706    3690    6321    3097    1216+
+           5443    2568    8497    2387
CTETRA      2637       1    3141    5650    3150    5651    2378     522+
+           3788    2123    6448     531
CTETRA      2638       1    8726    8745    5603    5604    8670    8652+
+            581    2077    8653    6342
CTETRA      2639       1    8727    5604    3115    5605     447    1502+
+           5591     448    6346    1501
CTETRA      2640       1    8726    3116    8727    5604    5589    5592+
+           8737    2077    2078     447
CTETRA      2641       1    3690    6311    6321    6322    2866    8339+
+           2387     348    8341    8340
CTETRA      2642       1    3661    6280    6290    6291    2856    8252+
+           2673    2390    8254    8253
CTETRA      2643       1    3670    6291    6301    6302    1962    8283+
+           1533    1218    8285    8284
CTETRA      2644       1    3155    5655    3164    5656     429     428+
+           3828    1499    6461    1915
CTETRA      2645       1    3662    6279    6289    6290    2932    8249+
+           2933    2859    8251    8250
CTETRA      2646       1    8898    8766    8899    6325    1226    1148+
+           9027    1069    8508    1070
CTETRA      2647       1    8903    8771    8904    3642    1182    1523+
+           9022    5423    2090    5424
CTETRA      2648       1    3137    5622    5633    5634    2173    6398+
+           1868    2172    6400    6399
CTETRA      2649       1    3133    3134    3143    5637    3742    3769+
+           3768    2934    1175    2593
CTETRA      2650       1    3642    3652    3651    6280    5181    5180+
+           5179    2935    2855    2397
CTETRA      2651       1    3182    5689    3191      22    2353    1765+
+           3903    2582    2576    2621
CTETRA      2652       1    3642    3651    6270    6280    5179    1265+
+           2682    2935    2397    8224
CTETRA      2653       1    3631    6240    6239    6250    2439    8108+
+           2829    2936    8138    8137
CTETRA      2654       1    3147    3148    3157    5664    3780    3807+
+           3806     437    1830     415
CTETRA      2655       1    3131    3141    3140      20    3762    3761+
+           3760    2778    2783    2896
CTETRA      2656       1    3180    5680    5679    5691     463    6529+
+           2629     485    6562    6561
CTETRA      2657       1    3650    6250    6260    6261    2937    8166+
+           1520     904    8168    8167
CTETRA      2658       1    3148    5663    3157    5664     410     406+
+           3807    1830    6485     415
CTETRA      2659       1    8904    3633    3642    6259    5421    5154+
+           5424    1524    2092    2091
CTETRA      2660       1    5624    5636       6       7    6406     186+
+           1933    1905    1897     458
CTETRA      2661       1    5678    5679    5690      14    6526    6559+
+           6558     913     912    2620
CTETRA      2662       1    8902    3650    6260    6271    5463    1520+
+           1091    1410    1411    8196
CTETRA      2663       1    3641    6239    6249    6250    2831    8135+
+           1522    2938    8137    8136
CTETRA      2664       1    3139    5652    3148    5653     131     409+
+           3782    1664    6454    1829
CTETRA      2665       1    3138    3148    3147    5653    3781    3780+
+           3779    1663    1829    1362
CTETRA      2666       1    3621    3630    6230    6240    5122    2407+
+           2578    2939    2403    8110
CTETRA      2667       1    3676    6284    6294    6295     490    8262+
+            980     492    8264    8263
CTETRA      2668       1    3676    6294    3686    6305     980    2754+
+           5277     420    8292     421
CTETRA      2669       1    3161    5658    3162      23    2822    2940+
+           3820    2823    2820    2941
CTETRA      2670       1    3609    3610    3619    6222    5064    5091+
+           5090    2528    2425    1249
CTETRA      2671       1    3618    3619    3628    6233    5089    5116+
+           5115    1250    1251     519
CTETRA      2672       1    3619    6222    6232    6233    1249    8088+
+            505    1251    8090    8089
CTETRA      2673       1    5688    5689    5700      19    6554    6587+
+           6586    1866    1767    1746
CTETRA      2674       1    3187    5692    5703    5704     677    6596+
+            679    1823    6598    6597
CTETRA      2675       1    3170    3171    3180    5680    3845    3872+
+           3871     462    1655     463
CTETRA      2676       1    3572    6169    6179    6180     947    7939+
+            138    1674    7941    7940
CTETRA      2677       1    3171    5669    5668    5680     123    6498+
+           1653    1655    6531    6530
CTETRA      2678       1    3591    6200    3600    6201    2214    1256+
+           5038    2942    7999    1255
CTETRA      2679       1    3580    6191    3590    6202     525     527+
+           5009     526    8003     529
CTETRA      2680       1    3223    5747    3232    5748     705    1335+
+           4016    2943    6721    2501
CTETRA      2681       1    8915    3543    8782    6138    5402    2909+
+           2799    2546     822    8541
CTETRA      2682       1    3552    3561    6160    6170    4929    1198+
+           1990    2371    1199    7914
CTETRA      2683       1    3551    6129    6139    6140    1029    7825+
+           2885    2669    7827    7826
CTETRA      2684       1    3541    6129    3550    6130    1027    1697+
+           4900    1692    7798    1292
CTETRA      2685       1    3118    3128    3127    5612    3726    3725+
+           3723     387     389     960
CTETRA      2686       1    3550    6129    3551    6140    1697    1029+
+           4901     620    7827    2669
CTETRA      2687       1    3153    3154    3163    5657    3798    3825+
+           3824    2944    1495    2658
CTETRA      2688       1    3153    3163    3162    5657    3824    3823+
+           3822    2944    2658    2945
CTETRA      2689       1    3138    5653    3147    5654    1663    1362+
+           3779    1398    6457     432
CTETRA      2690       1    3513    6086    3514    6097    1576    2946+
+           4798    1578    7706    1579
CTETRA      2691       1    3504    3514    3513    6086    4799    4798+
+           4797    1575    2946    1576
CTETRA      2692       1    3139    3149    3148    5652    3784    3783+
+           3782     131     133     409
CTETRA      2693       1    3503    6076    3504    6087    2947    2948+
+           4770    1570    7678    1577
CTETRA      2694       1    3202    5718    3203    5729    2638    2949+
+           3933    2775    6670    2640
CTETRA      2695       1    3178    5693    3187    5694     771    1827+
+           3891     772    6569    2036
CTETRA      2696       1    3501    6090    3510    6091     176     178+
+           4788     180    7689     181
CTETRA      2697       1    3193    3194    3203    5718    3908    3935+
+           3934    2637    1156    2949
CTETRA      2698       1    3503    6087    3512    6088    1570    1572+
+           4794     964    7680     965
CTETRA      2699       1    3177    5683    3178    5694    2068     392+
+           3864    2115    6571     772
CTETRA      2700       1    3685    6305    3695    6316     422    2561+
+           5302    2456    8323    2549
CTETRA      2701       1    8819    5731    5720      10    8615    6676+
+           8616     827    2950     828
CTETRA      2702       1    3474    6047    6046    6057    2020    7565+
+           2738    2740    7595    7594
CTETRA      2703       1    3195    5705    5706      17    1352    6603+
+           1351    2131    1350    1349
CTETRA      2704       1    3475    6046    6045    6056    2811    7562+
+           2767    2812    7592    7591
CTETRA      2705       1    3172    5667    3173      16    2571    2951+
+           3851    2547    2572    1242
CTETRA      2706       1    3173    5667    5666      16    2951    6492+
+           1240    1242    2572    1243
CTETRA      2707       1    3474    6057    3483    6058    2740    2011+
+           4713    2022    7596    2023
CTETRA      2708       1    3473    6048    6047    6059     585    7567+
+           2019    2178    7600    7599
CTETRA      2709       1    3189    5701    3198    5702     151    1016+
+           3922     376    6591     373
CTETRA      2710       1    3456    6025    6024    6036    1774    7502+
+           2605    2952    7535    7534
CTETRA      2711       1    3447    6013    6024    6025     238    7501+
+            240    1773    7503    7502
CTETRA      2712       1    8959    8826    5643    5654    1169    8630+
+            564    1170    8629    6459
CTETRA      2713       1    8956    8957    8824    5666    8969    1059+
+           1254    1253    1063    8364
CTETRA      2714       1    3188    3189    3198    5702    3895    3922+
+           3921     372     376     373
CTETRA      2715       1    8929    8797    8796    5974    1955    8865+
+           1954    2953    8421    8420
CTETRA      2716       1    3159    3160    3169    5672    3814    3841+
+           3840     780     401     402
CTETRA      2717       1    8928    5984    3417    5995    1959    2722+
+           5373    2954    7420    2955
CTETRA      2718       1    3166    5685    3175    5686     778     779+
+           3857    1004    6547    2355
CTETRA      2719       1    3157    5664    5663    5675     415    6485+
+            406     408    6518    6517
CTETRA      2720       1    3676    6295    6294    6305     492    8263+
+            980     420    8293    8292
CTETRA      2721       1    3182    5677    5688    5689    2418    6553+
+           2352    2353    6555    6554
CTETRA      2722       1    3185    3186    3195      17    3886    3913+
+           3912    2167    1820    2131
CTETRA      2723       1    3202    5718    5729    5730    2638    6670+
+           2775     840    6672    6671
CTETRA      2724       1    3189    5690    3190    5701     375    2956+
+           3898     151    6590     152
CTETRA      2725       1    3417    5984    5983    5995    2722    7387+
+            259    2955    7420    7419
CTETRA      2726       1    3203    5717    5728    5729    2957    6667+
+           2497    2640    6669    6668
CTETRA      2727       1    3192    3193    3202    5719    3905    3932+
+           3931     949    2639     838
CTETRA      2728       1    3408    5972    5983    5984    1913    7386+
+           2720    2721    7388    7387
CTETRA      2729       1    3185    5695    3186      17    1147    1146+
+           3886    2167    2083    1820
CTETRA      2730       1    3158    5662    5673    5674     475    6512+
+            384    1906    6514    6513
CTETRA      2731       1    3180    5679    5668      24    2629    6528+
+           1654    2630    2632    2651
CTETRA      2732       1    3222    5738    3223    5749    1137    1647+
+           3989     849    6726    1651
CTETRA      2733       1    3394    3395    3404    5956    4467    4494+
+           4493    2613    2257    2258
CTETRA      2734       1    3149    5652    5651    5663     133    6451+
+            530     411    6484    6483
CTETRA      2735       1    3393    5947    5958    5959     623    7315+
+            625     632    7317    7316
CTETRA      2736       1    3157    3158    3167    5674    3808    3835+
+           3834     407    1906    1907
CTETRA      2737       1    3140    5651    3149    5652    2579     530+
+           3785     132    6451     133
CTETRA      2738       1    3210    5730    3211    5741    1010    2776+
+           3955     535    6704     538
CTETRA      2739       1    3348    5903    3357    5904    2467    2696+
+           4363    2468    7161    1619
CTETRA      2740       1    3176    5684    5695    5696     394    6574+
+           1145     395    6576    6575
CTETRA      2741       1    3358    5903    5902    5914    2697    7158+
+           2958    2581    7191    7190
CTETRA      2742       1    3349    5891    5902    5903    2690    7157+
+           2959    2960    7159    7158
CTETRA      2743       1    3685    3694    6306    6316    5300    1949+
+           2406    2456     897    8324
CTETRA      2744       1    5694    5695    5706      17    6572    6605+
+           6604    1348    2083    1349
CTETRA      2745       1    3201    3211    3210    5730    3956    3955+
+           3954     839    2776    1010
CTETRA      2746       1    8951    8819    8818    5732    2537    8843+
+           1442    2873    8377    8376
CTETRA      2747       1    3223    5737    5748    5749    2961    6723+
+           2943    1651    6725    6724
CTETRA      2748       1    3223    5737    5736    5748    2961    6690+
+           1343    2943    6723    6722
CTETRA      2749       1    3338    3348    3347    5893    4337    4336+
+           4335    2144    2699    1084
CTETRA      2750       1    3338    5882    5893    5894    2962    7132+
+           2144    2145    7134    7133
CTETRA      2751       1    3372    5928    3373    5939    1816    1815+
+           4405    2963    7262    1999
CTETRA      2752       1    3356    5904    3357    5915    1377    1619+
+           4361     289    7194    1807
CTETRA      2753       1    3142    5649    3151    5650    2370    1477+
+           3791    2786    6445    2379
CTETRA      2754       1    3666    6285    6284    6295    1602    8235+
+             79     491    8265    8264
CTETRA      2755       1    3337    5884    5883    5895    1836    7105+
+           2470    1838    7138    7137
CTETRA      2756       1    8951    3210    3219    5742    5327    3979+
+           5330    1444    1011    1445
CTETRA      2757       1    3309    5862    3318    5863    2480    2964+
+           4254    1526    7046    1268
CTETRA      2758       1    3211    3212    3221    5740    3958    3985+
+           3984    2507    2508    2313
CTETRA      2759       1    3309    3310    3319    5862    4230    4257+
+           4256    2480    2684    2965
CTETRA      2760       1    3310    5851    5850    5862    2278    7012+
+           2284    2684    7045    7044
CTETRA      2761       1    3204    5717    5716    5728     275    6634+
+           2617    2498    6667    6666
CTETRA      2762       1    3332    5878    3341    5879    2227    2267+
+           4319     307    7090    2270
CTETRA      2763       1    3317    5842    5853    5854    2479    7018+
+           1276    1043    7020    7019
CTETRA      2764       1    3150    5651    5650    5662     531    6448+
+            522     350    6481    6480
CTETRA      2765       1    3332    5867    3333    5878     306    1846+
+           4295    2227    7089    1848
CTETRA      2766       1    3213    5728    5727    5739    2499    6665+
+           2644    1009    6698    6697
CTETRA      2767       1    8950    5742    3219      12    2815    1445+
+           5329     884    1436     885
CTETRA      2768       1    3656    6264    6274    6275    1231    8206+
+             86      85    8208    8207
CTETRA      2769       1    3205    5716    5715    5727    1468    6631+
+           1466    1479    6664    6663
CTETRA      2770       1    3201    5720    5719    5731    1437    6643+
+            837     962    6676    6675
CTETRA      2771       1    8940    8807    5852    5863    1235    8592+
+           1509    1267    8591    7048
CTETRA      2772       1    3219    3220    3229    5752    3980    4007+
+           4006     539     540     724
CTETRA      2773       1    3315    5855    3324    5856    1843    1395+
+           4272    1844    7025     674
CTETRA      2774       1    8940    3317    3308    5842    5538    4253+
+           5539    1527    2479    1528
CTETRA      2775       1    3665    6285    3675    6296    1610    1601+
+           5246    1682    8267    2179
CTETRA      2776       1    3318    5863    5862    5874    1268    7046+
+           2964    1429    7079    7078
CTETRA      2777       1    3188    5691    5702    5703    1005    6593+
+            372     680    6595    6594
CTETRA      2778       1    3211    5729    5740    5741    2505    6701+
+           2507     538    6703    6702
CTETRA      2779       1    3288    5822    3297    5823    2493    2323+
+           4197    2487    6932    2759
CTETRA      2780       1    3288    5811    3289    5822    2492    1872+
+           4173    2493    6931    2966
CTETRA      2781       1    3289    5811    5810    5822    1872    6898+
+           1870    2966    6931    6930
CTETRA      2782       1    3233    5757    3242    5758     854    1931+
+           4044    1337    6749    1888
CTETRA      2783       1    3232    3233    3242    5758    4017    4044+
+           4043    1336    1337    1888
CTETRA      2784       1    3220    3230    3229    5751    4009    4008+
+           4007    2314    2648     728
CTETRA      2785       1    3277    5802    3278    5813    2967    2968+
+           4142    2920    6906    2969
CTETRA      2786       1    3261    5778    5789    5790    2162    6838+
+           2163     339    6840    6839
CTETRA      2787       1    3277    5802    5813    5814    2967    6906+
+           2920    2500    6908    6907
CTETRA      2788       1    3278    5802    5801    5813    2968    6873+
+           2489    2969    6906    6905
CTETRA      2789       1    3220    5751    3229    5752    2314     728+
+           4007     540    6733     724
CTETRA      2790       1    3258    3259    3268    5793    4089    4116+
+           4115    2080    2309    2071
CTETRA      2791       1    3239    3249    3248    5772    4062    4061+
+           4060    1892    2308    1131
CTETRA      2792       1    3259    5781    5780    5792    1881    6814+
+            342    2310    6847    6846
CTETRA      2793       1    3211    5730    5729    5741    2776    6671+
+           2505     538    6704    6703
CTETRA      2794       1    3257    3267    3266    5794    4112    4111+
+           4110    2079     699     698
CTETRA      2795       1    3231    3232    3241    5760    4014    4041+
+           4040     352    2502     797
CTETRA      2796       1    3286    5815    5814    5826    1317    6910+
+           2230    1319    6943    6942
CTETRA      2797       1    3280    5799    5810    5811     329    6897+
+            330    1871    6899    6898
CTETRA      2798       1    3279    3280    3289    5811    4148    4175+
+           4174    1876    1871    1872
CTETRA      2799       1    3266    5795    5794    5806    2052    6854+
+            698    2053    6887    6886
CTETRA      2800       1    3212    5728    5739    5740    2618    6698+
+           1008    2508    6700    6699
CTETRA      2801       1    3246    5774    5785    5786    1196    6828+
+           2232    1197    6830    6829
CTETRA      2802       1    3647    6253    6263    6264    1545    8175+
+            284    1230    8177    8176
CTETRA      2803       1    3199    5701    5700    5712     153    6588+
+           2656     370    6621    6620
CTETRA      2804       1    5688    5700    5699      19    6586    6585+
+           6584    1866    1746    1745
CTETRA      2805       1    3191    5688    5699      19    1865    6584+
+             27    1768    1866    1745
CTETRA      2806       1    3242    5768    3251    5769    1878     883+
+           4069    1889    6780    1934
CTETRA      2807       1    3221    5750    3230    5751     358    2081+
+           4010    2315    6730    2648
CTETRA      2808       1    3287    3297    3296    5823    4196    4195+
+           4194    1407    2759    2490
CTETRA      2809       1    3646    6254    3647    6264     506     888+
+           5167     507    8178    1230
CTETRA      2810       1    3151    5659    3160    5660    2529    2777+
+           3816    1473    6473    1474
CTETRA      2811       1    3151    5648    3152    5659    2354    2970+
+           3792    2529    6472    2930
CTETRA      2812       1    3277    3287    3286    5813    4168    4167+
+           4166    2920    1396    1296
CTETRA      2813       1    3152    5647    5658    5659    2475    6469+
+           2477    2930    6471    6470
CTETRA      2814       1    3151    5650    5649    5661    2379    6445+
+           1477    1475    6478    6477
CTETRA      2815       1    3160    5661    5660    5672    1472    6476+
+           1474     401    6509    6508
CTETRA      2816       1    3270    3271    3280    5800    4123    4150+
+           4149    2292    1113    1114
CTETRA      2817       1    3244    5755    5766    5767    2654    6773+
+           2871     213    6775    6774
CTETRA      2818       1    3141    5639    3142    5650    2122    2784+
+           3764    2378    6447    2786
CTETRA      2819       1    3121    5619    3122    5630    2358    2357+
+           3701    2530    6391    2351
CTETRA      2820       1    3196    5714    3205    5715    1904    1484+
+           3941    1465    6628    1466
CTETRA      2821       1    3235    5745    5744    5756     762    6712+
+            760    2511    6745    6744
CTETRA      2822       1    8729    3114    3113    5607    5596    3708+
+           5595     461     460    1943
CTETRA      2823       1    3628    6243    3637    6244     521    1554+
+           5141    2181    8120    1689
CTETRA      2824       1    8729    5607    3113    5608     461    1943+
+           5595    1940    6358    1942
CTETRA      2825       1    3243    5767    3252    5768     206     208+
+           4072    1024    6777    1879
CTETRA      2826       1    3252    5767    3253    5778     208     207+
+           4073     198    6807     199
CTETRA      2827       1    3230    5750    3231    5761    2081     851+
+           4011    2082    6760     354
CTETRA      2828       1    3111    5610    5609    5621     995    6366+
+           2217    1552    6365    6364
CTETRA      2829       1    3307    3317    3316    5843    4252    4251+
+           4250    2067    2758    2482
CTETRA      2830       1    3121    5620    5619    5631     397    6359+
+           2358     442    6394    6393
CTETRA      2831       1    8730    8731    8751    5609    8741    8673+
+           8674    2348    2536    8640
CTETRA      2832       1    8730    3112    8731    5609    5597    5599+
+           8741    2348    2218    2536
CTETRA      2833       1    8950    3218    8951    5732    5559    5560+
+           8975    2971    2874    2873
CTETRA      2834       1    3627    6233    3628    6244    2286     519+
+           5114    2111    8121    2181
CTETRA      2835       1    3268    3278    3277    5802    4143    4142+
+           4141    2972    2968    2967
CTETRA      2836       1    3201    3202    3211    5730    3930    3957+
+           3956     839     840    2776
CTETRA      2837       1    3636    6245    6255    6256    2188    8153+
+           1685    1687    8155    8154
CTETRA      2838       1    8951    3218    3209    5721    5560    3978+
+           5561    2540    2329    2104
CTETRA      2839       1    8951    8818    8819    5731    1442    8843+
+           2537    1443    8614    8615
CTETRA      2840       1    8913    3551    8914    6139    5485    5486+
+           9012    2973    2885    2904
CTETRA      2841       1    3262    5777    5788    5789     844    6835+
+           1332    2164    6837    6836
CTETRA      2842       1    3281    5799    5798    5810     328    6864+
+            326     331    6897    6896
CTETRA      2843       1    8944    5808    3273    5819    1118     878+
+           5341     819    6924     820
CTETRA      2844       1    8941    8942    8809    5831    8984    2663+
+           2100    2096    2098    8394
CTETRA      2845       1    3544    3545    3554    6147    4883    4910+
+           4909    2340    2116    2117
CTETRA      2846       1    3303    3313    3312    5848    4240    4239+
+           4238    2045    1093    1092
CTETRA      2847       1    3323    3324    3333    5867    4270    4297+
+           4296     675     676    1846
CTETRA      2848       1    3543    3552    6149    6159    4904    2375+
+           2374    2974    2219    7883
CTETRA      2849       1    3627    6234    6233    6244     497    8092+
+           2286    2111    8122    8121
CTETRA      2850       1    8914    3551    6128    6139    5486    2224+
+           2801    2904    2885    7824
CTETRA      2851       1    8914    3542    8915    6128    5487    5488+
+           9011    2801    2223    2542
CTETRA      2852       1    3256    5784    3257    5795    1190     713+
+           4083    2768    6856     715
CTETRA      2853       1    8914    8781    8782    6149    2903    8880+
+           2800    2373    8539    8540
CTETRA      2854       1    3598    6203    6213    6214    2806    8035+
+           2838    2161    8037    8036
CTETRA      2855       1    3265    5806    3274    5807    1470    2431+
+           4132    1471    6888    1464
CTETRA      2856       1    8927    8928    3426    5995    8998    5376+
+           5375    2975    2954    2976
CTETRA      2857       1    8927    3426    3435    6006    5375    4579+
+           5378    2555    2977    2552
CTETRA      2858       1    3253    3254    3263    5777    4076    4103+
+           4102     735    2059     843
CTETRA      2859       1    8927    5995    3426    6006    2975    2976+
+           5375    2555    7451    2977
CTETRA      2860       1    8926    8793    8794    6006    1357    8868+
+           1356    2432    8564    8565
CTETRA      2861       1    8928    3417    3426    5995    5373    4554+
+           5376    2954    2955    2976
CTETRA      2862       1    8927    8794    5995    6006    2554    8566+
+           2975    2555    8565    7451
CTETRA      2863       1    3305    5834    5845    5846    1629    6996+
+           1098    1632    6998    6997
CTETRA      2864       1    8927    3434    3425    5985    5512    4578+
+           5513    2249    2251    2250
CTETRA      2865       1    8927    3434    5985    5996    5512    2251+
+           2249    2791    2749    7421
CTETRA      2866       1    3202    3203    3212    5729    3933    3960+
+           3959    2775    2640    2506
CTETRA      2867       1    8681    3695    8700    6316    5452    2548+
+           3102     896    2549    8486
CTETRA      2868       1    3675    3676    3685    6295    5248    5275+
+           5274    1603     492    2770
CTETRA      2869       1    3663    6288    3673    6299    2300    2302+
+           5240    2473    8276    2868
CTETRA      2870       1    3655    6265    6275    6276    1963    8209+
+             88    1232    8211    8210
CTETRA      2871       1    3292    5828    5839    5840     318    6980+
+            315    1321    6982    6981
CTETRA      2872       1    3654    6277    3664    6288    1616    1618+
+           5215    2978    8245    2301
CTETRA      2873       1    3284    5816    3285    5827    1272    1271+
+           4161    1929    6946    1809
CTETRA      2874       1    3655    6276    3664    6277    1232    2562+
+           5216    1617    8213    1618
CTETRA      2875       1    3285    3295    3294    5826    4190    4189+
+           4188    1318    2228     320
CTETRA      2876       1    3653    6279    6278    6289    2559    8219+
+           2563    2566    8249    8248
CTETRA      2877       1    3644    6268    6267    6278    2828    8188+
+           2183    2570    8218    8217
CTETRA      2878       1    3321    3331    3330    5870    4290    4289+
+           4288    1856    1313    2979
CTETRA      2879       1    3643    3653    3652    6279    5184    5183+
+           5182    2558    2559    2980
CTETRA      2880       1    3360    5899    5910    5911    2981    7179+
+           1299    1301    7181    7180
CTETRA      2881       1    3171    3180    5668      24    3872    1654+
+           1653    2650    2630    2651
CTETRA      2882       1    3214    5737    3223    5738    2063    2961+
+           3991    1482    6693    1647
CTETRA      2883       1    3347    5894    5893    5905    1376    7133+
+           1084    1086    7166    7165
CTETRA      2884       1    3392    3393    3402    5959    4461    4488+
+           4487    1372     632     633
CTETRA      2885       1    3613    3622    6218    6228    5100    1658+
+           1657     112     114    8076
CTETRA      2886       1    3612    6218    3622    6229    1656    1658+
+           5099    2982    8078    2848
CTETRA      2887       1    3622    3631    6229    6239    5125    2849+
+           2848    2833    2829    8107
CTETRA      2888       1    3331    5868    3332    5879     309     305+
+           4292    2685    7092     307
CTETRA      2889       1    3375    5936    3384    5937     278    1078+
+           4438    1805    7254    2260
CTETRA      2890       1    3171    3181    3180      24    3874    3873+
+           3872    2650    2631    2630
CTETRA      2891       1    3305    5845    3314    5846    1098    1635+
+           4244    1632    6997    1633
CTETRA      2892       1    3602    6209    6208    6219    2839    8021+
+           2207    2204    8051    8050
CTETRA      2893       1    3311    3312    3321    5860    4236    4263+
+           4262    2272    1408    2623
CTETRA      2894       1    3610    3611    3620    6220    5067    5094+
+           5093    1982    2551    1975
CTETRA      2895       1    3610    3620    3619    6221    5093    5092+
+           5091    1247    2408     503
CTETRA      2896       1    3302    3303    3312    5849    4211    4238+
+           4237    1110    2274    1111
CTETRA      2897       1    3589    3599    3598    6213    5034    5033+
+           5032    1986    2495    2838
CTETRA      2898       1    3312    5848    5859    5860    1092    7036+
+           1094    1408    7038    7037
CTETRA      2899       1    3583    6187    3593    6188     120     122+
+           5018    1661    7962     941
CTETRA      2900       1    3564    6166    3574    6167     147     149+
+           4965     140    7903     150
CTETRA      2901       1    3589    6192    6202    6203    2513    8004+
+           1984    1985    8006    8005
CTETRA      2902       1    3286    5814    5813    5825    2230    6907+
+           1296    1298    6940    6939
CTETRA      2903       1    3554    6147    6157    6158    2117    7877+
+           1562    2120    7879    7878
CTETRA      2904       1    3285    3286    3295    5826    4164    4191+
+           4190    1318    1319    2228
CTETRA      2905       1    3579    6193    6192    6203    2908    7977+
+           1205    2724    8007    8006
CTETRA      2906       1    3558    6142    6152    6153    2306    7862+
+           2434    2196    7864    7863
CTETRA      2907       1    3340    5879    5890    5891    2686    7123+
+           2876    2689    7125    7124
CTETRA      2908       1    3521    3522    3531    6109    4820    4847+
+           4846    1303    2591     168
CTETRA      2909       1    3494    6066    6076    6077    2782    7648+
+           2983    2984    7650    7649
CTETRA      2910       1    3538    6122    3539    6132     553     552+
+           4867    2200    7806    1716
CTETRA      2911       1    3586    6174    6184    6185    2445    7952+
+            961    1708    7954    7953
CTETRA      2912       1    3348    3349    3358    5903    4339    4366+
+           4365    2467    2960    2697
CTETRA      2913       1    3496    3506    3505    6074    4777    4776+
+           4775    2796    2798    2985
CTETRA      2914       1    5615    5627    5626       4    6381    6380+
+           6379      94      93    1937
CTETRA      2915       1    3478    3488    3487    6052    4727    4726+
+           4725    1753    1354    1754
CTETRA      2916       1    3496    6063    3497    6074    2986    1742+
+           4751    2796    7641    2797
CTETRA      2917       1    3313    5847    5858    5859    1461    7033+
+            686    1095    7035    7034
CTETRA      2918       1    3321    5859    5870    5871    1855    7067+
+           1856    2626    7069    7068
CTETRA      2919       1    3485    3486    3495    6065    4720    4747+
+           4746    2780    2987    2988
CTETRA      2920       1    3485    6054    3486    6065    2989     766+
+           4720    2780    7616    2987
CTETRA      2921       1    3477    6053    3486    6054    2229     767+
+           4722    2779    7584     766
CTETRA      2922       1    3313    3314    3323    5857    4242    4269+
+           4268     685    1854    1355
CTETRA      2923       1    3305    5835    5834    5846    2157    6966+
+           1629    1632    6999    6998
CTETRA      2924       1    3458    6022    6021    6032     229    7494+
+           2024     996    7524    7523
CTETRA      2925       1    3458    6032    3467    6033     996     992+
+           4669    1749    7525    1750
CTETRA      2926       1    3379    5920    3380    5931    2712    2678+
+           4426    2139    7238    2517
CTETRA      2927       1    3456    6035    3465    6036    2607    2850+
+           4663    2952    7533    2532
CTETRA      2928       1    3456    6024    6035    6036    2605    7532+
+           2607    2952    7534    7533
CTETRA      2929       1    3447    3457    3456    6024    4640    4639+
+           4638     240     249    2605
CTETRA      2930       1    3435    6016    3444    6017    2853    2990+
+           4604    2553    7480    1548
CTETRA      2931       1    3539    6131    3549    6142    2199     550+
+           4896    2438    7833    2305
CTETRA      2932       1    3453    6027    6038    6039    2744    7541+
+           2535      60    7543    7542
CTETRA      2933       1    3342    5878    5877    5889    2266    7087+
+           2041    2269    7120    7119
CTETRA      2934       1    3339    5892    3348    5893    2991    2466+
+           4338    2992    7130    2699
CTETRA      2935       1    3430    5990    5989    6001    1597    7403+
+           1596    1589    7436    7435
CTETRA      2936       1    3368    3369    3378    5922    4395    4422+
+           4421    2543    2993    2709
CTETRA      2937       1    3445    6026    3454    6027    1330    1327+
+           4632    1331    7508    1326
CTETRA      2938       1    8925    8792    8793    6017    1543    8869+
+           1551    1547    8562    8563
CTETRA      2939       1    3337    3338    3347    5894    4308    4335+
+           4334    1375    2145    1376
CTETRA      2940       1    3349    5892    5891    5903    2692    7127+
+           2690    2960    7160    7159
CTETRA      2941       1    3539    6132    6131    6142    1716    7804+
+           2199    2438    7834    7833
CTETRA      2942       1    3549    6131    6141    6142     550    7831+
+           2436    2305    7833    7832
CTETRA      2943       1    3436    6015    3445    6016    2243    1329+
+           4607    2854    7477    2525
CTETRA      2944       1    3341    3342    3351    5889    4320    4347+
+           4346    1454    2269    1455
CTETRA      2945       1    3369    5910    5921    5922    1300    7210+
+           2994    2993    7212    7211
CTETRA      2946       1    8924    8792    8925    6028      64    1543+
+           9001      56    8561      57
CTETRA      2947       1    3298    5832    3307    5833    2877    2066+
+           4225    2326    6960    2060
CTETRA      2948       1    3444    3445    3454    6027    4605    4632+
+           4631    2995    1331    1326
CTETRA      2949       1    3436    3446    3445    6015    4609    4608+
+           4607    2243    2245    1329
CTETRA      2950       1    3548    6133    6132    6143    1723    7807+
+           2428    1725    7837    7836
CTETRA      2951       1    3438    6002    6013    6014    2996    7470+
+           1026    1018    7472    7471
CTETRA      2952       1    3427    6004    3436    6005    2239    2241+
+           4582    1033    7446    1036
CTETRA      2953       1    3444    6017    6016    6028    1548    7480+
+           2990    1542    7513    7512
CTETRA      2954       1    8925    3452    3443    6007    5508    4628+
+           5509    1359     588    1346
CTETRA      2955       1    3435    6006    6005    6017    2552    7449+
+           2852    2553    7482    7481
CTETRA      2956       1    8926    3443    3434    5996    5510    4603+
+           5511    2560    1345    2749
CTETRA      2957       1    3313    5847    5846    5858    1461    7000+
+            684     686    7033    7032
CTETRA      2958       1    3351    5888    3352    5899    2039    1391+
+           4348    2872    7148    1393
CTETRA      2959       1    3406    3407    3416    5964    4501    4528+
+           4527     269    2752     270
CTETRA      2960       1    3415    5964    5975    5976     271    7362+
+           2246    2611    7364    7363
CTETRA      2961       1    3358    5902    5901    5913    2958    7155+
+           2401    1923    7188    7187
CTETRA      2962       1    3404    3414    3413    5966    4521    4520+
+           4519     615    1784     610
CTETRA      2963       1    3350    3360    3359    5900    4371    4370+
+           4369    1457    2997    2707
CTETRA      2964       1    3358    3359    3368    5912    4367    4394+
+           4393    1922    2708    2701
CTETRA      2965       1    3414    5966    5965    5977    1784    7335+
+           1783    2033    7368    7367
CTETRA      2966       1    8930    3398    8931    5952    5519    5520+
+           8995    2760    2729    2728
CTETRA      2967       1    3407    5963    3416    5964    2916    2915+
+           4528    2752    7329     270
CTETRA      2968       1    3378    5921    5932    5933    2710    7241+
+           1604    2524    7243    7242
CTETRA      2969       1    3519    3520    3529    6112    4814    4841+
+           4840     978    1995    1997
CTETRA      2970       1    3230    3240    3239    5761    4037    4036+
+           4035    2082     355    1891
CTETRA      2971       1    3403    5958    5957    5969    2409    7313+
+           2031    2028    7346    7345
CTETRA      2972       1    3369    3370    3379    5921    4398    4425+
+           4424    2994    2884    2998
CTETRA      2973       1    3402    5958    3403    5969     631    2409+
+           4489     627    7346    2028
CTETRA      2974       1    3404    5956    5955    5967    2258    7307+
+            614     616    7340    7339
CTETRA      2975       1    3520    6100    6110    6111    2005    7744+
+            966     559    7746    7745
CTETRA      2976       1    3369    3379    3378    5921    4424    4423+
+           4422    2994    2998    2710
CTETRA      2977       1    3365    5915    5926    5927     290    7225+
+            285     287    7227    7226
CTETRA      2978       1    3379    5920    5931    5932    2712    7238+
+           2139    2999    7240    7239
CTETRA      2979       1    3374    5926    5937    5938     286    7256+
+           1804    2615    7258    7257
CTETRA      2980       1    3381    5939    5950    5951    3000    7293+
+           2520    2522    7295    7294
CTETRA      2981       1    3380    5920    5919    5931    2678    7205+
+           2515    2517    7238    7237
CTETRA      2982       1    3374    3375    3384    5937    4411    4438+
+           4437    1804    1805    2260
CTETRA      2983       1    3382    3383    3392    5949    4433    4460+
+           4459    1786    1782     617
CTETRA      2984       1    3382    3392    3391    5949    4459    4458+
+           4457    1786     617    1788
CTETRA      2985       1    3370    5909    5920    5921    1794    7207+
+           1796    2884    7209    7208
CTETRA      2986       1    3369    5921    3378    5922    2994    2710+
+           4422    2993    7211    2709
CTETRA      2987       1    3394    5956    3403    5957    2613    2038+
+           4491    1365    7310    2031
CTETRA      2988       1    3378    3379    3388    5932    4423    4450+
+           4449    1604    2999    1605
CTETRA      2989       1    3361    3371    3370    5909    4402    4401+
+           4400    1307    1795    1794
CTETRA      2990       1    3529    6121    3539    6122    2003    1715+
+           4868     551    7776     552
CTETRA      2991       1    3362    5898    5897    5909    2265    7143+
+           1425    2619    7176    7175
CTETRA      2992       1    3510    6090    3511    6100     178     177+
+           4789    2226    7716     573
CTETRA      2993       1    3361    5909    3370    5910    1307    1794+
+           4400    1304    7177    1305
CTETRA      2994       1    3426    6005    3435    6006    1032    2852+
+           4579    2977    7449    2552
CTETRA      2995       1    3422    3432    3431    5988    4571    4570+
+           4569     599    2107     603
CTETRA      2996       1    3397    3398    3407    5953    4476    4503+
+           4502    1045    2881    2751
CTETRA      2997       1    8932    8799    5940    5951    2911    8576+
+           2694    3001    8575    7296
CTETRA      2998       1    8932    8800    8799    5941    2693    8862+
+           2911    3002    8415    8414
CTETRA      2999       1    3381    5940    5939    5951    2792    7263+
+           3000    2522    7296    7295
CTETRA      3000       1    8931    8932    3390    5951    8994    5368+
+           5367    3003    3001    2523
CTETRA      3001       1    3372    5939    3381    5940    2963    3000+
+           4429    2037    7263    2792
CTETRA      3002       1    3334    3344    3343    5876    4327    4326+
+           4325     299    2509     300
CTETRA      3003       1    3509    3519    3518    6102    4812    4811+
+           4810     971     973    2001
CTETRA      3004       1    3330    5870    3331    5881    2979    1313+
+           4289    3004    7098    1314
CTETRA      3005       1    3330    3331    3340    5881    4289    4316+
+           4315    3004    1314    3005
CTETRA      3006       1    3321    5870    3330    5871    1856    2979+
+           4288    2626    7068    2628
CTETRA      3007       1    8930    8797    5962    5973    2671    8572+
+           2762    2913    8571    7358
CTETRA      3008       1    3319    3320    3329    5872    4258    4285+
+           4284    2319    3006    2383
CTETRA      3009       1    3372    3382    3381    5939    4431    4430+
+           4429    2963    2700    3000
CTETRA      3010       1    3520    6101    6100    6111    1994    7717+
+           2005     559    7747    7746
CTETRA      3011       1    3319    5861    3320    5872    3007    2680+
+           4258    2319    7073    3006
CTETRA      3012       1    3289    3299    3298    5821    4202    4201+
+           4200    2634    2636    2676
CTETRA      3013       1    3410    5970    3411    5981    2703     630+
+           4511     250    7380    1441
CTETRA      3014       1    3289    5821    3298    5822    2634    2676+
+           4200    2966    6929    2324
CTETRA      3015       1    3383    5938    5937    5949    2465    7257+
+           1780    1782    7290    7289
CTETRA      3016       1    3278    3279    3288    5812    4145    4172+
+           4171    2645    2641    2486
CTETRA      3017       1    3278    5801    5812    5813    2489    6903+
+           2645    2969    6905    6904
CTETRA      3018       1    3269    5801    3278    5802    2294    2489+
+           4144    2503    6873    2968
CTETRA      3019       1    3438    6003    6002    6014    1014    7440+
+           2996    1018    7473    7472
CTETRA      3020       1    3133    3134    5637       4    3742    1175+
+           2934    3008    1936    1938
CTETRA      3021       1    3492    6069    6068    6079     579    7627+
+           1896    1726    7657    7656
CTETRA      3022       1    3277    3278    3287    5813    4142    4169+
+           4168    2920    2969    1396
CTETRA      3023       1    3133    5637    5638       4    2934    6411+
+           3009    3008    1938    2661
CTETRA      3024       1    3408    3409    3418    5983    4505    4532+
+           4531    2720    1910     260
CTETRA      3025       1    3229    5751    3230    5762     728    2648+
+           4008     729    6763    1138
CTETRA      3026       1    3232    5759    3241    5760    2389    2647+
+           4041    2502    6755     797
CTETRA      3027       1    3400    3410    3409    5971    4509    4508+
+           4507    1916    2705    1908
CTETRA      3028       1    3400    5960    5971    5972    2733    7352+
+           1916    1917    7354    7353
CTETRA      3029       1    3399    5962    5961    5973    2735    7325+
+           2316    2912    7358    7357
CTETRA      3030       1    3399    3400    3409    5972    4480    4507+
+           4506    1911    1917    1912
CTETRA      3031       1    3408    5972    3409    5983    1913    1912+
+           4505    2720    7386    1910
CTETRA      3032       1    3240    5761    5760    5772     355    6758+
+            353    2307    6791    6790
CTETRA      3033       1    3480    3490    3489    6071    4731    4730+
+           4729    1280     197     204
CTETRA      3034       1    3499    6082    6092    6093     190    7694+
+           1309    1733    7696    7695
CTETRA      3035       1    3214    3224    3223    5736    3993    3992+
+           3991    3010    1344    1343
CTETRA      3036       1    3367    5913    5912    5924    1924    7186+
+           1921    1802    7219    7218
CTETRA      3037       1    3411    3421    3420    5980    4540    4539+
+           4538    3011    2075    3012
CTETRA      3038       1    3205    3215    3214    5725    3968    3967+
+           3966     748     750    2062
CTETRA      3039       1    3206    3216    3215    5724    3971    3970+
+           3969    2064     687    2065
CTETRA      3040       1    3205    5725    3214    5726     748    2062+
+           3966    1478    6659    1481
CTETRA      3041       1    3177    3178    3187    5694    3864    3891+
+           3890    2115     772    2036
CTETRA      3042       1    3420    5981    5980    5992    2745    7378+
+           3012    2512    7411    7410
CTETRA      3043       1    3163    3164    3173    5667    3826    3853+
+           3852    3013    3014    2951
CTETRA      3044       1    3164    5655    5666    5667     428    6491+
+           1252    3014    6493    6492
CTETRA      3045       1    3124    3133    5627       4    3741    2659+
+             90      92    3008      93
CTETRA      3046       1    3411    5980    3420    5981    3011    3012+
+           4538    1441    7378    2745
CTETRA      3047       1    3124    3134    3133       4    3743    3742+
+           3741      92    1936    3008
CTETRA      3048       1    3410    5971    5970    5982    2705    7350+
+           2703     252    7383    7382
CTETRA      3049       1    3357    5903    5914    5915    2696    7191+
+           1806    1807    7193    7192
CTETRA      3050       1    8956    3173    3164    5666    5570    3853+
+           5571    1253    1240    1252
CTETRA      3051       1    3411    5969    5980    5981     628    7377+
+           3011    1441    7379    7378
CTETRA      3052       1    3143    5636    3144    5647    2592     183+
+           3770    2901    6438    2616
CTETRA      3053       1    3420    5980    5991    5992    3012    7408+
+           1594    2512    7410    7409
CTETRA      3054       1    3153    5646    3154    5657    2902    1493+
+           3798    2944    6466    1495
CTETRA      3055       1    3152    3153    3162    5658    3795    3822+
+           3821    2477    2478    2940
CTETRA      3056       1    3471    6049    3472    6060    1584    1583+
+           4680    2025    7603    1588
CTETRA      3057       1    3152    3162    3161    5658    3821    3820+
+           3819    2477    2940    2822
CTETRA      3058       1    3153    5646    5657    5658    2902    6466+
+           2944    2478    6468    6467
CTETRA      3059       1    3464    3465    3474    6047    4661    4688+
+           4687    2533    2534    2020
CTETRA      3060       1    3122    3131    5618       1    3735    2350+
+           2349    2303    2290    2608
CTETRA      3061       1    3126    5613    3127       6     453     405+
+           3721     455     454    3015
CTETRA      3062       1    3127    5613    5624       6     405    6373+
+           1160    3015     454    1933
CTETRA      3063       1    5617    5618    5629       1    6351    6388+
+           6387      39    2608      40
CTETRA      3064       1    3472    6049    6048    6060    1583    7570+
+            586    1588    7603    7602
CTETRA      3065       1    3114    5617    3123    5618     875    2633+
+           3707     876    6351    2594
CTETRA      3066       1    3131    5618    5629    5630    2350    6388+
+            785     784    6390    6389
CTETRA      3067       1    3439    6001    3440    6011    1030    1590+
+           4592    3016    7465    1775
CTETRA      3068       1    3447    6013    3448    6023     238     237+
+           4614     239    7499    1759
CTETRA      3069       1    3441    5999    5998    6010    2750    7428+
+            222     224    7461    7460
CTETRA      3070       1    8730    3113    3112    5608    5598    3704+
+           5597    1941    1942    2275
CTETRA      3071       1    3493    3494    3503    6077    4742    4769+
+           4768    2413    2984    2414
CTETRA      3072       1    3487    6053    6063    6064    1756    7611+
+           1740    2600    7613    7612
CTETRA      3073       1    3486    6064    3495    6065     768    3017+
+           4747    2987    7615    2988
CTETRA      3074       1    3439    6011    3449    6012    3016    1776+
+           4618     230    7466     231
CTETRA      3075       1    8727    8748    8747    5606    8676    8759+
+           8668     465    8646    8649
CTETRA      3076       1    3467    6033    6032    6043    1750    7525+
+            992     986    7555    7554
CTETRA      3077       1    3468    6042    3477    6043    1007    2599+
+           4697     987    7553     988
CTETRA      3078       1    3468    6031    3469    6042    1006    2016+
+           4673    1007    7551    2435
CTETRA      3079       1    8945    8813    8812    5798     690    8849+
+            856     818    8389    8388
CTETRA      3080       1    3263    5787    3272    5788    1644    1115+
+           4128    1639    6833    1054
CTETRA      3081       1    3436    6004    6015    6016    2241    7476+
+           2243    2854    7478    7477
CTETRA      3082       1    3431    3432    3441    5999    4570    4597+
+           4596    2103    2108    2750
CTETRA      3083       1    3405    5954    5965    5966     264    7334+
+            266    1779    7336    7335
CTETRA      3084       1    3463    6037    6048    6049    3018    7569+
+            584    1586    7571    7570
CTETRA      3085       1    3426    3436    3435    6005    4581    4580+
+           4579    1032    1036    2852
CTETRA      3086       1    8927    8795    8928    5995    2725    1957+
+           8998    2975    8567    2954
CTETRA      3087       1    3428    5992    6003    6004    2135    7442+
+           1013    2518    7444    7443
CTETRA      3088       1    8926    3434    8927    5996    5511    5512+
+           8999    2560    2749    2791
CTETRA      3089       1    3127    5624    3136       6    1160    1161+
+           3750    3015    1933    1835
CTETRA      3090       1    8926    8927    3435    6006    8999    5378+
+           5377    2432    2555    2552
CTETRA      3091       1    3213    5738    3222    5739    1646    1137+
+           3988    1009    6696     357
CTETRA      3092       1    3432    5998    3441    5999    2457     222+
+           4597    2108    7428    2750
CTETRA      3093       1    8912    8780    8779    6150    1991    8882+
+           2481    2666    8453    8454
CTETRA      3094       1    3514    6096    3523    6097    3019    3020+
+           4825    1579    7705    1000
CTETRA      3095       1    3522    3523    3532    6108    4823    4850+
+           4849    1698    1002    1699
CTETRA      3096       1    3478    6042    6052    6053    1751    7580+
+           1753    1755    7582    7581
CTETRA      3097       1    3460    6020    6030    6031    1012    7518+
+            932    2216    7520    7519
CTETRA      3098       1    3261    5789    3270    5790    2163    2346+
+           4122     339    6839    2396
CTETRA      3099       1    3486    3496    3495    6064    4749    4748+
+           4747     768    2601    3017
CTETRA      3100       1    3568    6151    3569    6162     602     596+
+           4951     574    7889     842
CTETRA      3101       1    3549    6131    6130    6141     550    7801+
+            548    2436    7831    7830
CTETRA      3102       1    8923    8791    8790    6029      61    8871+
+           1737     981    8430    8432
CTETRA      3103       1    3484    3494    3493    6067    4743    4742+
+           4741    2014    3021    2743
CTETRA      3104       1    3472    3473    3482    6059    4683    4710+
+           4709    1587    2178     215
CTETRA      3105       1    8928    8796    8929    5984    1958    1954+
+           8997    1959    8569    2880
CTETRA      3106       1    3680    3681    3690    6311    5261    5288+
+           5287    1538    1541    2866
CTETRA      3107       1    3691    6310    6309    6320     658    8306+
+           2865    2567    8336    8335
CTETRA      3108       1    3260    3261    3270    5790    4095    4122+
+           4121     338     339    2396
CTETRA      3109       1    3672    3681    6300    6310    5263    1540+
+           2862    3022     656    8308
CTETRA      3110       1    3487    3497    3496    6063    4752    4751+
+           4750    1740    1742    2986
CTETRA      3111       1    3633    6258    3643    6269    2189    2190+
+           5156    3023    8192    3024
CTETRA      3112       1    3459    3469    3468    6031    4674    4673+
+           4672    1757    2016    1006
CTETRA      3113       1    3642    6270    6269    6280    2682    8194+
+           2681    2935    8224    8223
CTETRA      3114       1    3251    3252    3261    5779    4070    4097+
+           4096     343    1886     337
CTETRA      3115       1    3252    5767    5778    5779     208    6807+
+            198    1886    6809    6808
CTETRA      3116       1    8916    3525    3534    6127    5397    4854+
+           5400    1511    1530    1512
CTETRA      3117       1    3640    6240    6250    6251    2440    8138+
+           3025    3026    8140    8139
CTETRA      3118       1    3621    3631    3630    6240    5124    5123+
+           5122    2939    2439    2403
CTETRA      3119       1    3261    3271    3270    5789    4124    4123+
+           4122    2163    2165    2346
CTETRA      3120       1    3434    5996    3443    5997    2749    1345+
+           4603    2748    7422    3027
CTETRA      3121       1    3592    6189    6188    6199    1667    7965+
+            940     930    7995    7994
CTETRA      3122       1    3610    6220    3620    6221    1982    1975+
+           5093    1247    8055    2408
CTETRA      3123       1    3506    6074    6084    6085    2798    7670+
+           2802    2804    7672    7671
CTETRA      3124       1    3485    3495    3494    6065    4746    4745+
+           4744    2780    2988    2781
CTETRA      3125       1    3126    3127    3136       6    3721    3750+
+           3749     455    3015    1835
CTETRA      3126       1    3533    6107    6117    6118    2153    7763+
+            154     156    7765    7764
CTETRA      3127       1    3600    6201    6211    6212    1255    8029+
+            512     514    8031    8030
CTETRA      3128       1    3583    6178    6188    6189    1671    7964+
+           1661    1666    7966    7965
CTETRA      3129       1    3443    5997    5996    6008    3027    7422+
+           1345    1347    7455    7454
CTETRA      3130       1    3424    5986    3433    5987    2746    2453+
+           4575    2858    7394    2452
CTETRA      3131       1    3571    6180    3581    6191     533    1675+
+           4984    1257    7972    1258
CTETRA      3132       1    3592    3602    3601    6199    5043    5042+
+           5041     930     931    2423
CTETRA      3133       1    3497    6063    6073    6074    1742    7639+
+           1220    2797    7641    7640
CTETRA      3134       1    8921    3479    8789    6051    5501    1770+
+           1125     216     218    8435
CTETRA      3135       1    3496    6064    6074    6075    2601    7642+
+           2796    3028    7644    7643
CTETRA      3136       1    3488    6052    6062    6063    1354    7608+
+            212    1741    7610    7609
CTETRA      3137       1    3453    3463    3462    6038    4656    4655+
+           4654    2535    2422    2008
CTETRA      3138       1    3189    3190    5690      14    3898    2956+
+            375    3029    1463    2620
CTETRA      3139       1    3554    6147    6146    6157    2117    7847+
+           1564    1562    7877    7876
CTETRA      3140       1    3564    6157    6167    6168     956    7905+
+            140     142    7907    7906
CTETRA      3141       1    8945    3272    5787    5798    5548    1115+
+           1643     818     325    6863
CTETRA      3142       1    3535    3545    3544    6136    4884    4883+
+           4882    2890    2343    2342
CTETRA      3143       1    3471    6060    3480    6061    2025    1279+
+           4704    1860    7604    1762
CTETRA      3144       1    3579    3588    6193    6203    5004    1283+
+           2908    2724    1284    8007
CTETRA      3145       1    3523    6107    3532    6108    1001    2154+
+           4850    1002    7736    1699
CTETRA      3146       1    3498    6082    3499    6093     203     190+
+           4755    2794    7696    1733
CTETRA      3147       1    3487    6052    3488    6063    1754    1354+
+           4726    1740    7610    1741
CTETRA      3148       1    3528    3538    3537    6123    4865    4864+
+           4863    2225    1717    2816
CTETRA      3149       1    3493    6078    3502    6079    2415     171+
+           4766    1890    7655     170
CTETRA      3150       1    8917    3516    3525    6116    5395    4829+
+           5398      51    2889      52
CTETRA      3151       1    3189    5690    5679      14     375    6559+
+           1660    3029    2620     912
CTETRA      3152       1    3523    6096    3524    6107    3020    2813+
+           4826    1001    7734    2155
CTETRA      3153       1    3537    6124    6134    6135     654    7812+
+           1721    2451    7814    7813
CTETRA      3154       1    8916    8784    8783    6106      42    8878+
+           1423    1513    8445    8446
CTETRA      3155       1    3498    6083    6082    6094    1222    7666+
+            203    2264    7699    7698
CTETRA      3156       1    3469    3479    3478    6041    4702    4701+
+           4700    2018    1747    1752
CTETRA      3157       1    8916    3524    8784    6106    5491      48+
+             42    1513      50    8445
CTETRA      3158       1    8921    8789    3480    6072    1125    1761+
+           5387    1126    8554    1281
CTETRA      3159       1    8917    8785    3516    6116    1201    2268+
+           5395      51    8546    2889
CTETRA      3160       1    3271    5789    5788    5800    2165    6836+
+           1053    1113    6869    6868
CTETRA      3161       1    3534    3544    3543    6148    4881    4880+
+           4879     235     999     823
CTETRA      3162       1    3271    3281    3280    5799    4152    4151+
+           4150     983     328     329
CTETRA      3163       1    3482    3492    3491    6069    4737    4736+
+           4735     577     579    1324
CTETRA      3164       1    3465    6036    6035    6046    2532    7533+
+           2850    2742    7564    7563
CTETRA      3165       1    3531    3532    3541    6119    4848    4875+
+           4874     169    1696    1691
CTETRA      3166       1    3527    6124    3536    6125     653     655+
+           4860    3030    7785    3031
CTETRA      3167       1    3493    6068    6078    6079    1895    7654+
+           2415    1890    7656    7655
CTETRA      3168       1    3530    6111    6110    6121     560    7745+
+            968    2004    7775    7774
CTETRA      3169       1    3475    6045    6055    6056    2767    7589+
+           3032    2812    7591    7590
CTETRA      3170       1    3484    6066    3494    6067    2737    2782+
+           4743    2014    7621    3021
CTETRA      3171       1    3493    6068    6067    6078    1895    7624+
+           2743    2415    7654    7653
CTETRA      3172       1    3272    5787    5798    5799    1115    6863+
+            325     327    6865    6864
CTETRA      3173       1    3536    6125    6124    6135    3031    7785+
+            655     989    7815    7814
CTETRA      3174       1    3526    6115    6114    6125    1419    7757+
+           3033    2808    7787    7786
CTETRA      3175       1    3507    6094    6093    6105    1852    7697+
+           2795      46    7730    7729
CTETRA      3176       1    3518    6113    3527    6114     974    2298+
+           4835    3034    7754    3035
CTETRA      3177       1    8915    8782    8783    6138    2799    8879+
+           1422    2546    8541    8542
CTETRA      3178       1    3518    6103    6113    6114    2002    7753+
+            974    3034    7755    7754
CTETRA      3179       1    3446    6025    3455    6026    1772    2610+
+           4635    2446    7505    2447
CTETRA      3180       1    3429    6002    3438    6003    1598    2996+
+           4588    1288    7440    1014
CTETRA      3181       1    3426    5994    6005    6006    1031    7448+
+           1032    2977    7450    7449
CTETRA      3182       1    3437    6003    6014    6015    1015    7473+
+           1017    2244    7475    7474
CTETRA      3183       1    3535    3536    3545    6136    4858    4885+
+           4884    2890    2810    2343
CTETRA      3184       1    3463    6037    3464    6048    3018    2763+
+           4658     584    7569    2764
CTETRA      3185       1    3444    6016    6027    6028    2990    7510+
+           2995    1542    7512    7511
CTETRA      3186       1    3428    6003    3437    6004    1013    1015+
+           4585    2518    7443    2240
CTETRA      3187       1    8927    5985    8795    5996    2249    8422+
+           2725    2791    7421    8425
CTETRA      3188       1    3518    6103    6102    6113    2002    7723+
+           2001     974    7753    7752
CTETRA      3189       1    3302    5838    3303    5849    2395    2273+
+           4211    1110    7008    2274
CTETRA      3190       1    3416    5964    5963    5975     270    7329+
+           2915    2247    7362    7361
CTETRA      3191       1    8915    8783    8782    6117    1422    8879+
+           2799    2156    8447    8448
CTETRA      3192       1    3493    6067    6077    6078    2743    7651+
+           2413    2415    7653    7652
CTETRA      3193       1    3537    6124    6123    6134     654    7782+
+           2816    1721    7812    7811
CTETRA      3194       1    3536    3537    3546    6135    4861    4888+
+           4887     989    2451     990
CTETRA      3195       1    3537    3538    3547    6133    4864    4891+
+           4890    1719    1718    1720
CTETRA      3196       1    3407    5952    5963    5964    2761    7328+
+           2916    2752    7330    7329
CTETRA      3197       1    3415    5965    5964    5976     268    7332+
+            271    2611    7365    7364
CTETRA      3198       1    3520    6111    3529    6112     559     561+
+           4841    1995    7748    1997
CTETRA      3199       1    3415    5975    3424    5976    2246    2612+
+           4550    2611    7363    2527
CTETRA      3200       1    3547    6134    6144    6145    1722    7840+
+           1983    1568    7842    7841
CTETRA      3201       1    3439    6001    6011    6012    1030    7465+
+           3016     230    7467    7466
CTETRA      3202       1    3545    6135    3546    6146     991     990+
+           4886    1566    7845    3036
CTETRA      3203       1    3367    3368    3377    5923    4392    4419+
+           4418    1801    2545    1918
CTETRA      3204       1    3563    6158    6168    6169    2124    7908+
+            955     945    7910    7909
CTETRA      3205       1    3377    5923    5922    5934    1918    7214+
+           2544    2539    7247    7246
CTETRA      3206       1    3591    6190    6189    6200    2427    7968+
+           1668    2214    7998    7997
CTETRA      3207       1    3368    5911    5922    5923    2719    7213+
+           2543    2545    7215    7214
CTETRA      3208       1    8914    8782    8781    6128    2800    8880+
+           2903    2801    8449    8450
CTETRA      3209       1    3367    5914    5913    5925    1919    7189+
+           1924    1920    7222    7221
CTETRA      3210       1    3303    5837    5848    5849    2044    7005+
+           2045    2274    7007    7006
CTETRA      3211       1    3385    5936    5935    5947     280    7251+
+           1368    1080    7284    7283
CTETRA      3212       1    3330    5870    5881    5882    2979    7098+
+           3004    3037    7100    7099
CTETRA      3213       1    3526    3536    3535    6125    4859    4858+
+           4857    2808    3031    2834
CTETRA      3214       1    3556    3557    3566    6154    4917    4944+
+           4943    1340    1341    1978
CTETRA      3215       1    3566    6155    6154    6165    2814    7869+
+           1978    1401    7899    7898
CTETRA      3216       1    3532    6108    6118    6119    1699    7766+
+           1694    1696    7768    7767
CTETRA      3217       1    3339    5882    5881    5893    3038    7099+
+           3039    2992    7132    7131
CTETRA      3218       1    3180    3189    5679      14    3897    1660+
+           2629    1462    3029     912
CTETRA      3219       1    3318    3319    3328    5873    4255    4282+
+           4281    3040    2320    2046
CTETRA      3220       1    3318    5873    3327    5874    3040     667+
+           4279    1429    7077    1430
CTETRA      3221       1    3327    3337    3336    5884    4306    4305+
+           4304     668    1836     665
CTETRA      3222       1    3319    5861    5872    5873    3007    7073+
+           2319    2320    7075    7074
CTETRA      3223       1    3268    3269    3278    5802    4117    4144+
+           4143    2972    2503    2968
CTETRA      3224       1    3270    5789    5800    5801    2346    6869+
+           2292    2295    6871    6870
CTETRA      3225       1    3295    5824    5835    5836     693    6968+
+           2158     694    6970    6969
CTETRA      3226       1    3180    3190    3189      14    3899    3898+
+           3897    1462    1463    3029
CTETRA      3227       1    3232    5748    5759    5760    2501    6754+
+           2389    2502    6756    6755
CTETRA      3228       1    3450    6009    3451    6020    1902    1334+
+           4623    1903    7489     592
CTETRA      3229       1    3493    6067    3494    6077    2743    3021+
+           4742    2413    7651    2984
CTETRA      3230       1    3294    3295    3304    5837    4189    4216+
+           4215     321    1409    1413
CTETRA      3231       1    3556    6144    6154    6155    1338    7868+
+           1340    2817    7870    7869
CTETRA      3232       1    3537    6123    6133    6134    2816    7809+
+           1719    1721    7811    7810
CTETRA      3233       1    8913    8914    8781    6139    9012    2903+
+           1987    2973    2904    8451
CTETRA      3234       1    3232    5758    3241    5759    1336     345+
+           4041    2389    6752    2647
CTETRA      3235       1    3566    3567    3576    6164    4945    4972+
+           4971    1402    1713    1712
CTETRA      3236       1    3212    5739    3221    5740    1008     356+
+           3985    2508    6699    2313
CTETRA      3237       1    3314    5845    3315    5856    1635    1099+
+           4245    2069    7027    1844
CTETRA      3238       1    3576    3585    6175    6185    4997    2297+
+           1710    1707     925    7955
CTETRA      3239       1    8947    8814    5775    5786    1214    8606+
+           1953    2928    8605    6831
CTETRA      3240       1    3314    5846    5845    5857    1633    6997+
+           1635    1854    7030    7029
CTETRA      3241       1    3192    5708    3193    5719     948    3041+
+           3905     949    6642    2639
CTETRA      3242       1    3451    6009    6008    6020    1334    7456+
+            590     592    7489    7488
CTETRA      3243       1    3575    6165    6175    6176    2332    7927+
+            129     128    7929    7928
CTETRA      3244       1    3442    5997    6008    6009    2747    7455+
+           1333     594    7457    7456
CTETRA      3245       1    3193    5707    5718    5719    3042    6639+
+           2637    2639    6641    6640
CTETRA      3246       1    3574    6166    6176    6177     149    7930+
+            143     145    7932    7931
CTETRA      3247       1    3313    3323    3322    5857    4268    4267+
+           4266     685    1355    1315
CTETRA      3248       1    3216    5734    3225    5735    2322     717+
+           3997     689    6684     716
CTETRA      3249       1    3593    3602    6198    6208    5044     929+
+            928    2840    2207    8020
CTETRA      3250       1    8952    5720    3201      10     825    1437+
+           5325     826     828    3043
CTETRA      3251       1    3200    5699    5710    5711    1510    6615+
+           1505    2488    6617    6616
CTETRA      3252       1    8909    3587    8910    6183    5477    5478+
+           9016    1558     509    1561
CTETRA      3253       1    8954    3191    5688    5699    5566    1865+
+           1508      28      27    6584
CTETRA      3254       1    8954    8821    5698    5709      35    8620+
+           1136      29    8619    6614
CTETRA      3255       1    3314    3324    3323    5856    4271    4270+
+           4269    2069     674     673
CTETRA      3256       1    3172    5678    3181      24    2437     910+
+           3875    2652    3044    2631
CTETRA      3257       1    3576    6174    3586    6185    1711    2445+
+           4999    1707    7954    1708
CTETRA      3258       1    3584    6176    6186    6187     144    7958+
+            135     121    7960    7959
CTETRA      3259       1    3344    5876    5875    5887    2509    7081+
+           2055    1947    7114    7113
CTETRA      3260       1    3622    6229    6228    6239    2848    8077+
+            114    2833    8107    8106
CTETRA      3261       1    3172    5667    5678      24    2571    6525+
+           2437    2652    2655    3044
CTETRA      3262       1    3602    3611    6209    6219    5069    2550+
+           2839    2204    2206    8051
CTETRA      3263       1    3335    5875    3344    5876     663    2055+
+           4328    1839    7081    2509
CTETRA      3264       1    3594    6186    6196    6197    2293    7986+
+            922    2213    7988    7987
CTETRA      3265       1    3577    6173    3586    6174     554     562+
+           5000    2194    7922    2445
CTETRA      3266       1    3569    6161    3578    6162     841     870+
+           4978     842    7888     575
CTETRA      3267       1    8936    3353    3344    5886    5530    4353+
+           5531    1705    1704    2056
CTETRA      3268       1    3177    5694    3186    5695    2115    1818+
+           3888    1157    6572    1146
CTETRA      3269       1    3514    6086    6096    6097    2946    7704+
+           3019    1579    7706    7705
CTETRA      3270       1    3142    5638    5649    5650    2785    6444+
+           2370    2786    6446    6445
CTETRA      3271       1    3430    5989    6000    6001    1596    7433+
+           1591    1589    7435    7434
CTETRA      3272       1    3133    5637    3142    5638    2934    2368+
+           3766    3009    6411    2785
CTETRA      3273       1    3567    6164    6163    6174    1713    7894+
+            544    1714    7924    7923
CTETRA      3274       1    3586    6184    3595    6185     961    1556+
+           5025    1708    7953    1973
CTETRA      3275       1    3440    6000    6010    6011    1593    7462+
+           1342    1775    7464    7463
CTETRA      3276       1    3121    3131    3130    5630    3734    3733+
+           3732    2530     784     412
CTETRA      3277       1    8902    6260    8769    6271    1091    8474+
+            481    1410    8196    8475
CTETRA      3278       1    3401    3411    3410    5970    4512    4511+
+           4510    2702     630    2703
CTETRA      3279       1    3121      21    5620      18    2283    2336+
+            397    2193    2281    1487
CTETRA      3280       1    3201    5720    5731      10    1437    6676+
+            962    3043     828    2950
CTETRA      3281       1    8907    3606    3615    6226    5415    5079+
+           5418    2809     799     798
CTETRA      3282       1    3218    5721    5732    5733    2329    6677+
+           2874    2330    6679    6678
CTETRA      3283       1    8933    3372    3381    5940    5363    4429+
+           5366    1453    2037    2792
CTETRA      3284       1    8932    5940    3381    5951    2694    2792+
+           5365    3001    7296    2522
CTETRA      3285       1    3641    6249    3650    6250    1522    1521+
+           5178    2938    8136    2937
CTETRA      3286       1    8932    3389    3380    5930    5522    4453+
+           5523    2793    2687    2516
CTETRA      3287       1    3588    6204    6203    6214     790    8008+
+           1284    1703    8038    8037
CTETRA      3288       1    3612    6219    6218    6229    2205    8049+
+           1656    2982    8079    8078
CTETRA      3289       1    8907    3615    8774    6226    5418     816+
+            832    2809     798    8525
CTETRA      3290       1    3614    6206    6216    6217     119    8042+
+            807     110    8044    8043
CTETRA      3291       1    8931    3389    8932    5941    5521    5522+
+           8994    2727    3045    3002
CTETRA      3292       1    8932    3389    5930    5941    5522    2687+
+           2793    3002    3045    7266
CTETRA      3293       1    3593    3603    3602    6208    5046    5045+
+           5044    2840    2208    2207
CTETRA      3294       1    3412    5968    5967    5979    2027    7341+
+            606     608    7374    7373
CTETRA      3295       1    8913    3560    3551    6139    5484    4928+
+           5485    2973    3046    2885
CTETRA      3296       1    3604    6196    6206    6207     919    8014+
+            921     917    8016    8015
CTETRA      3297       1    3403    5956    5967    5968    2038    7340+
+           2614    2026    7342    7341
CTETRA      3298       1    8910    3579    3588    6193    5409    5004+
+           5412    2907    2908    1283
CTETRA      3299       1    8908    3606    8775    6215    5416    2171+
+           2170    2168    2166    8527
CTETRA      3300       1    8910    3588    8777    6193    5412    2367+
+           1559    2907    1283    8531
CTETRA      3301       1    3355    3356    3365    5916    4358    4385+
+           4384     648     291     292
CTETRA      3302       1    8908    8776    8775    6194    2462    8886+
+           2170    2925    8461    8462
CTETRA      3303       1    3608    6212    3609    6223    2430     515+
+           5061     516    8062     517
CTETRA      3304       1    3598    6214    6213    6224    2161    8036+
+           2838    2825    8066    8065
CTETRA      3305       1    3544    3554    3553    6147    4909    4908+
+           4907    2340    2117    2118
CTETRA      3306       1    3599    6212    3608    6213    2429    2430+
+           5060    2495    8033    1969
CTETRA      3307       1    3616    3625    6236    6246    5107     803+
+            802      97      99    8128
CTETRA      3308       1    3633    3642    6259    6269    5154    2091+
+           2092    3023    2681    8193
CTETRA      3309       1    3254    5765    5776    5777    2058    6801+
+           1642    2059    6803    6802
CTETRA      3310       1    3201    5731    3210      10     962    1440+
+           3954    3043    2950    1439
CTETRA      3311       1    3264    5797    5796    5808     672    6860+
+            711     979    6893    6892
CTETRA      3312       1    3589    6202    3599    6213    1984    2494+
+           5034    1986    8034    2495
CTETRA      3313       1    3616    6225    6235    6236    1971    8097+
+             95     802    8099    8098
CTETRA      3314       1    8946    3255    3264    5797    5337    4104+
+           5340     671     712     672
CTETRA      3315       1    8944    8812    8811    5809    1117    8850+
+           1116     335    8391    8390
CTETRA      3316       1    3606    6225    3616    6236     796    1971+
+           5081     800    8099     802
CTETRA      3317       1    8949    3236    5743    5754    5556     736+
+           2917    2926     730    6739
CTETRA      3318       1    3685    3695    3694    6316    5302    5301+
+           5300    2456    2549     897
CTETRA      3319       1    3684    3694    3693    6317    5299    5298+
+           5297    1950    1951    3047
CTETRA      3320       1    3402    5959    5958    5970     633    7316+
+            631     629    7349    7348
CTETRA      3321       1    8952    3201    3210      10    5325    3954+
+           5328     826    3043    1439
CTETRA      3322       1    3618    6233    3627    6234    1250    2286+
+           5113    1885    8092     497
CTETRA      3323       1    3624    3633    6248    6258    5129    2086+
+           2085    1648    2189    8162
CTETRA      3324       1    3683    6307    3693    6318    1680    2898+
+           5296    3048    8329    3049
CTETRA      3325       1    3684    3693    6307    6317    5297    2898+
+           1952    1950    3047    8327
CTETRA      3326       1    3674    6297    6296    6307    1678    8269+
+           1683    1679    8299    8298
CTETRA      3327       1    5692    5693      11      25    6566    3050+
+            943    2717    2771    2790
CTETRA      3328       1    3178      11    5693      25     871    3050+
+            771    2714    2790    2771
CTETRA      3329       1    3672    6299    3682    6310    2474    2869+
+           5265    3022    8307     657
CTETRA      3330       1    3629    3630    3639    6241    5120    5147+
+           5146    1614    2402    1223
CTETRA      3331       1    3673    6297    3683    6308    2824    1677+
+           5268    3051    8301    3052
CTETRA      3332       1    3664    6287    3673    6288    2842    2841+
+           5241    2301    8244    2302
CTETRA      3333       1    3663    3673    3672    6299    5240    5239+
+           5238    2473    2868    2474
CTETRA      3334       1    3633    3643    3642    6269    5156    5155+
+           5154    3023    3024    2681
CTETRA      3335       1    3620    6221    6220    6231    2408    8055+
+           1975    1977    8085    8084
CTETRA      3336       1    3592    6188    6198    6199     940    7992+
+            927     930    7994    7993
CTETRA      3337       1    3642    3643    3652    6269    5155    5182+
+           5181    2681    3024    3053
CTETRA      3338       1    3662    3672    3671    6300    5237    5236+
+           5235    2860    2862    2861
CTETRA      3339       1    3364    5916    3365    5927     645     292+
+           4383    1037    7228     287
CTETRA      3340       1    8907    6205    8774    6216     726    8464+
+            832     815    8041    8465
CTETRA      3341       1    3629    3639    3638    6252    5146    5145+
+           5144    1615    1225    1546
CTETRA      3342       1    3642    6269    3652    6280    2681    3053+
+           5181    2935    8223    2855
CTETRA      3343       1    8901    3668    3659    6282    5460    5228+
+           5461    1518    1574    1519
CTETRA      3344       1    3671    3672    3681    6300    5236    5263+
+           5262    2861    2862    1540
CTETRA      3345       1    3636    6245    6244    6255    2188    8123+
+           2112    1685    8153    8152
CTETRA      3346       1    3653    3663    3662    6289    5212    5211+
+           5210    2566    2472    2933
CTETRA      3347       1    3617    3627    3626    6245    5112    5111+
+           5110     498     499     914
CTETRA      3348       1    3654    6267    6266    6277    2185    8185+
+           1624    1616    8215    8214
CTETRA      3349       1    3631    3641    3640    6250    5152    5151+
+           5150    2936    2938    3025
CTETRA      3350       1    3631    3640    6240    6250    5150    2440+
+           2439    2936    3025    8138
CTETRA      3351       1    3622    6218    6228    6229    1658    8076+
+            114    2848    8078    8077
CTETRA      3352       1    3593    6188    6187    6198     941    7962+
+            122     928    7992    7991
CTETRA      3353       1    3645    6266    3654    6267     880    1624+
+           5188    2184    8185    2185
CTETRA      3354       1    3601    6199    3602    6209    2423     931+
+           5042    2424    8023    2839
CTETRA      3355       1    3178    3187    5693      11    3891    1827+
+            771     871     942    3050
CTETRA      3356       1    3600    3601    3610    6211    5039    5066+
+           5065     512    1261    1245
CTETRA      3357       1    3583    6177    6187    6188    1676    7961+
+            120    1661    7963    7962
CTETRA      3358       1    3563    6158    6157    6168    2124    7878+
+           3054     955    7908    7907
CTETRA      3359       1    3582    6179    6189    6190    2583    7967+
+           1665    2426    7969    7968
CTETRA      3360       1    3654    6267    6277    6278    2185    8215+
+           1616    2564    8217    8216
CTETRA      3361       1    3671    6290    6300    6301    2674    8280+
+           2861    1536    8282    8281
CTETRA      3362       1    3553    6148    6147    6158    2341    7850+
+           2118    2119    7880    7879
CTETRA      3363       1    3535    6136    3544    6137    2890    2342+
+           4882    2891    7819     998
CTETRA      3364       1    3590    6191    6190    6201     527    7971+
+           2587     528    8001    8000
CTETRA      3365       1    3551    6139    3560    6140    2885    3046+
+           4928    2669    7826     621
CTETRA      3366       1    3664    6286    3674    6297    1626    1681+
+           5243    2826    8270    1678
CTETRA      3367       1    3673    6287    6297    6298    2841    8271+
+           2824    3055    8273    8272
CTETRA      3368       1    3672    3682    3681    6310    5265    5264+
+           5263    3022     657     656
CTETRA      3369       1    3612    3621    6219    6229    5097    2580+
+           2205    2982    2711    8079
CTETRA      3370       1    3549    3559    3558    6152    4924    4923+
+           4922    2433     543    2434
CTETRA      3371       1    3693    6307    6317    6318    2898    8327+
+           3047    3049    8329    8328
CTETRA      3372       1    3638    6242    6252    6253     777    8144+
+           1546    1549    8146    8145
CTETRA      3373       1    3665    6275    6285    6286      89    8237+
+           1610    1625    8239    8238
CTETRA      3374       1    3373    5927    5938    5939    1998    7259+
+           2464    1999    7261    7260
CTETRA      3375       1    3576    6164    6174    6175    1712    7924+
+           1711    1710    7926    7925
CTETRA      3376       1    3522    6098    6108    6109    2393    7738+
+           1698    2591    7740    7739
CTETRA      3377       1    3364    5927    3373    5928    1037    1998+
+           4407     646    7229    1815
CTETRA      3378       1    3523    6097    6096    6107    1000    7705+
+           3020    1001    7735    7734
CTETRA      3379       1    3547    3548    3557    6143    4892    4919+
+           4918    1724    1725    1980
CTETRA      3380       1    3547    3557    3556    6144    4918    4917+
+           4916    1983    1339    1338
CTETRA      3381       1    3664    6276    6286    6287    2562    8240+
+           1626    2842    8242    8241
CTETRA      3382       1    8915    8916    8783    3533    9010    1423+
+           1422    5489    5490    1539
CTETRA      3383       1    3567    6153    6163    6164    2195    7893+
+            544    1713    7895    7894
CTETRA      3384       1    3630    6240    3640    6251    2403    2440+
+           5149    2404    8140    3026
CTETRA      3385       1    3682    3683    3692    6308    5267    5294+
+           5293    3056    3052    2892
CTETRA      3386       1    3538    3539    3548    6132    4867    4894+
+           4893    2200    1716    2428
CTETRA      3387       1    3508    3518    3517    6103    4809    4808+
+           4807    1731    2002    2442
CTETRA      3388       1    3682    6309    6308    6319    2864    8303+
+           3056    3057    8333    8332
CTETRA      3389       1    3517    3518    3527    6114    4808    4835+
+           4834    2443    3034    3035
CTETRA      3390       1    3540    6120    6130    6131     164    7800+
+            547     549    7802    7801
CTETRA      3391       1    3491    6069    3492    6080    1324     579+
+           4736    1325    7659    1728
CTETRA      3392       1    8683    3693    8702    6318    5448    3058+
+           3108    2922    3049    8490
CTETRA      3393       1    8683    8703    3692    6318    3109    2923+
+           5447    2922    8491    2893
CTETRA      3394       1    3517    6103    3518    6114    2442    2002+
+           4808    2443    7755    3034
CTETRA      3395       1    3505    3506    3515    6085    4776    4803+
+           4802    3059    2804    2805
CTETRA      3396       1    3691    6309    6319    6320    2865    8333+
+           3060    2567    8335    8334
CTETRA      3397       1    3187    5692    5693      11     677    6566+
+           1827     942     943    3050
CTETRA      3398       1    3505    6074    3506    6085    2985    2798+
+           4776    3059    7672    2804
CTETRA      3399       1    3686    3695    6305    6315    5303    2561+
+            421    2753    2460    8321
CTETRA      3400       1    3649    3658    6262    6272    5200    1966+
+           1873    1874    1974    8200
CTETRA      3401       1    3497    6073    3506    6074    1220    2845+
+           4778    2797    7640    2798
CTETRA      3402       1    3683    3692    6308    6318    5294    2892+
+           3052    3048    2893    8330
CTETRA      3403       1    3675    6295    3685    6306    1603    2770+
+           5274    2405    8295    2406
CTETRA      3404       1    8953    5699    8821    5710      26    8370+
+             36    1506    6615    8373
CTETRA      3405       1    8823    5687    5676      15    8623    6552+
+           8624    1845    1264    1040
CTETRA      3406       1    8934    8801    5918    5929    1821    8580+
+            637    1446    8579    7234
CTETRA      3407       1    3475    3476    3485    6055    4692    4719+
+           4718    3032    3061    2773
CTETRA      3408       1    3228    3238    3237    5763    4031    4030+
+           4029     719    1431     720
CTETRA      3409       1    3467    6043    3476    6044     986    2847+
+           4694    2234    7556    2235
CTETRA      3410       1    3476    6045    6044    6055    2851    7559+
+           2235    3061    7589    7588
CTETRA      3411       1    8952    8820    8819    5721    2134    8842+
+            824    2541    8375    8374
CTETRA      3412       1    8949    3236    3227    5743    5556    4028+
+           5557    2917     736    2646
CTETRA      3413       1    3456    3466    3465    6035    4665    4664+
+           4663    2607    2609    2850
CTETRA      3414       1    8947    8948    8815    5765    8978    1187+
+           1213    2921    2384    8382
CTETRA      3415       1    3465    6035    3466    6045    2850    2609+
+           4664    2765    7561    2766
CTETRA      3416       1    8928    3425    5974    5985    5514    2254+
+           3062    1960    2250    7390
CTETRA      3417       1    8947    8948    3246    5775    8978    5336+
+           5335    1953    2388    1195
CTETRA      3418       1    3214    5736    3223    5737    3010    1343+
+           3991    2063    6690    2961
CTETRA      3419       1    8926    3443    5996    6007    5510    1345+
+           2560    1358    1346    7452
CTETRA      3420       1    8955    5677    8823    5688    1207    8366+
+           1061    1062    6553    8369
CTETRA      3421       1    3353    5887    5886    5898    1449    7112+
+           1704    1927    7145    7144
CTETRA      3422       1    3413    3414    3423    5977    4520    4547+
+           4546    2032    2033     598
CTETRA      3423       1    3440    5999    3441    6010    2222    2750+
+           4595    1342    7461     224
CTETRA      3424       1    8951    5721    8819    5732    2540    8374+
+           2537    2873    6677    8377
CTETRA      3425       1    3396    5944    5943    5955    1048    7273+
+           2255    1051    7306    7305
CTETRA      3426       1    8929    3407    8930    5963    5517    5518+
+           8996    2914    2916    2672
CTETRA      3427       1    3403    3413    3412    5967    4518    4517+
+           4516    2614     609     606
CTETRA      3428       1    8931    8799    8932    5951    3063    2911+
+           8994    3003    8575    3001
CTETRA      3429       1    3361    3362    3371    5909    4376    4403+
+           4402    1307    2619    1795
CTETRA      3430       1    3372    5928    5939    5940    1816    7262+
+           2963    2037    7264    7263
CTETRA      3431       1    3402    3403    3412    5969    4489    4516+
+           4515     627    2028    2029
CTETRA      3432       1    3372    3373    3382    5939    4405    4432+
+           4431    2963    1999    2700
CTETRA      3433       1    3381    5939    3382    5950    3000    2700+
+           4430    2520    7293    1787
CTETRA      3434       1    8934    8935    8802    5908    8991    2412+
+           1822    2146    1389    8408
CTETRA      3435       1    3362    5897    5908    5909    1425    7173+
+           2147    2619    7175    7174
CTETRA      3436       1    3386    5933    5944    5945    2141    7275+
+           1047    2256    7277    7276
CTETRA      3437       1    8933    8800    8801    5929    1452    8861+
+           2713    1450    8578    8579
CTETRA      3438       1    8934    8802    8801    5919    1822    8860+
+           1821    2149    8411    8410
CTETRA      3439       1    3311    5850    5849    5861    1109    7009+
+           1112    2679    7042    7041
CTETRA      3440       1    3377    3387    3386    5933    4446    4445+
+           4444    2538    2142    2141
CTETRA      3441       1    3376    5934    3385    5935    1791    1369+
+           4441    1799    7248    1368
CTETRA      3442       1    8932    3381    3390    5951    5365    4454+
+           5368    3001    2522    2523
CTETRA      3443       1    3383    3393    3392    5948    4462    4461+
+           4460    1781    2035     618
CTETRA      3444       1    8933    3380    3371    5919    5524    4428+
+           5525    2152    2515    2150
CTETRA      3445       1    8934    5908    8802    5919    2146    8408+
+           1822    2149    7204    8411
CTETRA      3446       1    3343    5877    5876    5888     302    7084+
+            300    2043    7117    7116
CTETRA      3447       1    3361    5898    3362    5909    1306    2265+
+           4376    1307    7176    2619
CTETRA      3448       1    3352    5887    5898    5899    1392    7145+
+           1926    1393    7147    7146
CTETRA      3449       1    8787    6083    3498    6094    8551    1222+
+           1221    8550    7699    2264
CTETRA      3450       1    8684    8704    3691    6319    3107    2870+
+           5445    2924    8493    3060
CTETRA      3451       1    8783    3533    6106    6117    1539    1514+
+           8446    8447     154    7762
CTETRA      3452       1    8911    8779    3570    6182    1211    2381+
+           5407    1212    8534    1203
CTETRA      3453       1    8910    8778    8911    3579    2905    1210+
+           9015    5409    2906    5410
CTETRA      3454       1    3509    6092    6091    6102    1730    7692+
+           2000     971    7722    7721
CTETRA      3455       1    8917    8784    3524    6095      43      48+
+           5492    2262    8444      49
CTETRA      3456       1    3376    5924    5923    5935    1803    7217+
+           1798    1799    7250    7249
CTETRA      3457       1    3343    5887    3352    5888    1448    1392+
+           4350    2043    7115    1391
CTETRA      3458       1    3358    5902    5913    5914    2958    7188+
+           1923    2581    7190    7189
CTETRA      3459       1    3351    3361    3360    5899    4374    4373+
+           4372    2872    1793    2981
CTETRA      3460       1    3525    6126    3535    6137    1420    2835+
+           4856    3064    7820    2891
CTETRA      3461       1    3350    3351    3360    5900    4345    4372+
+           4371    1457    2040    2997
CTETRA      3462       1    8913    8781    8914    3552    1987    2903+
+           9012    5403    1988    5404
CTETRA      3463       1    3341    5878    3342    5889    2267    2266+
+           4320    1454    7120    2269
CTETRA      3464       1    3351    5888    5899    5900    2039    7148+
+           2872    2040    7150    7149
CTETRA      3465       1    3533    6107    6106    6117    2153    7733+
+           1514     154    7763    7762
CTETRA      3466       1    3333    5877    3342    5878    1840    2041+
+           4322    1848    7087    2266
CTETRA      3467       1    3331    5880    3340    5881    1100    3065+
+           4316    1314    7096    3005
CTETRA      3468       1    3339    3340    3349    5892    4314    4341+
+           4340    2991    2691    2692
CTETRA      3469       1    3339    5881    3340    5892    3039    3005+
+           4314    2991    7129    2691
CTETRA      3470       1    3341    5878    5889    5890    2267    7120+
+           1454    2271    7122    7121
CTETRA      3471       1    3578    6162    6172    6173     575    7918+
+            557     555    7920    7919
CTETRA      3472       1    8704    3691    6319    6320    2870    3060+
+           8493    8494    2567    8334
CTETRA      3473       1    3309    3319    3318    5862    4256    4255+
+           4254    2480    2965    2964
CTETRA      3474       1    3300    5840    3301    5851    1863    1862+
+           4205    2276    7014    2277
CTETRA      3475       1    3290    5809    5820    5821     864    6925+
+            866    2635    6927    6926
CTETRA      3476       1    3676    3685    6295    6305    5275    2770+
+            492     420     422    8293
CTETRA      3477       1    3677    3686    6294    6304    5278    2754+
+            902    2698    2730    8290
CTETRA      3478       1    3678    6303    6313    6314    2106    8317+
+            365    1065    8319    8318
CTETRA      3479       1    3299    5820    5831    5832    2882    6956+
+           2097    2878    6958    6957
CTETRA      3480       1    3299    5831    3308    5832    2097    2756+
+           4228    2878    6957    2879
CTETRA      3481       1    3288    3289    3298    5822    4173    4200+
+           4199    2493    2966    2324
CTETRA      3482       1    9029    9030    8700    6315    3093    8717+
+           3101    2459    8484    8485
CTETRA      3483       1    3613    6218    6217    6228    1657    8046+
+            109     112    8076    8075
CTETRA      3484       1    3298    5821    5832    5833    2676    6959+
+           2877    2326    6961    6960
CTETRA      3485       1    8908    3605    3596    6194    5474    5053+
+           5475    2925    2927     468
CTETRA      3486       1    8682    8702    3693    6317    3105    3058+
+           5449    3066    8489    3047
CTETRA      3487       1    3268    5802    3277    5803    2972    2967+
+           4141    2074    6876     696
CTETRA      3488       1    3267    3268    3277    5804    4114    4141+
+           4140     708    2072     695
CTETRA      3489       1    3250    5769    5780    5781    1932    6813+
+            340    1880    6815    6814
CTETRA      3490       1    3238    5762    5773    5774    1432    6794+
+           1898    1433    6796    6795
CTETRA      3491       1    3248    5773    5772    5784    1152    6792+
+           1131    1133    6825    6824
CTETRA      3492       1    3248    5772    3249    5783    1131    2308+
+           4061    1132    6822    1428
CTETRA      3493       1    8701    3694    6316    6317     895     897+
+           8487    8488    1951    8325
CTETRA      3494       1    3668    6272    6282    6283    2282    8228+
+           1574    1877    8230    8229
CTETRA      3495       1    8703    3692    6318    6319    2923    2893+
+           8491    8492    2894    8331
CTETRA      3496       1    3614    6216    3623    6217     807     105+
+           5103     110    8043     111
CTETRA      3497       1    3217    3218    3227    5733    3976    4003+
+           4002     158    2330     753
CTETRA      3498       1    3234    5745    3235    5756    2242     762+
+           4023    2514    6745    2511
CTETRA      3499       1    3621    6230    6229    6240    2578    8080+
+           2711    2939    8110    8109
CTETRA      3500       1    3225    3226    3235    5745    3998    4025+
+           4024    1817     761     762
CTETRA      3501       1    3625    6236    6246    6247     803    8128+
+             99    1637    8130    8129
CTETRA      3502       1    3235    5755    3244    5756    2510    2654+
+           4050    2511    6743    1476
CTETRA      3503       1    8953    8821    8820    5710      36    8841+
+             37    1506    8373    8372
CTETRA      3504       1    3214    5725    3215    5736    2062     750+
+           3967    3010    6689    2883
CTETRA      3505       1    3214    3215    3224    5736    3967    3994+
+           3993    3010    2883    1344
CTETRA      3506       1    3169    3170    3179    5681    3842    3869+
+           3868     764     835     836
CTETRA      3507       1    8898    6304    8765    6315    1228    8482+
+           1227    2458    8320    8483
CTETRA      3508       1    8951    5731    8819      10    1443    8615+
+           2537    1438    2950     827
CTETRA      3509       1    8898    8765    9030    6315    1227    8897+
+           1515    2458    8483    8484
CTETRA      3510       1    3184    3185    3194    5707    3883    3910+
+           3909    3067    3068    1154
CTETRA      3511       1    3194    5695    5706    5707    2136    6605+
+           1155    1154    6607    6606
CTETRA      3512       1    3175    3185    3184    5696    3884    3883+
+           3882    1488    2335    2886
CTETRA      3513       1    3163    5656    3164    5667    2657    1915+
+           3826    3013    6494    3014
CTETRA      3514       1    3662    6289    3672    6300    2933    2471+
+           5237    2860    8279    2862
CTETRA      3515       1    5666    5678    5677      16    6524    6523+
+           6522    1243    2421    1244
CTETRA      3516       1    3164    5666    3173    5667    1252    1240+
+           3853    3014    6492    2951
CTETRA      3517       1    3143    3153    3152    5647    3796    3795+
+           3794    2901    2476    2475
CTETRA      3518       1    8958    5644    8826    5655    1833    8360+
+           1130     444    6460    8363
CTETRA      3519       1    8905    3632    6227    6238    5468    2832+
+            811    2198    2087    8103
CTETRA      3520       1    3625    3634    6247    6257    5132    1638+
+           1637     900     892    8159
CTETRA      3521       1    8906    8773    8774    6237    2202    8888+
+            831     804    8523    8524
CTETRA      3522       1    3142    3143    3152    5648    3767    3794+
+           3793    2369    3069    2970
CTETRA      3523       1    3305    5834    3306    5845    1629    1628+
+           4220    1098    6996     683
CTETRA      3524       1    8951    8952    8819    5721    8974     824+
+           2537    2540    2541    8374
CTETRA      3525       1    3143    5647    3152    5648    2901    2475+
+           3794    3069    6439    2970
CTETRA      3526       1    3304    3314    3313    5846    4243    4242+
+           4241    1631    1633     684
CTETRA      3527       1    3444    3454    3453    6027    4631    4630+
+           4629    2995    1326    2744
CTETRA      3528       1    3471    3472    3481    6060    4680    4707+
+           4706    2025    1588    3070
CTETRA      3529       1    3355    5905    3356    5916     647    1622+
+           4358     648    7197     291
CTETRA      3530       1    8928    8929    3417    5984    8997    5374+
+           5373    1959    2880    2722
CTETRA      3531       1    8923    8790    8791    6039    1737    8871+
+             61      63    8558    8559
CTETRA      3532       1    3123    5617    5628       1    2633    6385+
+           2318    2311      39      41
CTETRA      3533       1    3141    5639    5640      20    2122    6417+
+           2121    2783    2129    2128
CTETRA      3534       1    3488    6052    6051    6062    1354    7578+
+            217     212    7608    7607
CTETRA      3535       1    5628    5629    5640      20    6386    6419+
+           6418    2127    2333    2128
CTETRA      3536       1    8731    8752    5610      13    8672    8638+
+            994     958     891     890
CTETRA      3537       1    8962    8829    5610    5621      67    8636+
+           1025      69    8635    6365
CTETRA      3538       1    3472    3482    3481    6059    4709    4708+
+           4707    1587     215     214
CTETRA      3539       1    8962    8829    8830    5610      67    8832+
+           1492    1025    8636    8637
CTETRA      3540       1    3282    5819    5818    5830     821    6922+
+            845     833    6955    6954
CTETRA      3541       1    9031    8752    8731      13    8671    8672+
+           8732     907     891     958
CTETRA      3542       1    8945    8946    8813    5787    8980     691+
+            690    1643    1645    8386
CTETRA      3543       1    3282    3292    3291    5829    4181    4180+
+           4179     847    1320     858
CTETRA      3544       1    3244    5766    3253    5767    2871     734+
+           4075     213    6774     207
CTETRA      3545       1    8946    8947    3255    5786    8979    5338+
+           5337    2664    2928    2361
CTETRA      3546       1    3264    5796    3265    5807     711    2051+
+           4105    2177    6890    1471
CTETRA      3547       1    8926    8927    8794    5996    8999    2554+
+           1356    2560    2791    8424
CTETRA      3548       1    8937    5885    3336    5896    1075     664+
+           5355     651    7141     666
CTETRA      3549       1    3443    6007    3452    6008    1346     588+
+           4628    1347    7453     587
CTETRA      3550       1    8928    8795    5984    5995    1957    8568+
+           1959    2954    8567    7420
CTETRA      3551       1    8928    8929    8796    5974    8997    1954+
+           1958    3062    2953    8420
CTETRA      3552       1    3219    5742    5753      12    1445    6738+
+           2101     885    1436    1435
CTETRA      3553       1    3300    5841    5840    5852    2095    6984+
+           1863    2102    7017    7016
CTETRA      3554       1    3606    6215    6225    6226    2166    8069+
+            796     799    8071    8070
CTETRA      3555       1    3297    3298    3307    5833    4198    4225+
+           4224    2325    2326    2060
CTETRA      3556       1    8908    8775    8776    6215    2170    8886+
+           2462    2168    8527    8528
CTETRA      3557       1    3552    6160    6159    6170    1990    7884+
+           2219    2371    7914    7913
CTETRA      3558       1    3385    3386    3395    5945    4442    4469+
+           4468    1066    2256    1067
CTETRA      3559       1    3315    3325    3324    5855    4274    4273+
+           4272    1843    1370    1395
CTETRA      3560       1    3598    3607    6214    6224    5057    2160+
+           2161    2825     165    8066
CTETRA      3561       1    3385    5934    3386    5945    1369    1792+
+           4442    1066    7278    2256
CTETRA      3562       1    3291    5829    5840    5841     858    6983+
+           1861    2677    6985    6984
CTETRA      3563       1    3534    6127    6137    6138    1512    7821+
+            234     233    7823    7822
CTETRA      3564       1    8939    3317    8940    5853    5537    5538+
+           8986    1275    1276    1236
CTETRA      3565       1    8935    8802    8803    5907    2412    8859+
+           1388    1404    8582    8583
CTETRA      3566       1    8943    8811    8810    5820    2180    8851+
+            860     865    8393    8392
CTETRA      3567       1    8912    8913    8780    6150    9013    1992+
+           1991    2666    2899    8453
CTETRA      3568       1    8913    3560    6139    6150    5484    3046+
+           2973    2899     612    7855
CTETRA      3569       1    8913    8780    8781    6160    1992    8881+
+           1987    1989    8537    8538
CTETRA      3570       1    8913    6139    8780    6150    2973    8452+
+           1992    2899    7855    8453
CTETRA      3571       1    3387    5932    5943    5944    1606    7272+
+           1607    2143    7274    7273
CTETRA      3572       1    8960    8827    8828    5632     741    8834+
+           1177     742    8632    8633
CTETRA      3573       1    3137    5622    5611       3    2173    6367+
+           2175    2174    1380    1386
CTETRA      3574       1    3252    5768    5767    5779    1879    6777+
+            208    1886    6810    6809
CTETRA      3575       1    3235    3236    3245    5755    4026    4053+
+           4052    2510     732     733
CTETRA      3576       1    3227    5732    5743    5744     754    6708+
+           2646     755    6710    6709
CTETRA      3577       1    8950    8818    8817    5743    2929    8844+
+           2363    2918    8379    8378
CTETRA      3578       1    3244    5756    5755    5767    1476    6743+
+           2654     213    6776    6775
CTETRA      3579       1    8948    3236    8949    5754    5555    5556+
+           8977    2919     730    2926
CTETRA      3580       1    3303    5848    3312    5849    2045    1092+
+           4238    2274    7006    1111
CTETRA      3581       1    8949    5753    3228    5764    2643    2642+
+           5331    2386    6769     721
CTETRA      3582       1    3387    5943    3396    5944    1607    2255+
+           4472    2143    7273    1048
CTETRA      3583       1    3139    5642    5641    5653    1021    6423+
+           1020    1664    6456    6455
CTETRA      3584       1    3154    3164    3163    5656    3827    3826+
+           3825    1914    1915    2657
CTETRA      3585       1    3155    5644    5655    5656    1498    6460+
+            429    1499    6462    6461
CTETRA      3586       1    3264    3274    3273    5807    4131    4130+
+           4129    2177    1464     879
CTETRA      3587       1    8947    3246    3255    5786    5335    4079+
+           5338    2928    1197    2361
CTETRA      3588       1    3135    3144    5636       6    3772     183+
+           1176    1366     184     186
CTETRA      3589       1    3116    5603    3117    5614     583     582+
+           3720     417    6337     418
CTETRA      3590       1    3146    5634    5633    5645    1164    6399+
+           1496    1180    6432    6431
CTETRA      3591       1    3376    3377    3386    5934    4417    4444+
+           4443    1791    2539    1792
CTETRA      3592       1    3293    3294    3303    5838    4186    4213+
+           4212    2394     322    2273
CTETRA      3593       1    3285    5816    5815    5827    1271    6913+
+           1316    1809    6946    6945
CTETRA      3594       1    3671    6301    6300    6311    1536    8281+
+           2861    1537    8311    8310
CTETRA      3595       1    3653    3662    6279    6289    5210    2932+
+           2559    2566    2933    8249
CTETRA      3596       1    3662    6290    6289    6300    2859    8250+
+           2933    2860    8280    8279
CTETRA      3597       1    3663    6278    6288    6289    2565    8246+
+           2300    2472    8248    8247
CTETRA      3598       1    3115    5604    3116    5615    1502    2078+
+           3716    2344    6341     877
CTETRA      3599       1    8686    3689    3690    6322    5441    5286+
+           5442     899     244     348
CTETRA      3600       1    3643    3652    6269    6279    5182    3053+
+           3024    2558    2980    8221
CTETRA      3601       1    8726    8746    8745    5604    8669    8761+
+           8670    2077    8650    8653
CTETRA      3602       1    3652    6269    6279    6280    3053    8221+
+           2980    2855    8223    8222
CTETRA      3603       1    3396    3397    3406    5954    4473    4500+
+           4499     272    1046     265
CTETRA      3604       1    3632    6239    6238    6249    2830    8105+
+           2087    2089    8135    8134
CTETRA      3605       1    3631    6239    3641    6250    2829    2831+
+           5152    2936    8137    2938
CTETRA      3606       1    3396    5943    3397    5954    2255    1609+
+           4473     272    7303    1046
CTETRA      3607       1    8898    9030    9029    6315    1515    3093+
+           9028    2458    8484    2459
CTETRA      3608       1    3640    6251    6250    6261    3026    8139+
+           3025    2688    8169    8168
CTETRA      3609       1    9029    8700    8681    3695    3101    3102+
+           8695    5453    2548    5452
CTETRA      3610       1    3611    6219    3621    6230    2206    2580+
+           5096    2577    8081    2578
CTETRA      3611       1    3584    6187    6186    6197     121    7959+
+            135     937    7989    7988
CTETRA      3612       1    3593    6187    6197    6198     122    7989+
+            938     928    7991    7990
CTETRA      3613       1    3276    5805    5804    5816     702    6882+
+            709     704    6915    6914
CTETRA      3614       1    3397    3407    3406    5953    4502    4501+
+           4500    1045    2751    1777
CTETRA      3615       1    3581    6190    3590    6191    2586    2587+
+           5010    1258    7971     527
CTETRA      3616       1    3564    6156    6166    6167     957    7902+
+            147     140    7904    7903
CTETRA      3617       1    3590    3591    3600    6201    5011    5038+
+           5037     528    2942    1255
CTETRA      3618       1    3377    3378    3387    5933    4420    4447+
+           4446    2538    2524    2142
CTETRA      3619       1    3535    6126    6125    6136    2835    7788+
+           2834    2890    7818    7817
CTETRA      3620       1    3561    3570    6171    6181    4954    2380+
+           1200    1209    1285    7945
CTETRA      3621       1    3562    6159    6169    6170    2221    7911+
+            946    2372    7913    7912
CTETRA      3622       1    3687    6314    6324    6325    2105    8348+
+            782    1071    8350    8349
CTETRA      3623       1    8898    3687    8689    6325    5433    5436+
+           5435    1069    1071     474
CTETRA      3624       1    8780    6160    3561    6171    8537    1198+
+           1993    8536    7916    1200
CTETRA      3625       1    3544    6137    6147    6148     998    7849+
+           2340     999    7851    7850
CTETRA      3626       1    3508    3509    3518    6103    4783    4810+
+           4809    1731    1732    2002
CTETRA      3627       1    8785    3515    6084    6095    2261    2803+
+           8442    8443    2263    7700
CTETRA      3628       1    3120    5620    5631    5632     398    6394+
+            438     440    6396    6395
CTETRA      3629       1    8918    8785    3515    6084    1128    2261+
+           5494    1144    8442    2803
CTETRA      3630       1    3267    5793    5804    5805    2070    6881+
+            708     701    6883    6882
CTETRA      3631       1    3549    3550    3559    6141    4898    4925+
+           4924    2436    1293     541
CTETRA      3632       1    3131    3132    3141      20    3736    3763+
+           3762    2778    2328    2783
CTETRA      3633       1    3559    6140    3560    6151     622     621+
+           4926     542    7858     595
CTETRA      3634       1    3521    3531    3530    6120    4846    4845+
+           4844    1294     163     162
CTETRA      3635       1    3513    6087    6097    6098    1571    7707+
+           1578    2392    7709    7708
CTETRA      3636       1    3531    6108    3532    6119    1700    1699+
+           4848     169    7768    1696
CTETRA      3637       1    3495    6065    6075    6076    2988    7645+
+           2787    3071    7647    7646
CTETRA      3638       1    3111    3121    5620      18    3698     397+
+            396    2191    2193    1487
CTETRA      3639       1    3494    6065    3495    6076    2781    2988+
+           4745    2983    7647    3071
CTETRA      3640       1    3494    6066    6065    6076    2782    7618+
+           2781    2983    7648    7647
CTETRA      3641       1    3138    5643    5642    5654     563    6426+
+           1662    1398    6459    6458
CTETRA      3642       1    3427    3428    3437    6004    4558    4585+
+           4584    2239    2518    2240
CTETRA      3643       1    3466    3476    3475    6045    4693    4692+
+           4691    2766    2851    2767
CTETRA      3644       1    3464    6047    3473    6048    2533    2019+
+           4685    2764    7567     585
CTETRA      3645       1    3140    3150    3149    5651    3787    3786+
+           3785    2579     531     530
CTETRA      3646       1    8685    3690    3691    6321    5443    5289+
+           5444    2568    2387    2569
CTETRA      3647       1    3123    3133    3132    5628    3740    3739+
+           3738    2318    2589    2287
CTETRA      3648       1    3125    5615    5614    5626    2345    6339+
+           1364    1939    6379    6378
CTETRA      3649       1    3427    5993    3428    6004     258     257+
+           4558    2239    7445    2518
CTETRA      3650       1    3419    5992    3428    5993     254    2135+
+           4560     255    7412     257
CTETRA      3651       1    3474    3475    3484    6056    4689    4716+
+           4715    2739    2812    2736
CTETRA      3652       1    3409    5982    3418    5983    1909    2504+
+           4532    1910    7384     260
CTETRA      3653       1    3180    5679    3189    5691    2629    1660+
+           3897     485    6561     486
CTETRA      3654       1    3409    5971    3410    5982    1908    2705+
+           4508    1909    7383     252
CTETRA      3655       1    5667    5668    5679      24    6495    6528+
+           6527    2655    2651    2632
CTETRA      3656       1    3424    3434    3433    5986    4577    4576+
+           4575    2746    2253    2453
CTETRA      3657       1    3414    5976    3423    5977    2526     601+
+           4547    2033    7366     598
CTETRA      3658       1    3164    5656    5655    5667    1915    6461+
+            428    3014    6494    6493
CTETRA      3659       1    3165    5676    5675    5687     430    6519+
+            436    1263    6552    6551
CTETRA      3660       1    3433    3434    3443    5997    4576    4603+
+           4602    2455    2748    3027
CTETRA      3661       1    8929    3416    5963    5974    5516    2915+
+           2914    2953    2857    7359
CTETRA      3662       1    8929    5963    8797    5974    2914    8418+
+           1955    2953    7359    8421
CTETRA      3663       1    3190    3191    5689      22    3901    1765+
+           1764    2622    2621    2576
CTETRA      3664       1    8925    3443    8926    6007    5509    5510+
+           9000    1359    1346    1358
CTETRA      3665       1    8930    5952    8798    5963    2760    8416+
+           2670    2672    7328    8419
CTETRA      3666       1    3214    5725    5736    5737    2062    6689+
+           3010    2063    6691    6690
CTETRA      3667       1    3406    5954    5953    5965     265    7301+
+           1777     267    7334    7333
CTETRA      3668       1    8950    8951    8818    5732    8975    1442+
+           2929    2971    2873    8376
CTETRA      3669       1    3407    5953    5952    5964    2751    7298+
+           2761    2752    7331    7330
CTETRA      3670       1    3213    5727    3214    5738    2644    1480+
+           3964    1646    6695    1482
CTETRA      3671       1    3223    5748    3232    5749    2943    2501+
+           4016    1651    6724    1652
CTETRA      3672       1    3204    5716    5727    5728    2617    6664+
+           2627    2498    6666    6665
CTETRA      3673       1    3233    5746    5757    5758     852    6748+
+            854    1337    6750    6749
CTETRA      3674       1    8950    3227    3218    5732    5558    4003+
+           5559    2971     754    2874
CTETRA      3675       1    3423    5976    3424    5987     601    2527+
+           4548    2863    7396    2858
CTETRA      3676       1    3223    5736    5747    5748    1343    6720+
+            705    2943    6722    6721
CTETRA      3677       1    3160    5660    5659    5671    1474    6473+
+           2777     399    6506    6505
CTETRA      3678       1    3433    3443    3442    5997    4602    4601+
+           4600    2455    3027    2747
CTETRA      3679       1    3197    5713    3206    5714     380     752+
+           3944     747    6625     751
CTETRA      3680       1    3262    5778    5777    5789     200    6805+
+            844    2164    6838    6837
CTETRA      3681       1    3253    5777    3262    5778     735     844+
+           4100     199    6805     200
CTETRA      3682       1    8947    3254    5765    5776    5552    2058+
+           2921    1215    1642    6801
CTETRA      3683       1    8946    3263    3254    5776    5550    4103+
+           5551    1641    2818    1642
CTETRA      3684       1    3206    5713    5724    5725     752    6655+
+           2064     749    6657    6656
CTETRA      3685       1    8947    3245    8948    5765    5553    5554+
+           8978    2921    2485    2384
CTETRA      3686       1    3442    5997    3443    6008    2747    3027+
+           4601    1333    7455    1347
CTETRA      3687       1    3388    5931    3389    5942    2138    2140+
+           4451    1612    7269    3072
CTETRA      3688       1    3244    3254    3253    5766    4077    4076+
+           4075    2871    2057     734
CTETRA      3689       1    3439    3440    3449    6011    4592    4619+
+           4618    3016    1775    1776
CTETRA      3690       1    3265    3266    3275    5806    4108    4135+
+           4134    1470    2053     323
CTETRA      3691       1    3412    5967    3413    5978     606     609+
+           4517     607    7371     611
CTETRA      3692       1    3250    3251    3260    5780    4067    4094+
+           4093     340     344     341
CTETRA      3693       1    3247    3248    3257    5784    4058    4085+
+           4084    1153    1133     713
CTETRA      3694       1    3238    5773    3247    5774    1898    1151+
+           4057    1433    6795    2231
CTETRA      3695       1    3394    5945    5956    5957    1068    7309+
+           2613    1365    7311    7310
CTETRA      3696       1    3256    3266    3265    5795    4109    4108+
+           4107    2768    2052    1469
CTETRA      3697       1    3215    5724    5735    5736    2065    6686+
+           2109    2883    6688    6687
CTETRA      3698       1    3395    5944    5955    5956    1049    7306+
+           1050    2257    7308    7307
CTETRA      3699       1    3295    5824    3296    5835     693    2491+
+           4192    2158    6968    2159
CTETRA      3700       1    3205    5714    3206    5725    1484     751+
+           3942     748    6658     749
CTETRA      3701       1    3314    5845    5856    5857    1635    7027+
+           2069    1854    7029    7028
CTETRA      3702       1    3278    5812    3287    5813    2645    1406+
+           4169    2969    6904    1396
CTETRA      3703       1    3429    3439    3438    6002    4590    4589+
+           4588    1598    1600    2996
CTETRA      3704       1    3316    5843    5854    5855    2482    7021+
+           1042    1849    7023    7022
CTETRA      3705       1    8943    8811    8944    5819    2180    1116+
+           8982     861    8599     819
CTETRA      3706       1    3349    5890    5901    5902    3073    7154+
+           2399    2959    7156    7155
CTETRA      3707       1    3438    3439    3448    6013    4589    4616+
+           4615    1026     236     237
CTETRA      3708       1    8941    3308    5831    5842    5540    2756+
+           2096    1529    1528    6987
CTETRA      3709       1    3271    5788    5799    5800    1053    6866+
+            983    1113    6868    6867
CTETRA      3710       1    3308    5832    5831    5843    2879    6957+
+           2756    2757    6990    6989
CTETRA      3711       1    3349    5902    3358    5903    2959    2958+
+           4366    2960    7158    2697
CTETRA      3712       1    3302    5838    5849    5850    2395    7008+
+           1110    1108    7010    7009
CTETRA      3713       1    8942    8809    8810    5830    2663    8852+
+            867     869    8596    8597
CTETRA      3714       1    3311    5849    5860    5861    1112    7039+
+           2272    2679    7041    7040
CTETRA      3715       1    3301    5839    5850    5851    1106    7011+
+           1107    2277    7013    7012
CTETRA      3716       1    3337    5883    3338    5894    2470    3074+
+           4308    1375    7135    2145
CTETRA      3717       1    8935    3354    3363    5918    5359    4379+
+           5362     638    1382     639
CTETRA      3718       1    3338    5883    5882    5894    3074    7102+
+           2962    2145    7135    7134
CTETRA      3719       1    3438    6002    3439    6013    2996    1600+
+           4589    1026    7470     236
CTETRA      3720       1    3338    5882    3339    5893    2962    3038+
+           4311    2144    7132    2992
CTETRA      3721       1    3349    5901    3358    5902    2399    2401+
+           4366    2959    7155    2958
CTETRA      3722       1    3340    5880    5879    5891    3065    7093+
+           2686    2689    7126    7125
CTETRA      3723       1    3340    3350    3349    5890    4343    4342+
+           4341    2876    2875    3073
CTETRA      3724       1    3310    5861    3319    5862    2683    3007+
+           4257    2684    7043    2965
CTETRA      3725       1    3308    5842    3317    5843    1528    2479+
+           4253    2757    6988    2758
CTETRA      3726       1    3478    6041    3479    6052    1752    1747+
+           4701    1753    7579    1353
CTETRA      3727       1    3379    3380    3389    5931    4426    4453+
+           4452    2139    2517    2140
CTETRA      3728       1    3459    3460    3469    6031    4648    4675+
+           4674    1757    2216    2016
CTETRA      3729       1    3288    3298    3297    5822    4199    4198+
+           4197    2493    2324    2323
CTETRA      3730       1    3378    5921    3379    5932    2710    2998+
+           4423    1604    7241    2999
CTETRA      3731       1    3379    5931    3388    5932    2139    2138+
+           4450    2999    7239    1605
CTETRA      3732       1    3391    5950    5949    5961    2010    7291+
+           1788    1790    7324    7323
CTETRA      3733       1    3295    3305    3304    5835    4218    4217+
+           4216    2158    2157    2050
CTETRA      3734       1    3299    5821    5820    5832    2636    6926+
+           2882    2878    6959    6958
CTETRA      3735       1    3459    6020    3460    6031    2009    1012+
+           4648    1757    7520    2216
CTETRA      3736       1    3333    3343    3342    5877    4324    4323+
+           4322    1840     302    2041
CTETRA      3737       1    3313    5857    3322    5858     685    1315+
+           4266     686    7031    1311
CTETRA      3738       1    3391    3392    3401    5960    4458    4485+
+           4484    1789     619    1374
CTETRA      3739       1    3295    5835    3304    5836    2158    2050+
+           4216     694    6969    1412
CTETRA      3740       1    3306    5834    5833    5845    1628    6963+
+            681     683    6996    6995
CTETRA      3741       1    3268    5793    5792    5804    2071    6848+
+           2076    2072    6881    6880
CTETRA      3742       1    3411    3412    3421    5980    4514    4541+
+           4540    3011    2030    2075
CTETRA      3743       1    3260    5780    5779    5791     341    6811+
+            336    1120    6844    6843
CTETRA      3744       1    3423    3433    3432    5987    4574    4573+
+           4572    2863    2452    2110
CTETRA      3745       1    3231    5750    5749    5761     851    6727+
+            850     354    6760    6759
CTETRA      3746       1    3256    5785    5784    5796    1192    6826+
+           1190    2769    6859    6858
CTETRA      3747       1    3450    6010    6020    6021     226    7490+
+           1903     220    7492    7491
CTETRA      3748       1    3414    5965    5976    5977    1783    7365+
+           2526    2033    7367    7366
CTETRA      3749       1    3221    3222    3231    5750    3986    4013+
+           4012     358     359     851
CTETRA      3750       1    3213    5727    5738    5739    2644    6695+
+           1646    1009    6697    6696
CTETRA      3751       1    3432    3442    3441    5998    4599    4598+
+           4597    2457     593     222
CTETRA      3752       1    3202    5719    5718    5730     838    6640+
+           2638     840    6673    6672
CTETRA      3753       1    8948    5764    3237    5775    1189     722+
+           5333    2388    6800    1194
CTETRA      3754       1    3228    5753    5752    5764    2642    6736+
+            723     721    6769    6768
CTETRA      3755       1    3634    3643    6258    6268    5157    2190+
+           1649    2827    2556    8190
CTETRA      3756       1    8955    3182    5677    5688    5568    2418+
+           1207    1062    2352    6553
CTETRA      3757       1    8924    8791    6028    6039      62    8560+
+             56      59    8559    7544
CTETRA      3758       1    8954    3191    3182    5688    5566    3903+
+           5567    1508    1865    2352
CTETRA      3759       1    8923    8924    8791    6029    9002      62+
+             61     981      65    8430
CTETRA      3760       1    8922    3470    8790    6040    5503    1738+
+           1864    1867    2132    8433
CTETRA      3761       1    8922    8790    8923    6050    1864    1737+
+           9003    1857    8557    1858
CTETRA      3762       1    3462    6049    3471    6050    1582    1584+
+           4679    2007    7573    1859
CTETRA      3763       1    8924    3453    3462    6039    5381    4654+
+           5384      59      60    2006
CTETRA      3764       1    3467    6033    6043    6044    1750    7555+
+            986    2234    7557    7556
CTETRA      3765       1    3444    6027    3453    6028    2995    2744+
+           4629    1542    7511      58
CTETRA      3766       1    3174    5697    3183    5698    2895    3075+
+           3879    2897    6581    2259
CTETRA      3767       1    3464    6036    6047    6048    2531    7566+
+           2533    2764    7568    7567
CTETRA      3768       1    3482    6059    6069    6070     215    7629+
+            577     201    7631    7630
CTETRA      3769       1    3445    3455    3454    6026    4634    4633+
+           4632    1330    2447    1327
CTETRA      3770       1    3463    6038    6037    6049    2422    7539+
+           3018    1586    7572    7571
CTETRA      3771       1    3453    6038    3462    6039    2535    2008+
+           4654      60    7542    2006
CTETRA      3772       1    3455    3465    3464    6036    4662    4661+
+           4660    3076    2532    2531
CTETRA      3773       1    3471    3481    3480    6060    4706    4705+
+           4704    2025    3070    1279
CTETRA      3774       1    3189    3199    3198    5701    3924    3923+
+           3922     151     153    1016
CTETRA      3775       1    3480    6060    3481    6071    1279    3070+
+           4705    1280    7634    1736
CTETRA      3776       1    3455    6036    3464    6037    3076    2531+
+           4660    2449    7536    2763
CTETRA      3777       1    3483    6057    6067    6068    2011    7623+
+           2013    1894    7625    7624
CTETRA      3778       1    3455    6025    3456    6036    2610    1774+
+           4636    3076    7535    2952
CTETRA      3779       1    3476    3486    3485    6054    4721    4720+
+           4719    2846     766    2989
CTETRA      3780       1    3512    6087    3513    6098    1572    1571+
+           4795     569    7709    2392
CTETRA      3781       1    3226    3236    3235    5744    4027    4026+
+           4025     759     745     760
CTETRA      3782       1    3181    5678    5679      24     910    6526+
+            909    2631    3044    2632
CTETRA      3783       1    3477    6043    6042    6053     988    7553+
+           2599    2229    7583    7582
CTETRA      3784       1    3494    3495    3504    6076    4745    4772+
+           4771    2983    3071    2948
CTETRA      3785       1    3494    3504    3503    6076    4771    4770+
+           4769    2983    2948    2947
CTETRA      3786       1    3496    6064    6063    6074    2601    7612+
+           2986    2796    7642    7641
CTETRA      3787       1    3152    5658    3161    5659    2477    2822+
+           3819    2930    6470    2931
CTETRA      3788       1    3504    3505    3514    6086    4773    4800+
+           4799    1575    3077    2946
CTETRA      3789       1    8908    8909    8776    6194    9017    2366+
+           2462    2925    2807    8461
CTETRA      3790       1    3508    6093    6103    6104    1734    7725+
+           1731    2844    7727    7726
CTETRA      3791       1    3489    6082    3498    6083     202     203+
+           4754     205    7666    1222
CTETRA      3792       1    8917    8785    8918    3516    1201    1128+
+           9008    5395    2268    5396
CTETRA      3793       1    3207    5712    5723    5724     377    6652+
+            737     738    6654    6653
CTETRA      3794       1    3524    6096    6095    6106    2813    7702+
+             49      50    7732    7731
CTETRA      3795       1    3514    3524    3523    6096    4827    4826+
+           4825    3019    2813    3020
CTETRA      3796       1    8908    3605    6194    6205    5474    2927+
+           2925     924     116    8010
CTETRA      3797       1    3506    6074    6073    6084    2798    7640+
+           2845    2802    7670    7669
CTETRA      3798       1    3514    3515    3524    6096    4801    4828+
+           4827    3019    3078    2813
CTETRA      3799       1    3536    6124    3537    6135     655     654+
+           4861     989    7814    2451
CTETRA      3800       1    3546    6135    6145    6146     990    7843+
+           1567    3036    7845    7844
CTETRA      3801       1    3555    3556    3565    6155    4914    4941+
+           4940     951    2817     952
CTETRA      3802       1    3556    6145    6144    6155    1569    7841+
+           1338    2817    7871    7870
CTETRA      3803       1    3153    5657    3162    5658    2944    2945+
+           3822    2478    6467    2940
CTETRA      3804       1    3555    3565    3564    6156    4940    4939+
+           4938     953     954     957
CTETRA      3805       1    3160    5659    3161    5670    2777    2931+
+           3817    2377    6503    2821
CTETRA      3806       1    3205    5715    5714    5726    1466    6628+
+           1484    1478    6661    6660
CTETRA      3807       1    3557    6154    6153    6164    1341    7866+
+           1981    1979    7896    7895
CTETRA      3808       1    3149    5662    3158    5663     349     475+
+           3810     411    6482     445
CTETRA      3809       1    3556    6154    3566    6155    1340    1978+
+           4943    2817    7869    2814
CTETRA      3810       1    3604    3605    3614    6206    5051    5078+
+           5077     921     117     119
CTETRA      3811       1    3605    6205    3614    6206     116     727+
+           5078     117    8012     119
CTETRA      3812       1    3142    5638    5637    5649    2785    6411+
+           2368    2370    6444    6443
CTETRA      3813       1    3605    6195    6194    6205     115    7981+
+           2927     116    8011    8010
CTETRA      3814       1    8910    6172    8777    6183    2365    8458+
+           1559    1561    7948    8459
CTETRA      3815       1    3595    3605    3604    6195    5052    5051+
+           5050    1557     115     920
CTETRA      3816       1    8910    8911    8778    3578    9015    1210+
+           2905    5479    5480    2382
CTETRA      3817       1    3573    6178    3582    6179    1669    1672+
+           4988     139    7937    2583
CTETRA      3818       1    8950    5732    8818    5743    2971    8376+
+           2929    2918    6708    8379
CTETRA      3819       1    3598    3599    3608    6213    5033    5060+
+           5059    2838    2495    1969
CTETRA      3820       1    8728    5606    3114    5607     466     874+
+           5593     459    6354     460
CTETRA      3821       1    3574    6167    6177    6178     150    7933+
+            145    1670    7935    7934
CTETRA      3822       1    8728    8729    8749    5607    8739    8679+
+           8680     459     461    8644
CTETRA      3823       1    8729    3113    8730    5608    5595    5598+
+           8740    1940    1942    1941
CTETRA      3824       1    3553    6159    6158    6169    2220    7881+
+           2119     944    7911    7910
CTETRA      3825       1    3609    6222    3618    6223    2528    1248+
+           5088     517    8061     518
CTETRA      3826       1    3590    3600    3599    6201    5037    5036+
+           5035     528    1255    2519
CTETRA      3827       1    3612    6208    6218    6219    2209    8048+
+           1656    2205    8050    8049
CTETRA      3828       1    3629    6231    6241    6242    2410    8113+
+           1614     776    8115    8114
CTETRA      3829       1    3645    6255    3646    6266    1686    1693+
+           5164     880    8183     881
CTETRA      3830       1    3472    6059    3481    6060    1587     214+
+           4707    1588    7601    3070
CTETRA      3831       1    8905    8772    8773    6248     809    8889+
+           2203    2084    8521    8522
CTETRA      3832       1    3129    5631    3130    5642     439     443+
+           3730    2073    6425     413
CTETRA      3833       1    3615    3624    6237    6247    5104     806+
+            805    1650    1636    8131
CTETRA      3834       1    3481    6060    6059    6071    3070    7601+
+            214    1736    7634    7633
CTETRA      3835       1    3646    6255    6254    6265    1693    8151+
+            506     508    8181    8180
CTETRA      3836       1    3621    6229    3631    6240    2711    2849+
+           5124    2939    8109    2439
CTETRA      3837       1    3603    6208    6207    6218    2208    8018+
+            916    1659    8048    8047
CTETRA      3838       1    8904    6238    8771    6249    2088    8470+
+           1523    1525    8134    8471
CTETRA      3839       1    3113    3123    3122    5618    3706    3705+
+           3703    2356    2594    2349
CTETRA      3840       1    3634    6258    6257    6268    1649    8160+
+            892    2827    8190    8189
CTETRA      3841       1    3640    3649    6251    6261    5175    2695+
+           3026    2688     903    8169
CTETRA      3842       1    3680    6312    6311    6322     242    8312+
+           1538     243    8342    8341
CTETRA      3843       1    3131    5629    5618       1     785    6388+
+           2350    2290      40    2608
CTETRA      3844       1    3661    3662    3671    6290    5208    5235+
+           5234    2673    2859    2674
CTETRA      3845       1    3386    5934    5933    5945    1792    7245+
+           2141    2256    7278    7277
CTETRA      3846       1    3664    6277    6287    6288    1618    8243+
+           2842    2301    8245    8244
CTETRA      3847       1    3682    6298    6308    6309    3079    8302+
+           3056    2864    8304    8303
CTETRA      3848       1    3673    6298    3682    6299    3055    3079+
+           5266    2868    8275    2869
CTETRA      3849       1    3673    3683    3682    6308    5268    5267+
+           5266    3051    3052    3056
CTETRA      3850       1    3208    3218    3217    5722    3977    3976+
+           3975     245     247     744
CTETRA      3851       1    3388    3389    3398    5942    4451    4478+
+           4477    1612    3072    1613
CTETRA      3852       1    3389    5930    5941    5942    2687    7266+
+           3045    3072    7268    7267
CTETRA      3853       1    8702    3693    6317    6318    3058    3047+
+           8489    8490    3049    8328
CTETRA      3854       1    3204    3205    3214    5727    3939    3966+
+           3965    2627    1479    1480
CTETRA      3855       1    8949    3227    8950    5743    5557    5558+
+           8976    2917    2646    2918
CTETRA      3856       1    8682    8702    8683    3693    3105    3108+
+           8698    5449    3058    5448
CTETRA      3857       1    8949    8950    3228      12    8976    5332+
+           5331    2364     884     886
CTETRA      3858       1    8950    8818    8951    5742    2929    1442+
+           8975    2815    8613    1444
CTETRA      3859       1    3512    6089    6088    6099    2125    7683+
+            965     568    7713    7712
CTETRA      3860       1    8683    8703    8684    3692    3109    3110+
+           8699    5447    2923    5446
CTETRA      3861       1    8910    3578    8778    6172    5479    2382+
+           2905    2365     557    8457
CTETRA      3862       1    3266    5805    3275    5806     700     324+
+           4135    2053    6885     323
CTETRA      3863       1    3210    5731    5730    5742    1440    6674+
+           1010    1011    6707    6706
CTETRA      3864       1    3424    5975    5986    5987    2612    7393+
+           2746    2858    7395    7394
CTETRA      3865       1    3643    6269    6268    6279    3024    8191+
+           2556    2558    8221    8220
CTETRA      3866       1    3416    5963    5974    5975    2915    7359+
+           2857    2247    7361    7360
CTETRA      3867       1    3240    5760    5771    5772     353    6788+
+            173    2307    6790    6789
CTETRA      3868       1    8929    5973    3408    5984    1956    3080+
+           5371    2880    7389    2721
CTETRA      3869       1    8929    8796    5973    5984    1954    8570+
+           1956    2880    8569    7389
CTETRA      3870       1    8911    8778    3578    6161    1210    2382+
+           5480    2900    8456     870
CTETRA      3871       1    8779    3569    6150    6161    2665     613+
+           8454    8455     841    7886
CTETRA      3872       1    3567    6163    3577    6174     544     546+
+           4974    1714    7923    2194
CTETRA      3873       1    3651    6280    3661    6291    2397    2856+
+           5206    2398    8254    2390
CTETRA      3874       1    8913    3552    3561    6160    5403    4929+
+           5406    1989    1990    1198
CTETRA      3875       1    8681    8700    8701    6316    3102    8718+
+           3103     896    8486    8487
CTETRA      3876       1    8912    3569    3560    6150    5482    4953+
+           5483    2666     613     612
CTETRA      3877       1    3694    6306    6316    6317    1949    8324+
+            897    1951    8326    8325
CTETRA      3878       1    3545    6136    6146    6147    2343    7846+
+           1566    2116    7848    7847
CTETRA      3879       1    8683    3692    3693    6318    5447    5295+
+           5448    2922    2893    3049
CTETRA      3880       1    3683    3693    3692    6318    5296    5295+
+           5294    3048    3049    2893
CTETRA      3881       1    3543    6149    6148    6159    2374    7853+
+            823    2974    7883    7882
CTETRA      3882       1    3654    3663    6278    6288    5213    2565+
+           2564    2978    2300    8246
CTETRA      3883       1    3583    6178    6177    6188    1671    7934+
+           1676    1661    7964    7963
CTETRA      3884       1    3662    3663    3672    6289    5211    5238+
+           5237    2933    2472    2471
CTETRA      3885       1    3564    6156    3565    6166     957     954+
+           4939     147    7902     148
CTETRA      3886       1    3196    5704    5703    5715    1824    6597+
+           1143    1465    6630    6629
CTETRA      3887       1    3568    3569    3578    6162    4951    4978+
+           4977     574     842     575
CTETRA      3888       1    3663    6289    6288    6299    2472    8247+
+           2300    2473    8277    8276
CTETRA      3889       1    8915    6117    8782    6128    2156    8448+
+           2799    2542    7793    8449
CTETRA      3890       1    3234    3235    3244    5756    4023    4050+
+           4049    2514    2511    1476
CTETRA      3891       1    8948    3245    3236    5754    5554    4053+
+           5555    2919     731     730
CTETRA      3892       1    3654    6278    6277    6288    2564    8216+
+           1616    2978    8246    8245
CTETRA      3893       1    3216    3226    3225    5734    3999    3998+
+           3997    2322     161     717
CTETRA      3894       1    8910    8777    8778    6193    1559    8884+
+           2905    2907    8531    8532
CTETRA      3895       1    3142    3152    3151    5648    3793    3792+
+           3791    2369    2970    2354
CTETRA      3896       1    3652    3653    3662    6279    5183    5210+
+           5209    2980    2559    2932
CTETRA      3897       1    3123    5617    3124    5628    2633    2662+
+           3709    2318    6385    2660
CTETRA      3898       1    8911    8779    8778    6161    1211    8883+
+           1210    2900    8455    8456
CTETRA      3899       1    3651    3661    3660    6291    5206    5205+
+           5204    2398    2390    1961
CTETRA      3900       1    3604    6206    3613    6207     921     118+
+           5075     917    8015     918
CTETRA      3901       1    3650    6250    6249    6260    2937    8136+
+           1521    1520    8166    8165
CTETRA      3902       1    3140    5641    5640    5652     104    6420+
+           1483     132    6453    6452
CTETRA      3903       1    3643    6258    6268    6269    2190    8190+
+           2556    3024    8192    8191
CTETRA      3904       1    3633    6259    6258    6269    2092    8163+
+           2189    3023    8193    8192
CTETRA      3905       1    3645    6256    6266    6267    1688    8184+
+            880    2184    8186    8185
CTETRA      3906       1    3655    6266    6276    6277     882    8212+
+           1232    1617    8214    8213
CTETRA      3907       1    3652    6280    6279    6290    2855    8222+
+           2980    3081    8252    8251
CTETRA      3908       1    8903    3650    6249    6260    5464    1521+
+           1184    1266    1520    8165
CTETRA      3909       1    3612    3622    3621    6229    5099    5098+
+           5097    2982    2848    2711
CTETRA      3910       1    3614    6206    6205    6216     119    8012+
+            727     807    8042    8041
CTETRA      3911       1    3142    5637    3143    5648    2368    2593+
+           3767    2369    6441    3069
CTETRA      3912       1    3639    6252    6251    6262    1225    8142+
+           1224    2469    8172    8171
CTETRA      3913       1    3620    3621    3630    6230    5095    5122+
+           5121    1976    2578    2407
CTETRA      3914       1    3134    3144    3143    5636    3771    3770+
+           3769    1174     183    2592
CTETRA      3915       1    3620    6230    3630    6241    1976    2407+
+           5121    2411    8112    2402
CTETRA      3916       1    3591    6190    6200    6201    2427    7998+
+           2214    2942    8000    7999
CTETRA      3917       1    3234    5746    5745    5757     853    6715+
+           2242     855    6748    6747
CTETRA      3918       1    3181    3190      14      22    3900    1463+
+            911    2588    2622    2602
CTETRA      3919       1    3609    3619    3618    6222    5090    5089+
+           5088    2528    1249    1248
CTETRA      3920       1    3639    3649    3648    6262    5174    5173+
+           5172    2469    1873     495
CTETRA      3921       1    3162    3163    3172       5    3823    3850+
+           3849     125    3082    2653
CTETRA      3922       1    3601    3611    3610    6210    5068    5067+
+           5066    1260    2706    1246
CTETRA      3923       1    3580    3581    3590    6191    4983    5010+
+           5009     525    1258     527
CTETRA      3924       1    3579    3580    3589    6192    4980    5007+
+           5006    1205     524    2513
CTETRA      3925       1    8911    3570    3579    6182    5407    4979+
+           5410    1212    1203    1202
CTETRA      3926       1    8781    6149    3552    6160    8539    2375+
+           1988    8538    7885    1990
CTETRA      3927       1    3558    6153    6152    6163    2196    7863+
+           2434    2197    7893    7892
CTETRA      3928       1    3558    3568    3567    6163    4949    4948+
+           4947    2197     545     544
CTETRA      3929       1    8958    8959    8826    5644    8967    1169+
+           1130    1833    1400    8360
CTETRA      3930       1    3523    3524    3533    6107    4826    4853+
+           4852    1001    2155    2153
CTETRA      3931       1    3568    6152    6151    6162    1996    7860+
+            602     574    7890    7889
CTETRA      3932       1    3168    3178    3177    5683    3865    3864+
+           3863     390     392    2068
CTETRA      3933       1    8911    8912    8779    3569    9014    2481+
+           1211    5481    5482    2665
CTETRA      3934       1    3537    3547    3546    6134    4890    4889+
+           4888    1721    1722    2450
CTETRA      3935       1    3639    3640    3649    6251    5148    5175+
+           5174    1224    3026    2695
CTETRA      3936       1    3203    5717    3204    5728    2957     275+
+           3936    2497    6667    2498
CTETRA      3937       1    3613    6207    6217    6218     918    8045+
+            109    1657    8047    8046
CTETRA      3938       1    3548    6143    6142    6153    1725    7835+
+           2304    2444    7865    7864
CTETRA      3939       1    3169    5672    5671    5683     402    6507+
+            400     391    6540    6539
CTETRA      3940       1    3528    3529    3538    6122    4839    4866+
+           4865    2211     551     553
CTETRA      3941       1    3547    6134    6133    6144    1722    7810+
+           1720    1983    7840    7839
CTETRA      3942       1    3168    5683    3177    5684     390    2068+
+           3863     382    6541     383
CTETRA      3943       1    3526    3527    3536    6125    4833    4860+
+           4859    2808    3030    3031
CTETRA      3944       1    3178    5683    5682    5694     392    6538+
+            769     772    6571    6570
CTETRA      3945       1    3517    3527    3526    6114    4834    4833+
+           4832    2443    3035    3033
CTETRA      3946       1    3242    5758    5757    5769    1888    6749+
+           1931    1889    6782    6781
CTETRA      3947       1    3527    6114    6124    6125    3035    7784+
+            653    3030    7786    7785
CTETRA      3948       1    8920    3489    3498    6083    5389    4754+
+           5392    1127     205    1222
CTETRA      3949       1    3232    5748    5747    5759    2501    6721+
+           1335    2389    6754    6753
CTETRA      3950       1    3487    6063    3496    6064    1740    2986+
+           4750    2600    7612    2601
CTETRA      3951       1    3495    6064    3496    6075    3017    2601+
+           4748    2787    7644    3028
CTETRA      3952       1    3279    5801    5800    5812    2296    6870+
+           1875    2641    6903    6902
CTETRA      3953       1    3296    5823    5834    5835    2490    6965+
+           1627    2159    6967    6966
CTETRA      3954       1    3495    3496    3505    6075    4748    4775+
+           4774    2787    3028    2788
CTETRA      3955       1    3289    5810    5821    5822    1870    6928+
+           2634    2966    6930    6929
CTETRA      3956       1    3485    6055    6065    6066    2773    7617+
+           2780    2774    7619    7618
CTETRA      3957       1    3476    6054    3485    6055    2846    2989+
+           4719    3061    7587    2773
CTETRA      3958       1    3454    3455    3464    6037    4633    4660+
+           4659    2448    2449    2763
CTETRA      3959       1    3455    6025    6036    6037    2610    7535+
+           3076    2449    7537    7536
CTETRA      3960       1    3447    6024    3456    6025     240    2605+
+           4638    1773    7502    1774
CTETRA      3961       1    8925    8793    8792    6018    1551    8869+
+           1543    1360    8429    8428
CTETRA      3962       1    3635    6256    3645    6267    2187    1688+
+           5162    2186    8186    2184
CTETRA      3963       1    3328    3329    3338    5883    4283    4310+
+           4309    2049    2668    3074
CTETRA      3964       1    8928    5974    8796    5985    3062    8420+
+           1958    1960    7390    8423
CTETRA      3965       1    8930    3407    5952    5963    5518    2761+
+           2760    2672    2916    7328
CTETRA      3966       1    3415    5964    3416    5975     271     270+
+           4526    2246    7362    2247
CTETRA      3967       1    3348    5893    5892    5904    2699    7130+
+           2466    2468    7163    7162
CTETRA      3968       1    3329    3339    3338    5882    4312    4311+
+           4310    2755    3038    2962
CTETRA      3969       1    3412    3422    3421    5978    4543    4542+
+           4541     607    1363    1778
CTETRA      3970       1    3311    3321    3320    5860    4262    4261+
+           4260    2272    2623    2624
CTETRA      3971       1    3328    3338    3337    5883    4309    4308+
+           4307    2049    3074    2470
CTETRA      3972       1    3403    5956    3404    5967    2038    2258+
+           4492    2614    7340     616
CTETRA      3973       1    3331    5879    3340    5880    2685    2686+
+           4316    1100    7093    3065
CTETRA      3974       1    3331    5869    5880    5881     311    7095+
+           1100    1314    7097    7096
CTETRA      3975       1    3336    3346    3345    5895    4331    4330+
+           4329    1837    1081    2151
CTETRA      3976       1    3423    5976    5987    5988     601    7396+
+           2863     600    7398    7397
CTETRA      3977       1    3340    5880    5891    5892    3065    7126+
+           2689    2691    7128    7127
CTETRA      3978       1    3340    5881    5880    5892    3005    7096+
+           3065    2691    7129    7128
CTETRA      3979       1    3423    5987    3432    5988    2863    2110+
+           4572     600    7397    2107
CTETRA      3980       1    3413    5977    3422    5978    2032     597+
+           4544     611    7369    1363
CTETRA      3981       1    3412    3413    3422    5978    4517    4544+
+           4543     607     611    1363
CTETRA      3982       1    3393    3403    3402    5958    4490    4489+
+           4488     625    2409     631
CTETRA      3983       1    3401    3402    3411    5970    4486    4513+
+           4512    2702     629     630
CTETRA      3984       1    3411    5969    3412    5980     628    2029+
+           4514    3011    7377    2030
CTETRA      3985       1    3379    5921    5920    5932    2998    7208+
+           2712    2999    7241    7240
CTETRA      3986       1    3388    5932    5931    5943    1605    7239+
+           2138    1608    7272    7271
CTETRA      3987       1    8934    3363    3372    5929    5361    4404+
+           5364    1446    1447    1451
CTETRA      3988       1    3370    3371    3380    5920    4401    4428+
+           4427    1796    1797    2678
CTETRA      3989       1    8934    3371    3362    5908    5526    4403+
+           5527    2146    2148    2147
CTETRA      3990       1    3371    5909    5908    5920    1795    7174+
+           2148    1797    7207    7206
CTETRA      3991       1    3360    5899    3361    5910    2981    1793+
+           4373    1299    7179    1304
CTETRA      3992       1    3351    5899    3360    5900    2872    2981+
+           4372    2040    7149    2997
CTETRA      3993       1    3359    5900    3360    5911    2707    2997+
+           4370    2718    7182    1301
CTETRA      3994       1    3359    3360    3369    5911    4370    4397+
+           4396    2718    1301    1302
CTETRA      3995       1    3331    5868    5879    5880     309    7092+
+           2685    1100    7094    7093
CTETRA      3996       1    3329    5871    3330    5882    2667    2628+
+           4286    2755    7101    3037
CTETRA      3997       1    3330    3340    3339    5881    4315    4314+
+           4313    3004    3005    3039
CTETRA      3998       1    8931    5941    8799    5952    2727    8414+
+           3063    2728    7297    8417
CTETRA      3999       1    3310    3320    3319    5861    4259    4258+
+           4257    2683    2680    3007
CTETRA      4000       1    3398    5952    3407    5953    2729    2761+
+           4503    2881    7298    2751
CTETRA      4001       1    3320    5871    3329    5872    2625    2667+
+           4285    3006    7071    2383
CTETRA      4002       1    3406    5964    3415    5965     269     271+
+           4525     267    7332     268
CTETRA      4003       1    3309    5851    3310    5862    2285    2278+
+           4230    2480    7045    2684
CTETRA      4004       1    3442    3452    3451    6008    4627    4626+
+           4625    1333     587     590
CTETRA      4005       1    3318    5862    3319    5873    2964    2965+
+           4255    3040    7076    2320
CTETRA      4006       1    3309    5852    5851    5863    2099    7015+
+           2285    1526    7048    7047
CTETRA      4007       1    3319    5862    5861    5873    2965    7043+
+           3007    2320    7076    7075
CTETRA      4008       1    3391    5960    3400    5961    1789    2733+
+           4482    1790    7322    2317
CTETRA      4009       1    3300    5851    3309    5852    2276    2285+
+           4229    2102    7015    2099
CTETRA      4010       1    3390    5950    3391    5961    2521    2010+
+           4455    2741    7324    1790
CTETRA      4011       1    3390    5961    3399    5962    2741    2316+
+           4479    2732    7325    2735
CTETRA      4012       1    3325    5865    3334    5866     295     304+
+           4300    1371    7053     303
CTETRA      4013       1    3448    6013    6012    6023     237    7468+
+            232    1759    7499    7498
CTETRA      4014       1    3454    6037    3463    6038    2448    3018+
+           4657    1328    7539    2422
CTETRA      4015       1    8941    8808    5841    5852    1531    8594+
+           2093    1532    8593    7017
CTETRA      4016       1    3318    5862    5873    5874    2964    7076+
+           3040    1429    7078    7077
CTETRA      4017       1    3410    3420    3419    5981    4537    4536+
+           4535     250    2745     251
CTETRA      4018       1    3418    5982    5993    5994    2504    7414+
+            256     262    7416    7415
CTETRA      4019       1    3293    3303    3302    5838    4212    4211+
+           4210    2394    2273    2395
CTETRA      4020       1    3453    6027    3454    6038    2744    1326+
+           4630    2535    7541    1328
CTETRA      4021       1    3420    5980    3421    5991    3012    2075+
+           4539    1594    7408    1291
CTETRA      4022       1    3279    5811    3288    5812    1876    2492+
+           4172    2641    6901    2486
CTETRA      4023       1    3287    3288    3297    5823    4170    4197+
+           4196    1407    2487    2759
CTETRA      4024       1    8682    3693    3694    6317    5449    5298+
+           5450    3066    3047    1951
CTETRA      4025       1    3280    5800    5799    5811    1114    6867+
+            329    1871    6900    6899
CTETRA      4026       1    3250    5770    5769    5781     360    6783+
+           1932    1880    6816    6815
CTETRA      4027       1    3268    5791    3269    5802    1123    1121+
+           4117    2972    6875    2503
CTETRA      4028       1    3259    5781    5792    5793    1881    6847+
+           2310    2309    6849    6848
CTETRA      4029       1    3246    3247    3256    5785    4055    4082+
+           4081    2232    1191    1192
CTETRA      4030       1    3257    5783    5794    5795     714    6853+
+           2079     715    6855    6854
CTETRA      4031       1    3455    3456    3465    6036    4636    4663+
+           4662    3076    2952    2532
CTETRA      4032       1    8947    5775    3246    5786    1953    1195+
+           5335    2928    6831    1197
CTETRA      4033       1    3458    6023    6022    6033    1758    7497+
+            229    1749    7527    7526
CTETRA      4034       1    3466    6035    6034    6045    2609    7531+
+           2238    2766    7561    7560
CTETRA      4035       1    3247    5774    5773    5785    2231    6795+
+           1151    1191    6828    6827
CTETRA      4036       1    3218    5732    3227    5733    2874     754+
+           4003    2330    6678     753
CTETRA      4037       1    3225    3235    3234    5745    4024    4023+
+           4022    1817     762    2242
CTETRA      4038       1    3475    3485    3484    6056    4718    4717+
+           4716    2812    2772    2736
CTETRA      4039       1    3145    5645    3154    5646    1179    1494+
+           3800    1831    6433    1493
CTETRA      4040       1    3184    5696    3185    5707    2886    2335+
+           3883    3067    6608    3068
CTETRA      4041       1    3193    5707    3194    5718    3042    1154+
+           3908    2637    6639    1156
CTETRA      4042       1    3514    6086    6085    6096    2946    7674+
+           3083    3019    7704    7703
CTETRA      4043       1    3185    5695    3194    5707    1147    2136+
+           3910    3068    6607    1154
CTETRA      4044       1    8922    8789    3479    6040    1760    1770+
+           5502    1867    8434    1771
CTETRA      4045       1    3194    5706    5717    5718    1155    6636+
+            273    1156    6638    6637
CTETRA      4046       1    8920    3497    3488    6062    5498    4753+
+           5499     211    1394     212
CTETRA      4047       1    3173    5677    3182      16    1241    2418+
+           3878    1242    1244    2420
CTETRA      4048       1    3163    5667    3172    5668    3013    2571+
+           3850    3084    6495    2649
CTETRA      4049       1    3498    6082    6093    6094     203    7696+
+           2794    2264    7698    7697
CTETRA      4050       1    3163    5668    3172       5    3084    2649+
+           3850    3082    2604    2653
CTETRA      4051       1    3154    5645    5656    5657    1494    6463+
+           1914    1495    6465    6464
CTETRA      4052       1    3163    3173    3172    5667    3852    3851+
+           3850    3013    2951    2571
CTETRA      4053       1    8914    3551    3542    6128    5486    4903+
+           5487    2801    2224    2223
CTETRA      4054       1    3133    3143    3142    5637    3768    3767+
+           3766    2934    2593    2368
CTETRA      4055       1    3143    5637    5636    5648    2593    6408+
+           2592    3069    6441    6440
CTETRA      4056       1    8910    8778    8777    6172    2905    8884+
+           1559    2365    8457    8458
CTETRA      4057       1    3547    6144    3556    6145    1983    1338+
+           4916    1568    7841    1569
CTETRA      4058       1    3151    3161    3160    5659    3818    3817+
+           3816    2529    2931    2777
CTETRA      4059       1    3124    5616    5627    5628    2338    6382+
+             90    2660    6384    6383
CTETRA      4060       1    3121    3122    3131    5630    3701    3735+
+           3734    2530    2351     784
CTETRA      4061       1    3158    5663    5662    5674     445    6482+
+            475    1906    6515    6514
CTETRA      4062       1    3565    6155    6165    6166     952    7899+
+           2331     148    7901    7900
CTETRA      4063       1    8729    8750    8749    5608    8678    8757+
+           8679    1940    8642    8645
CTETRA      4064       1    8961    3128    3119    5611    5580    3727+
+           5581    1384    1383    1490
CTETRA      4065       1    3121    5619    5620      21    2358    6359+
+            397    2283    2337    2336
CTETRA      4066       1    3565    3566    3575    6165    4942    4969+
+           4968    2331    1401    2332
CTETRA      4067       1    3510    6090    6100    6101     178    7716+
+           2226    2015    7718    7717
CTETRA      4068       1    3611    6220    6219    6230    2551    8052+
+           2206    2577    8082    8081
CTETRA      4069       1    8730    8751    8750    5609    8674    8756+
+           8675    2348    8640    8643
CTETRA      4070       1    3112    3122    3121      21    3702    3701+
+           3699    2280    2359    2283
CTETRA      4071       1    3511    6099    3521    6100    2126    1706+
+           4818     573    7714    1709
CTETRA      4072       1    3145    3155    3154    5645    3802    3801+
+           3800    1179    1181    1494
CTETRA      4073       1    3623    6217    6227    6228     111    8073+
+            108     113    8075    8074
CTETRA      4074       1    3603    3612    6208    6218    5072    2209+
+           2208    1659    1656    8048
CTETRA      4075       1    8731    8751    5609    5610    8673    8640+
+           2536     994    8641    6366
CTETRA      4076       1    3510    3520    3519    6101    4815    4814+
+           4813    2015    1994     977
CTETRA      4077       1    3632    6228    6227    6238    2573    8074+
+           2832    2087    8104    8103
CTETRA      4078       1    8911    3579    8778    6182    5410    2906+
+           1210    1212    1202    8533
CTETRA      4079       1    8907    8775    8774    6205    2169    8887+
+            832     726    8463    8464
CTETRA      4080       1    3510    3511    3520    6100    4789    4816+
+           4815    2226     573    2005
CTETRA      4081       1    3256    5784    5795    5796    1190    6856+
+           2768    2769    6858    6857
CTETRA      4082       1    3652    6279    3662    6290    2980    2932+
+           5209    3081    8251    2859
CTETRA      4083       1    8949    8816    8817    5753    2385    8845+
+           2362    2643    8610    8611
CTETRA      4084       1    8926    3435    3444    6017    5377    4604+
+           5380    1550    2553    1548
CTETRA      4085       1    3661    3671    3670    6301    5234    5233+
+           5232    2675    1536    1533
CTETRA      4086       1    3513    3523    3522    6097    4824    4823+
+           4822    1578    1000    2391
CTETRA      4087       1    3560    6140    6139    6150     621    7826+
+           3046     612    7856    7855
CTETRA      4088       1    3635    6257    6256    6267     893    8157+
+           2187    2186    8187    8186
CTETRA      4089       1    3672    6300    6299    6310    2862    8278+
+           2474    3022    8308    8307
CTETRA      4090       1    8958    3146    8959    5644    5575    5576+
+           8967    1833    1497    1400
CTETRA      4091       1    8902    6281    3660    6292     756     758+
+           5428     483    8257    1965
CTETRA      4092       1    3560    6140    6150    6151     621    7856+
+            612     595    7858    7857
CTETRA      4093       1    8959    3146    3137    5633    5576    3778+
+           5577    1832    1496    1868
CTETRA      4094       1    3673    6298    6297    6308    3055    8272+
+           2824    3051    8302    8301
CTETRA      4095       1    3681    3691    3690    6321    5290    5289+
+           5288    2867    2569    2387
CTETRA      4096       1    3522    6108    3531    6109    1698    1700+
+           4847    2591    7739     168
CTETRA      4097       1    3541    6118    3542    6129    1695     157+
+           4876    1027    7796    1028
CTETRA      4098       1    8931    8932    8799    5941    8994    2911+
+           3063    2727    3002    8414
CTETRA      4099       1    3673    6288    6287    6298    2302    8244+
+           2841    3055    8274    8273
CTETRA      4100       1    8684    3691    3692    6319    5445    5292+
+           5446    2924    3060    2894
CTETRA      4101       1    8927    8794    8795    5995    2554    8867+
+           2725    2975    8566    8567
CTETRA      4102       1    3673    3682    6298    6308    5266    3079+
+           3055    3051    3056    8302
CTETRA      4103       1    8931    8798    8799    5951    2910    8863+
+           3063    3003    8574    8575
CTETRA      4104       1    3682    6299    6309    6310    2869    8305+
+           2864     657    8307    8306
CTETRA      4105       1    3682    3691    6309    6319    5291    2865+
+           2864    3057    3060    8333
CTETRA      4106       1    3682    6299    6298    6309    2869    8275+
+           3079    2864    8305    8304
CTETRA      4107       1    8688    8709    8689    3687    3095    3096+
+           8692    5437    1072    5436
CTETRA      4108       1    3661    3670    6291    6301    5232    1962+
+           2390    2675    1533    8283
CTETRA      4109       1    5666    5667    5678      16    6492    6525+
+           6524    1243    2572    2421
CTETRA      4110       1    8901    6271    8768    6282    1517    8476+
+           1122    1518    8227    8477
CTETRA      4111       1    8899    8900    3678    6314    9026    5432+
+           5431    1150    1968    1065
CTETRA      4112       1    3190    5689    5690      22    1764    6557+
+           2956    2622    2576    2575
CTETRA      4113       1    3522    6098    6097    6108    2393    7708+
+           2391    1698    7738    7737
CTETRA      4114       1    8932    5930    8800    5941    2793    8412+
+           2693    3002    7266    8415
CTETRA      4115       1    8930    8798    8931    5962    2670    2910+
+           8995    2762    8573    2734
CTETRA      4116       1    3631    6229    6239    6240    2849    8107+
+           2829    2439    8109    8108
CTETRA      4117       1    3640    3641    3650    6250    5151    5178+
+           5177    3025    2938    2937
CTETRA      4118       1    8905    6227    8772    6238     811    8468+
+            809    2198    8103    8469
CTETRA      4119       1    3389    5931    5930    5942    2140    7236+
+           2687    3072    7269    7268
CTETRA      4120       1    3363    5918    5917    5929     639    7201+
+           1811    1447    7234    7233
CTETRA      4121       1    3640    6250    3650    6261    3025    2937+
+           5177    2688    8168     904
CTETRA      4122       1    8929    8930    8797    5963    8996    2671+
+           1955    2914    2672    8418
CTETRA      4123       1    3512    6098    3522    6109     569    2393+
+           4821     570    7740    2591
CTETRA      4124       1    8904    8772    8771    6238     808    8890+
+           1523    2088    8469    8470
CTETRA      4125       1    3632    6228    6238    6239    2573    8104+
+           2087    2830    8106    8105
CTETRA      4126       1    3512    3513    3522    6098    4795    4822+
+           4821     569    2392    2393
CTETRA      4127       1    8904    8905    8772    6238    9021     809+
+            808    2088    2198    8469
CTETRA      4128       1    8933    8801    8800    5930    2713    8861+
+           1452    2723    8413    8412
CTETRA      4129       1    8932    3380    8933    5930    5523    5524+
+           8993    2793    2516    2723
CTETRA      4130       1    3637    6243    6253    6254    1554    8147+
+           1544     887    8149    8148
CTETRA      4131       1    8903    3642    3651    6270    5423    5179+
+           5426    1229    2682    1265
CTETRA      4132       1    8829    5611    5622       3    8354    6367+
+           8357      75    1386    1380
CTETRA      4133       1    8913    8781    8780    6139    1987    8881+
+           1992    2973    8451    8452
CTETRA      4134       1    3648    3649    3658    6262    5173    5200+
+           5199     495    1873    1966
CTETRA      4135       1    3581    6180    6190    6191    1675    7970+
+           2586    1258    7972    7971
CTETRA      4136       1    3602    6199    6198    6209     931    7993+
+            929    2839    8023    8022
CTETRA      4137       1    8928    3416    8929    5974    5515    5516+
+           8997    3062    2857    2953
CTETRA      4138       1    3545    3546    3555    6146    4886    4913+
+           4912    1566    3036    1565
CTETRA      4139       1    3543    3553    3552    6159    4906    4905+
+           4904    2974    2220    2219
CTETRA      4140       1    3546    6145    3555    6146    1567    2836+
+           4913    3036    7844    1565
CTETRA      4141       1    3601    6200    6199    6210    1259    7996+
+           2423    1260    8026    8025
CTETRA      4142       1    3575    6166    6165    6176    1887    7900+
+           2332     128    7930    7929
CTETRA      4143       1    8682    3694    8701    6317    5450     895+
+           3104    3066    1951    8488
CTETRA      4144       1    8914    8782    3543    6149    2800    2909+
+           5401    2373    8540    2374
CTETRA      4145       1    9031    8830    9032    8752    1491    8831+
+           8663    8671    8639    8754
CTETRA      4146       1    8917    8785    8784    6095    1201    8877+
+             43    2262    8443    8444
CTETRA      4147       1    8914    3552    8781    6149    5404    1988+
+           2903    2373    2375    8539
CTETRA      4148       1    8901    3659    8902    6271    5461    5462+
+           9024    1517     935    1410
CTETRA      4149       1    8903    8771    3642    6270    1182    2090+
+           5423    1229    8518    2682
CTETRA      4150       1    8916    8784    3525    6127      42      44+
+           5397    1511    8544    1530
CTETRA      4151       1    8905    8773    8772    6227    2203    8889+
+            809     811    8467    8468
CTETRA      4152       1    3530    6120    3540    6131     162     164+
+           4871    2417    7802     549
CTETRA      4153       1    8961    8828    8829    5621      70    8833+
+             66      68    8634    8635
CTETRA      4154       1    3417    5994    3426    5995     261    1031+
+           4554    2955    7418    2976
CTETRA      4155       1    3501    6080    6079    6090     970    7658+
+           1727     176    7688    7687
CTETRA      4156       1    3117    5602    5613    5614     364    6333+
+            403     418    6336    6335
CTETRA      4157       1    3503    6077    6076    6087    2414    7649+
+           2947    1570    7679    7678
CTETRA      4158       1    8947    5765    8815    5776    2921    8382+
+           1213    1215    6801    8385
CTETRA      4159       1    8946    8814    8813    5787    1640    8848+
+            691    1645    8387    8386
CTETRA      4160       1    3484    3485    3494    6066    4717    4744+
+           4743    2737    2774    2782
CTETRA      4161       1    3530    6121    6120    6131    2004    7773+
+            162    2417    7803    7802
CTETRA      4162       1    8914    8782    8915    3543    2800    2799+
+           9011    5401    2909    5402
CTETRA      4163       1    3118    5602    5601    5613     363    6334+
+            959     404    6333    6332
CTETRA      4164       1    8943    8810    8811    5819     860    8851+
+           2180     861    8598    8599
CTETRA      4165       1    8828    5632    5621       2    8633    6397+
+           8634      72    1620      73
CTETRA      4166       1    8960    5632    8828       2     742    8633+
+           1177    1178    1620      72
CTETRA      4167       1    3475    6055    3485    6056    3032    2773+
+           4718    2812    7590    2772
CTETRA      4168       1    3121    5630    3130    5631    2530     412+
+           3732     442    6392     443
CTETRA      4169       1    3475    6045    3476    6055    2767    2851+
+           4692    3032    7589    3061
CTETRA      4170       1    3111    5620    3120    5621     396     398+
+           3696    1552    6363    1553
CTETRA      4171       1    3494    6067    6066    6077    3021    7621+
+           2782    2984    7651    7650
CTETRA      4172       1    8724    8743    5601    5602    8665    8656+
+           1390    1171    8657    6334
CTETRA      4173       1    3462    6039    6038    6050    2006    7542+
+           2008    2007    7575    7574
CTETRA      4174       1    3420    5991    3429    5992    1594    1287+
+           4563    2512    7409    1286
CTETRA      4175       1    3408    5973    5972    5984    3080    7356+
+           1913    2721    7389    7388
CTETRA      4176       1    3417    5983    5994    5995     259    7417+
+            261    2955    7419    7418
CTETRA      4177       1    3435    3445    3444    6016    4606    4605+
+           4604    2853    2525    2990
CTETRA      4178       1    3444    6016    3445    6027    2990    2525+
+           4605    2995    7510    1331
CTETRA      4179       1    8931    5951    3390    5962    3003    2523+
+           5367    2734    7327    2732
CTETRA      4180       1    8936    3345    3354    5907    5357    4354+
+           5360    1405    1828    1381
CTETRA      4181       1    8931    8798    5951    5962    2910    8574+
+           3003    2734    8573    7327
CTETRA      4182       1    3390    5950    5961    5962    2521    7324+
+           2741    2732    7326    7325
CTETRA      4183       1    8931    8799    8798    5952    3063    8863+
+           2910    2728    8417    8416
CTETRA      4184       1    3543    6148    3553    6159     823    2341+
+           4906    2974    7882    2220
CTETRA      4185       1    3397    5943    5942    5954    1609    7270+
+           1044    1046    7303    7302
CTETRA      4186       1    3655    6265    3656    6275    1963    1623+
+           5192      88    8209      85
CTETRA      4187       1    3369    5911    5910    5922    1302    7180+
+           1300    2993    7213    7212
CTETRA      4188       1    9031    9032    8830    5600    8663    8831+
+           1491     787    8352    8351
CTETRA      4189       1    3368    5911    3369    5922    2719    1302+
+           4395    2543    7213    2993
CTETRA      4190       1    3385    5934    5945    5946    1369    7278+
+           1066    1076    7280    7279
CTETRA      4191       1    3330    5881    3339    5882    3004    3039+
+           4313    3037    7099    3038
CTETRA      4192       1    3339    5881    5892    5893    3039    7129+
+           2991    2992    7131    7130
CTETRA      4193       1    3152    5648    5647    5659    2970    6439+
+           2475    2930    6472    6471
CTETRA      4194       1    3143    5636    5647    5648    2592    6438+
+           2901    3069    6440    6439
CTETRA      4195       1    8959    5643    8827       8     564    8631+
+           1399     565     567     640
CTETRA      4196       1    3552    3562    3561    6170    4931    4930+
+           4929    2371    2372    1199
CTETRA      4197       1    3129    3130    3139    5642    3730    3757+
+           3756    2073     413    1021
CTETRA      4198       1    3162    5669    5657       5     124    6499+
+           2945     125     127    2603
CTETRA      4199       1    3162    5669    3171      23     124     123+
+           3847    2941    2597    2819
CTETRA      4200       1    3161    3162    3171      23    3820    3847+
+           3846    2823    2941    2819
CTETRA      4201       1    3163    5656    5667    5668    2657    6494+
+           3013    3084    6496    6495
CTETRA      4202       1    3162    5657    3163       5    2945    2658+
+           3823     125    2603    3082
CTETRA      4203       1    3219    5752    3228    5753     539     723+
+           4004    2101    6736    2642
CTETRA      4204       1    3255    5785    3256    5796    2360    1192+
+           4080     710    6859    2769
CTETRA      4205       1    3174    5687    5686    5698    1269    6550+
+           2585    2897    6583    6582
CTETRA      4206       1    3174    3175    3184    5697    3855    3882+
+           3881    2895    1489    2887
CTETRA      4207       1    8962    8830    8829    5611    1492    8832+
+             67    1500    8355    8354
CTETRA      4208       1    3184    5696    5707    5708    2886    6608+
+           3067    3085    6610    6609
CTETRA      4209       1    3183    5708    3192    5709    3086     948+
+           3904      30    6612      31
CTETRA      4210       1    3183    3184    3193    5708    3880    3907+
+           3906    3086    3085    3041
CTETRA      4211       1    3199    5700    5689      19    2656    6587+
+           2483    2484    1746    1767
CTETRA      4212       1    3199    5700    3200    5711    2656    1743+
+           3926    2137    6618    2488
CTETRA      4213       1    8953    3192    3201    5720    5323    3929+
+           5326    1507     950    1437
CTETRA      4214       1    3183    5698    5697    5709    2259    6581+
+           3075      30    6614    6613
CTETRA      4215       1    3202    3212    3211    5729    3959    3958+
+           3957    2775    2506    2505
CTETRA      4216       1    3573    6168    6167    6178     137    7906+
+            141    1669    7936    7935
CTETRA      4217       1    3301    5840    5839    5851    1862    6981+
+           1106    2277    7014    7013
CTETRA      4218       1    3184    5697    5696    5708    2887    6578+
+           2886    3085    6611    6610
CTETRA      4219       1    3307    5833    5832    5844    2060    6960+
+           2066    2061    6993    6992
CTETRA      4220       1    3185    5696    5695    5707    2335    6575+
+           1147    3068    6608    6607
CTETRA      4221       1    3194    3204    3203    5717    3937    3936+
+           3935     273     275    2957
CTETRA      4222       1    3204    3214    3213    5727    3965    3964+
+           3963    2627    1480    2644
CTETRA      4223       1    8731    5609    3111    5610    2536    2217+
+           5306     994    6366     995
CTETRA      4224       1    3555    6146    6156    6157    1565    7874+
+            953    1563    7876    7875
CTETRA      4225       1    3297    5833    3306    5834    2325     681+
+           4222    1630    6963    1628
CTETRA      4226       1    3553    6158    3563    6169    2119    2124+
+           4934     944    7910     945
CTETRA      4227       1    3555    6145    6155    6156    2836    7871+
+            951     953    7873    7872
CTETRA      4228       1    3282    5818    5829    5830     845    6952+
+            847     833    6954    6953
CTETRA      4229       1    3190    5690    5689    5701    2956    6557+
+           1764     152    6590    6589
CTETRA      4230       1    8942    5820    8810    5831    2291    8392+
+            867    2098    6956    8395
CTETRA      4231       1    3307    5832    3308    5843    2066    2879+
+           4226    2067    6990    2757
CTETRA      4232       1    8950    3227    5732    5743    5558     754+
+           2971    2918    2646    6708
CTETRA      4233       1    3316    5843    3317    5854    2482    2758+
+           4251    1042    7021    1043
CTETRA      4234       1    3224    5746    3233    5747    1813     852+
+           4019     706    6718     707
CTETRA      4235       1    3277    5803    5802    5814     696    6876+
+           2967    2500    6909    6908
CTETRA      4236       1    3276    3277    3286    5815    4139    4166+
+           4165    2496     697    1317
CTETRA      4237       1    3258    5793    3267    5794    2080    2070+
+           4113    1416    6851     699
CTETRA      4238       1    3286    3287    3296    5824    4167    4194+
+           4193    1297    1397    2491
CTETRA      4239       1    8941    3300    3309    5852    5347    4229+
+           5350    1532    2102    2099
CTETRA      4240       1    3593    6197    3603    6208     938    2212+
+           5046    2840    8019    2208
CTETRA      4241       1    8942    3291    3300    5841    5345    4204+
+           5348    2094    2677    2095
CTETRA      4242       1    3281    5798    5809    5810     326    6894+
+            334     331    6896    6895
CTETRA      4243       1    3278    3288    3287    5812    4171    4170+
+           4169    2645    2486    1406
CTETRA      4244       1    3563    6157    3564    6168    3054     956+
+           4936     955    7907     142
CTETRA      4245       1    3298    3308    3307    5832    4227    4226+
+           4225    2877    2879    2066
CTETRA      4246       1    8940    5852    3309    5863    1509    2099+
+           5349    1267    7048    1526
CTETRA      4247       1    3241    3242    3251    5769    4042    4069+
+           4068     346    1889    1934
CTETRA      4248       1    3333    5866    3334    5877    1847     303+
+           4298    1840    7086     301
CTETRA      4249       1    8939    5863    3318    5874    1142    1268+
+           5351    1274    7079    1429
CTETRA      4250       1    3554    3564    3563    6157    4937    4936+
+           4935    1562     956    3054
CTETRA      4251       1    3320    5861    5860    5872    2680    7040+
+           2624    3006    7073    7072
CTETRA      4252       1    3318    3328    3327    5873    4281    4280+
+           4279    3040    2046     667
CTETRA      4253       1    3329    5882    3338    5883    2755    2962+
+           4310    2668    7102    3074
CTETRA      4254       1    3321    5860    5859    5871    2623    7037+
+           1855    2626    7070    7069
CTETRA      4255       1    3259    5791    3268    5792    1119    1123+
+           4116    2310    6845    2076
CTETRA      4256       1    3268    5791    5802    5803    1123    6875+
+           2972    2074    6877    6876
CTETRA      4257       1    3260    5779    5790    5791     336    6841+
+            338    1120    6843    6842
CTETRA      4258       1    3359    5911    3368    5912    2718    2719+
+           4394    2708    7183    2701
CTETRA      4259       1    3358    5901    3359    5912    2401    2400+
+           4367    1922    7185    2708
CTETRA      4260       1    3360    5900    5899    5911    2997    7149+
+           2981    1301    7182    7181
CTETRA      4261       1    3350    5890    5889    5901    2875    7121+
+           1456    1458    7154    7153
CTETRA      4262       1    3555    6145    3556    6155    2836    1569+
+           4914     951    7871    2817
CTETRA      4263       1    3369    5910    3370    5921    1300    1305+
+           4398    2994    7210    2884
CTETRA      4264       1    3370    5920    3379    5921    1796    2712+
+           4425    2884    7208    2998
CTETRA      4265       1    3563    3573    3572    6168    4962    4961+
+           4960     955     137     136
CTETRA      4266       1    3646    3656    3655    6265    5193    5192+
+           5191     508    1623    1963
CTETRA      4267       1    3401    5959    5970    5971    1373    7349+
+           2702    2704    7351    7350
CTETRA      4268       1    3241    5759    5758    5770    2647    6752+
+            345     347    6785    6784
CTETRA      4269       1    3401    5960    5959    5971    1374    7319+
+           1373    2704    7352    7351
CTETRA      4270       1    3400    5960    3401    5971    2733    1374+
+           4483    1916    7352    2704
CTETRA      4271       1    3193    5708    5707    5719    3041    6609+
+           3042    2639    6642    6641
CTETRA      4272       1    3193    3203    3202    5718    3934    3933+
+           3932    2637    2949    2638
CTETRA      4273       1    3203    5718    5717    5729    2949    6637+
+           2957    2640    6670    6669
CTETRA      4274       1    8951    3210    5731      10    5327    1440+
+           1443    1438    1439    2950
CTETRA      4275       1    3412    5979    3421    5980     608    1289+
+           4541    2030    7375    2075
CTETRA      4276       1    8951    5731    3210    5742    1443    1440+
+           5327    1444    6707    1011
CTETRA      4277       1    3182    5678    5677    5689    2419    6523+
+           2418    2353    6556    6555
CTETRA      4278       1    3162    5658    5669      23    2940    6500+
+            124    2941    2820    2597
CTETRA      4279       1    3161    3170    5670      23    3844    2595+
+           2821    2823    2596    2598
CTETRA      4280       1    3442    3443    3452    6008    4601    4628+
+           4627    1333    1347     587
CTETRA      4281       1    8928    3425    3416    5974    5514    4553+
+           5515    3062    2254    2857
CTETRA      4282       1    3165    3175    3174    5686    3856    3855+
+           3854    2584    2355    2585
CTETRA      4283       1    3162    5658    5657    5669    2940    6467+
+           2945     124    6500    6499
CTETRA      4284       1    3476    6044    6043    6054    2235    7556+
+           2847    2846    7586    7585
CTETRA      4285       1    3476    6044    6054    6055    2235    7586+
+           2846    3061    7588    7587
CTETRA      4286       1    3485    6055    6054    6065    2773    7587+
+           2989    2780    7617    7616
CTETRA      4287       1    3133    5638    5627       4    3009    6413+
+           2659    3008    2661      93
CTETRA      4288       1    3457    6033    3467    6034    1748    1750+
+           4668    2236    7528    2237
CTETRA      4289       1    3584    6186    3594    6197     135    2293+
+           5021     937    7988    2213
CTETRA      4290       1    3504    6076    6086    6087    2948    7676+
+           1575    1577    7678    7677
CTETRA      4291       1    3495    6075    3504    6076    2787    2789+
+           4772    3071    7646    2948
CTETRA      4292       1    3486    6054    6064    6065     766    7614+
+            768    2987    7616    7615
CTETRA      4293       1    3125    5625    3134    5626     450    1173+
+           3744    1939    6377    1935
CTETRA      4294       1    3140    5640    5651    5652    1483    6450+
+           2579     132    6452    6451
CTETRA      4295       1    3507    6104    3516    6105    2843    3087+
+           4804      46    7728      47
CTETRA      4296       1    3516    6105    6104    6116      47    7728+
+           3087    2889    7761    7760
CTETRA      4297       1    3540    6119    3541    6130    1295    1691+
+           4873     547    7799    1692
CTETRA      4298       1    3124    5617    5616    5628    2662    6347+
+           2338    2660    6385    6384
CTETRA      4299       1    3234    5745    5756    5757    2242    6745+
+           2514     855    6747    6746
CTETRA      4300       1    8731    8752    8751    5610    8672    8755+
+           8673     994    8638    8641
CTETRA      4301       1    3516    6104    6115    6116    3087    7758+
+           2888    2889    7760    7759
CTETRA      4302       1    8949    5743    8817    5754    2917    8378+
+           2362    2926    6739    8381
CTETRA      4303       1    3525    6116    6115    6127      52    7759+
+           1418    1530    7792    7791
CTETRA      4304       1    3517    6104    6114    6115    2441    7756+
+           2443    3088    7758    7757
CTETRA      4305       1    3554    6157    3563    6158    1562    3054+
+           4935    2120    7878    2124
CTETRA      4306       1    3542    6118    6128    6129     157    7794+
+           2223    1028    7796    7795
CTETRA      4307       1    8682    8701    8702    6317    3104    8719+
+           3105    3066    8488    8489
CTETRA      4308       1    3685    3686    3695    6305    5276    5303+
+           5302     422     421    2561
CTETRA      4309       1    3527    6114    6113    6124    3035    7754+
+           2298     653    7784    7783
CTETRA      4310       1    3647    6254    6253    6264     888    8148+
+           1545    1230    8178    8177
CTETRA      4311       1    3525    3535    3534    6137    4856    4855+
+           4854    3064    2891     234
CTETRA      4312       1    3516    3526    3525    6115    4831    4830+
+           4829    2888    1419    1418
CTETRA      4313       1    3526    6114    3527    6125    3033    3035+
+           4833    2808    7786    3030
CTETRA      4314       1    3682    6308    3692    6319    3056    2892+
+           5293    3057    8332    2894
CTETRA      4315       1    3527    3528    3537    6124    4836    4863+
+           4862     653    2299     654
CTETRA      4316       1    3546    3556    3555    6145    4915    4914+
+           4913    1567    1569    2836
CTETRA      4317       1    3676    3677    3686    6294    5251    5278+
+           5277     980     902    2754
CTETRA      4318       1    3542    6118    6117    6128     157    7764+
+            155    2223    7794    7793
CTETRA      4319       1    3683    6297    6307    6308    1677    8299+
+           1680    3052    8301    8300
CTETRA      4320       1    3550    6140    3559    6141     620     622+
+           4925    1293    7829     541
CTETRA      4321       1    3652    3662    3661    6290    5209    5208+
+           5207    3081    2859    2673
CTETRA      4322       1    3673    6288    6298    6299    2302    8274+
+           3055    2868    8276    8275
CTETRA      4323       1    8785    6105    3516    6116    8547      47+
+           2268    8546    7761    2889
CTETRA      4324       1    3632    3641    6239    6249    5153    2831+
+           2830    2089    1522    8135
CTETRA      4325       1    8905    8906    8773    6227    9020    2202+
+           2203     811     107    8467
CTETRA      4326       1    3630    3640    3639    6251    5149    5148+
+           5147    2404    3026    1224
CTETRA      4327       1    3565    6156    6155    6166     954    7872+
+            952     148    7902    7901
CTETRA      4328       1    3590    6190    3591    6201    2587    2427+
+           5011     528    8000    2942
CTETRA      4329       1    3562    3571    6170    6180    4957     532+
+           2372    1684     533    7942
CTETRA      4330       1    3599    6202    6201    6212    2494    8002+
+           2519    2429    8032    8031
CTETRA      4331       1    3516    3517    3526    6115    4805    4832+
+           4831    2888    3088    1419
CTETRA      4332       1    3619    3620    3629    6231    5092    5119+
+           5118     504    1977    2410
CTETRA      4333       1    8935    3353    8936    5897    5529    5530+
+           8990    1387    1426    1103
CTETRA      4334       1    3594    6197    6196    6207    2213    7987+
+            922     923    8017    8016
CTETRA      4335       1    3602    6198    6208    6209     929    8020+
+           2207    2839    8022    8021
CTETRA      4336       1    3616    6236    6235    6246     802    8098+
+             95      97    8128    8127
CTETRA      4337       1    3630    3639    6241    6251    5147    1223+
+           2402    2404    1224    8141
CTETRA      4338       1    3622    3632    3631    6239    5127    5126+
+           5125    2833    2830    2829
CTETRA      4339       1    3573    3583    3582    6178    4990    4989+
+           4988    1669    1671    1672
CTETRA      4340       1    8771    6259    3642    6270    8519    2091+
+           2090    8518    8195    2682
CTETRA      4341       1    3573    6167    3574    6178     141     150+
+           4964    1669    7935    1670
CTETRA      4342       1    3599    3609    3608    6212    5062    5061+
+           5060    2429     515    2430
CTETRA      4343       1    3635    3644    6257    6267    5160     894+
+            893    2186    2183    8187
CTETRA      4344       1    3609    6212    6222    6223     515    8060+
+           2528     517    8062    8061
CTETRA      4345       1    3581    6180    6179    6190    1675    7940+
+           1673    2586    7970    7969
CTETRA      4346       1    3653    6268    6278    6279    2557    8218+
+           2563    2559    8220    8219
CTETRA      4347       1    3654    3664    3663    6288    5215    5214+
+           5213    2978    2301    2300
CTETRA      4348       1    3534    3535    3544    6137    4855    4882+
+           4881     234    2891     998
CTETRA      4349       1    3682    3692    3691    6319    5293    5292+
+           5291    3057    2894    3060
CTETRA      4350       1    8684    8704    8685    3691    3107    3106+
+           8697    5445    2870    5444
CTETRA      4351       1    3683    6308    6307    6318    3052    8300+
+           1680    3048    8330    8329
CTETRA      4352       1    8681    3694    3695    6316    5451    5301+
+           5452     896     897    2549
CTETRA      4353       1    3589    3590    3599    6202    5008    5035+
+           5034    1984     529    2494
CTETRA      4354       1    3535    6125    3536    6136    2834    3031+
+           4858    2890    7817    2810
CTETRA      4355       1    3399    5972    3408    5973    1911    1913+
+           4504    2912    7356    3080
CTETRA      4356       1    8929    8930    3408    5973    8996    5372+
+           5371    1956    2913    3080
CTETRA      4357       1    8936    5886    8804    5897    1705    8404+
+           1101    1103    7142    8407
CTETRA      4358       1    3688    6313    6323    6324     366    8345+
+            192     368    8347    8346
CTETRA      4359       1    3536    6125    6135    6136    3031    7815+
+            989    2810    7817    7816
CTETRA      4360       1    8684    8703    8704    6319    3110    8722+
+           3107    2924    8492    8493
CTETRA      4361       1    3588    6203    3598    6214    1284    2806+
+           5031    1703    8037    2161
CTETRA      4362       1    3398    5941    5952    5953    2726    7297+
+           2729    2881    7299    7298
CTETRA      4363       1    3398    5942    5941    5953    1613    7267+
+           2726    2881    7300    7299
CTETRA      4364       1    8931    3398    3389    5941    5520    4478+
+           5521    2727    2726    3045
CTETRA      4365       1    3114    3115    3124    5617    3712    3711+
+           3710     875    1946    2662
CTETRA      4366       1    3120    5621    5620    5632    1553    6363+
+            398     440    6397    6396
CTETRA      4367       1    3579    3589    3588    6203    5006    5005+
+           5004    2724    1985    1284
CTETRA      4368       1    3525    3534    6127    6137    4854    1512+
+           1530    3064     234    7821
CTETRA      4369       1    3652    3661    6280    6290    5207    2856+
+           2855    3081    2673    8252
CTETRA      4370       1    3579    6182    6192    6193    1202    7976+
+           1205    2908    7978    7977
CTETRA      4371       1    3114    5606    3115    5617     874    1945+
+           3712     875    6349    1946
CTETRA      4372       1    8778    6182    3579    6193    8533    1202+
+           2906    8532    7978    2908
CTETRA      4373       1    3113    5607    3114    5618    1943     460+
+           3708    2356    6353     876
CTETRA      4374       1    3549    6141    3559    6152    2436     541+
+           4924    2433    7861     543
CTETRA      4375       1    9031    8830    8752      13    1491    8639+
+           8671     907     889     891
CTETRA      4376       1    3504    6075    3505    6086    2789    2788+
+           4773    1575    7675    3077
CTETRA      4377       1    3505    6085    3514    6086    3059    3083+
+           4800    3077    7674    2946
CTETRA      4378       1    3557    3558    3567    6153    4920    4947+
+           4946    1981    2196    2195
CTETRA      4379       1    3525    3526    3535    6126    4830    4857+
+           4856    1420    1421    2835
CTETRA      4380       1    3548    3558    3557    6153    4921    4920+
+           4919    2444    2196    1981
CTETRA      4381       1    3557    6153    3567    6164    1981    2195+
+           4946    1979    7895    1713
CTETRA      4382       1    3133    5627    5638    5639    2659    6413+
+           3009    2590    6415    6414
CTETRA      4383       1    3546    6134    3547    6145    2450    1722+
+           4889    1567    7842    1568
CTETRA      4384       1    8688    8709    3687    6324    3095    1072+
+           5437     781    8503     782
CTETRA      4385       1    3505    6075    6074    6085    2788    7643+
+           2985    3059    7673    7672
CTETRA      4386       1    3537    6123    3538    6133    2816    1717+
+           4864    1719    7809    1718
CTETRA      4387       1    8899    3686    3677    6304    5456    5278+
+           5457    2731    2730    2698
CTETRA      4388       1    3163    5657    5656    5668    2658    6464+
+           2657    3084    6497    6496
CTETRA      4389       1    8899    6293    8766    6304    1162    8480+
+           1148    2731    8289    8481
CTETRA      4390       1    3153    5647    5646    5658    2476    6436+
+           2902    2478    6469    6468
CTETRA      4391       1    3525    6127    6126    6137    1530    7790+
+           1420    3064    7821    7820
CTETRA      4392       1    3538    3548    3547    6133    4893    4892+
+           4891    1718    1723    1720
CTETRA      4393       1    8898    8899    8766    6304    9027    1148+
+           1226    1228    2731    8481
CTETRA      4394       1    8956    8823    5676      15    1206    8624+
+           1038    1039    1845    1040
CTETRA      4395       1    3532    3542    3541    6118    4877    4876+
+           4875    1694     157    1695
CTETRA      4396       1    8955    3174    3183    5698    5319    3879+
+           5322      34    2897    2259
CTETRA      4397       1    8956    3173    5666    5677    5570    1240+
+           1253    1208    1241    6522
CTETRA      4398       1    3517    6114    3526    6115    2443    3033+
+           4832    3088    7757    1419
CTETRA      4399       1    3507    3517    3516    6104    4806    4805+
+           4804    2843    2441    3087
CTETRA      4400       1    3516    6104    3517    6115    3087    2441+
+           4805    2888    7758    3088
CTETRA      4401       1    3505    3515    3514    6085    4802    4801+
+           4800    3059    2805    3083
CTETRA      4402       1    3505    6075    6085    6086    2788    7673+
+           3059    3077    7675    7674
CTETRA      4403       1    3181    3182    3191      22    3876    3903+
+           3902    2588    2582    2621
CTETRA      4404       1    5667    5679    5678      24    6527    6526+
+           6525    2655    2632    3044
CTETRA      4405       1    3172    3173    3182      16    3851    3878+
+           3877    2547    1242    2420
CTETRA      4406       1    8953    3200    3191    5699    5564    3928+
+           5565      26    1510      27
CTETRA      4407       1    3496    6074    3505    6075    2796    2985+
+           4775    3028    7643    2788
CTETRA      4408       1    8955    5687    3174    5698      33    1269+
+           5319      34    6583    2897
CTETRA      4409       1    3477    6042    3478    6053    2599    1751+
+           4698    2229    7582    1755
CTETRA      4410       1    3190    5690      14      22    2956    2620+
+           1463    2622    2575    2602
CTETRA      4411       1    3477    3487    3486    6053    4724    4723+
+           4722    2229    1756     767
CTETRA      4412       1    8905    8773    3624    6248    2203    2201+
+           5419    2084    8522    2085
CTETRA      4413       1    3183    5697    3184    5708    3075    2887+
+           3880    3086    6611    3085
CTETRA      4414       1    3176    3177    3186    5695    3861    3888+
+           3887    1145    1157    1146
CTETRA      4415       1    3183    5697    5708    5709    3075    6611+
+           3086      30    6613    6612
CTETRA      4416       1    3466    6034    6044    6045    2238    7558+
+           2233    2766    7560    7559
CTETRA      4417       1    3474    6056    3484    6057    2739    2736+
+           4715    2740    7593    2012
CTETRA      4418       1    3548    3557    6143    6153    4919    1980+
+           1725    2444    1981    7865
CTETRA      4419       1    3437    6004    6003    6015    2240    7443+
+           1015    2244    7476    7475
CTETRA      4420       1    3194    5717    3203    5718     273    2957+
+           3935    1156    6637    2949
CTETRA      4421       1    3464    3474    3473    6047    4687    4686+
+           4685    2533    2020    2019
CTETRA      4422       1    3638    6253    6252    6263    1549    8145+
+           1546     282    8175    8174
CTETRA      4423       1    3446    6015    6014    6026    2245    7474+
+           1763    2446    7507    7506
CTETRA      4424       1    3223    5738    5737    5749    1647    6693+
+           2961    1651    6726    6725
CTETRA      4425       1    3426    5995    5994    6006    2976    7418+
+           1031    2977    7451    7450
CTETRA      4426       1    3469    3470    3479    6041    4676    4703+
+           4702    2018    2133    1747
CTETRA      4427       1    3433    5997    3442    5998    2455    2747+
+           4600    2454    7425     593
CTETRA      4428       1    3221    5739    5750    5751     356    6729+
+            358    2315    6731    6730
CTETRA      4429       1    8905    3632    3623    6227    5468    5128+
+           5469     811    2832     108
CTETRA      4430       1    3422    3423    3432    5988    4545    4572+
+           4571     599     600    2107
CTETRA      4431       1    3421    5979    5978    5990    1289    7372+
+           1778    1290    7405    7404
CTETRA      4432       1    3382    5938    3383    5949    1785    2465+
+           4433    1786    7290    1782
CTETRA      4433       1    3338    3339    3348    5893    4311    4338+
+           4337    2144    2992    2699
CTETRA      4434       1    3410    5970    5981    5982    2703    7380+
+            250     252    7382    7381
CTETRA      4435       1    3401    5959    3402    5970    1373     633+
+           4486    2702    7349     629
CTETRA      4436       1    3269    5791    5790    5802    1121    6842+
+           1134    2503    6875    6874
CTETRA      4437       1    8942    8943    3291       9    8983    5346+
+           5345     868     862     863
CTETRA      4438       1    3350    5900    3359    5901    1457    2707+
+           4369    1458    7152    2400
CTETRA      4439       1    3340    3341    3350    5890    4317    4344+
+           4343    2876    2271    2875
CTETRA      4440       1    3349    5890    3350    5901    3073    2875+
+           4342    2399    7154    1458
CTETRA      4441       1    8943    3282    3291       9    5343    4179+
+           5346     862     834     863
CTETRA      4442       1    8941    8809    8942    5841    2100    2663+
+           8984    2093    8595    2094
CTETRA      4443       1    3504    6076    6075    6086    2948    7646+
+           2789    1575    7676    7675
CTETRA      4444       1    3255    3256    3265    5796    4080    4107+
+           4106     710    2769    2051
CTETRA      4445       1    3340    5890    3349    5891    2876    3073+
+           4341    2689    7124    2690
CTETRA      4446       1    3339    3349    3348    5892    4340    4339+
+           4338    2991    2692    2466
CTETRA      4447       1    3330    5871    5870    5882    2628    7068+
+           2979    3037    7101    7100
CTETRA      4448       1    3347    3348    3357    5904    4336    4363+
+           4362    1085    2468    1619
CTETRA      4449       1    3329    3330    3339    5882    4286    4313+
+           4312    2755    3037    3038
CTETRA      4450       1    8942    3299    3290    5820    5542    4203+
+           5543    2291    2882     866
CTETRA      4451       1    3290    5810    5809    5821     332    6895+
+            864    2635    6928    6927
CTETRA      4452       1    3307    3308    3317    5843    4226    4253+
+           4252    2067    2757    2758
CTETRA      4453       1    8943    5809    8811    5820     333    8390+
+           2180     865    6925    8393
CTETRA      4454       1    3320    5860    5871    5872    2624    7070+
+           2625    3006    7072    7071
CTETRA      4455       1    3320    3330    3329    5871    4287    4286+
+           4285    2625    2628    2667
CTETRA      4456       1    3288    5812    5811    5823    2486    6901+
+           2492    2487    6934    6933
CTETRA      4457       1    3287    5813    5812    5824    1396    6904+
+           1406    1397    6937    6936
CTETRA      4458       1    8942    5830    3291    5841     869     859+
+           5345    2094    6986    2677
CTETRA      4459       1    3297    3307    3306    5833    4224    4223+
+           4222    2325    2060     681
CTETRA      4460       1    3348    5892    3349    5903    2466    2692+
+           4339    2467    7160    2960
CTETRA      4461       1    3297    5822    5833    5834    2323    6962+
+           2325    1630    6964    6963
CTETRA      4462       1    3267    3277    3276    5804    4140    4139+
+           4138     708     695     709
CTETRA      4463       1    8941    3308    3299    5831    5540    4228+
+           5541    2096    2756    2097
CTETRA      4464       1    3349    3350    3359    5901    4342    4369+
+           4368    2399    1458    2400
CTETRA      4465       1    3257    3258    3267    5794    4086    4113+
+           4112    2079    1416     699
CTETRA      4466       1    3349    5891    5890    5902    2690    7124+
+           3073    2959    7157    7156
CTETRA      4467       1    3404    5966    3413    5967     615     610+
+           4519     616    7338     609
CTETRA      4468       1    3266    3267    3276    5805    4111    4138+
+           4137     700     701     702
CTETRA      4469       1    3256    3257    3266    5795    4083    4110+
+           4109    2768     715    2052
CTETRA      4470       1    3248    5783    3257    5784    1132     714+
+           4085    1133    6823     713
CTETRA      4471       1    3264    5796    5807    5808     711    6890+
+           2177     979    6892    6891
CTETRA      4472       1    3246    3256    3255    5785    4081    4080+
+           4079    2232    1192    2360
CTETRA      4473       1    3541    6119    6118    6129    1691    7767+
+           1695    1027    7797    7796
CTETRA      4474       1    3387    5933    5932    5944    2142    7242+
+           1606    2143    7275    7274
CTETRA      4475       1    3274    5807    5806    5818    1464    6888+
+           2431    1035    6921    6920
CTETRA      4476       1    3389    5941    3398    5942    3045    2726+
+           4478    3072    7267    1613
CTETRA      4477       1    8942    3299    5820    5831    5542    2882+
+           2291    2098    2097    6956
CTETRA      4478       1    8945    8812    8813    5797     856    8849+
+            690     670    8602    8603
CTETRA      4479       1    8924    8791    8792    6028      62    8870+
+             64      56    8560    8561
CTETRA      4480       1    8924    3452    8925    6018    5507    5508+
+           9001      53      55    1360
CTETRA      4481       1    8929    8797    8930    5973    1955    2671+
+           8996    1956    8571    2913
CTETRA      4482       1    3254    5776    3263    5777    1642    2818+
+           4103    2059    6802     843
CTETRA      4483       1    8930    3399    3408    5973    5369    4504+
+           5372    2913    2912    3080
CTETRA      4484       1    3142    5648    3151    5649    2369    2354+
+           3791    2370    6442    1477
CTETRA      4485       1    3667    6283    3677    6294      83     901+
+           5252      84    8261     902
CTETRA      4486       1    8946    8813    5786    5797     691    8604+
+           2664     671    8603    6862
CTETRA      4487       1    3408    3418    3417    5983    4531    4530+
+           4529    2720     260     259
CTETRA      4488       1    3418    5983    5982    5994     260    7384+
+           2504     262    7417    7416
CTETRA      4489       1    3266    3276    3275    5805    4137    4136+
+           4135     700     702     324
CTETRA      4490       1    3419    5982    5981    5993     253    7381+
+            251     255    7414    7413
CTETRA      4491       1    3273    5807    5818    5819     879    6921+
+            939     820    6923    6922
CTETRA      4492       1    3474    6047    6057    6058    2020    7595+
+           2740    2022    7597    7596
CTETRA      4493       1    3224    3225    3234    5746    3995    4022+
+           4021    1813     718     853
CTETRA      4494       1    3515    6085    6095    6096    2805    7701+
+           2263    3078    7703    7702
CTETRA      4495       1    3454    3464    3463    6037    4659    4658+
+           4657    2448    2763    3018
CTETRA      4496       1    3233    3234    3243    5757    4020    4047+
+           4046     854     855    1022
CTETRA      4497       1    3465    3475    3474    6046    4690    4689+
+           4688    2742    2811    2738
CTETRA      4498       1    3161    5659    5658    5670    2931    6470+
+           2822    2821    6503    6502
CTETRA      4499       1    3473    3474    3483    6058    4686    4713+
+           4712    2021    2022    2023
CTETRA      4500       1    3668    3677    6283    6293    5253     901+
+           1877     489     488    8259
CTETRA      4501       1    3213    3223    3222    5738    3990    3989+
+           3988    1646    1647    1137
CTETRA      4502       1    3484    6056    3485    6066    2736    2772+
+           4717    2737    7620    2774
CTETRA      4503       1    3474    3484    3483    6057    4715    4714+
+           4713    2740    2012    2011
CTETRA      4504       1    3195    3205    3204    5716    3940    3939+
+           3938    2334    1468    2617
CTETRA      4505       1    3494    6076    3503    6077    2983    2947+
+           4769    2984    7649    2414
CTETRA      4506       1    8918    8786    3507    6105    1129    1850+
+           5393      45    8548      46
CTETRA      4507       1    3467    6034    6033    6044    2237    7528+
+           1750    2234    7558    7557
CTETRA      4508       1    3214    5726    5737    5738    1481    6692+
+           2063    1482    6694    6693
CTETRA      4509       1    3184    3194    3193    5707    3909    3908+
+           3907    3067    1154    3042
CTETRA      4510       1    3495    6065    6064    6075    2988    7615+
+           3017    2787    7645    7644
CTETRA      4511       1    3184    5707    3193    5708    3067    3042+
+           3907    3085    6609    3041
CTETRA      4512       1    3515    6085    6084    6095    2805    7671+
+           2803    2263    7701    7700
CTETRA      4513       1    8900    8768    8901    6303    1972    1122+
+           9025     476    8512     477
CTETRA      4514       1    8900    3669    3678    6303    5429    5254+
+           5432     476     478    2106
CTETRA      4515       1    8922    8789    6050    6061    1760    8556+
+           1857    1769    8555    7606
CTETRA      4516       1    8916    8783    8784    6127    1423    8878+
+             42    1511    8543    8544
CTETRA      4517       1    3514    6085    3515    6096    3083    2805+
+           4801    3019    7703    3078
CTETRA      4518       1    3183    3193    3192    5708    3906    3905+
+           3904    3086    3041     948
CTETRA      4519       1    3515    6095    3524    6096    2263      49+
+           4828    3078    7702    2813
CTETRA      4520       1    3174    3184    3183    5697    3881    3880+
+           3879    2895    2887    3075
CTETRA      4521       1    3163    5657    5668       5    2658    6497+
+           3084    3082    2603    2604
CTETRA      4522       1    3141    3142    3151    5650    3764    3791+
+           3790    2378    2786    2379
CTETRA      4523       1    3133    5638    3142    5639    3009    2785+
+           3766    2590    6414    2784
CTETRA      4524       1    8786    6094    3507    6105    8549    1852+
+           1850    8548    7730      46
$*
$* PROPERTY CARDS
$*
$*  Property: Aluminum 6061
PSOLID         1       1       0                           SMECH
$*
$* MATERIAL CARDS
$*
$*  Material: Aluminum_6061::Upper Leg_fem1::[1]
MAT1           16.8980+7        0.3300002.7110-62.2380-5
MATT1          1       1               2               3
TABLEM1        1                       1                                +
+        20.00006.8980+7 21.11006.8980+7 23.89006.8980+7 37.78006.8290+7+
+        51.67006.8290+7 65.56006.7600+7 79.44006.6910+7 93.33006.6221+7+
+       107.22006.5531+7121.11006.4841+7135.00006.4151+7148.89006.3461+7+
+       162.78006.2772+7176.67006.1392+7190.56006.0702+7204.44005.9323+7+
+       218.33005.8633+7232.22005.7253+7246.11005.5874+7260.00005.4494+7+
+       273.89005.3114+7287.78005.1735+7301.67005.0355+7315.56004.8976+7+
+       329.44004.7596+7343.33004.6216+7357.22004.4147+7371.11004.2767+7+
+       385.00004.1388+7398.89003.9318+7412.78003.7939+7426.67003.5869+7+
+           ENDT
TABLEM1        2                       1                                +
+        20.00000.330000 21.11000.330000    ENDT
TABLEM1        3                       1                                +
+        20.00002.2380-5 93.33002.3184-5107.22002.3346-5121.11002.3508-5+
+       135.00002.3670-5148.89002.3832-5162.78002.3994-5176.67002.4138-5+
+       190.56002.4300-5204.44002.4444-5218.33002.4588-5232.22002.4732-5+
+       246.11002.4876-5260.00002.5002-5273.89002.5146-5287.78002.5272-5+
+       301.67002.5398-5315.56002.5524-5    ENDT
$*
$* LOAD AND CONSTRAINT CARDS
$*
$*  Constraint: NoRot(1)
SPC            1    3089     456  0.0000
SPC            1    3090     456  0.0000
SPC            1    3091     456  0.0000
SPC            1    3092     456  0.0000
SPC            1    3093     456  0.0000
SPC            1    3094     456  0.0000
SPC            1    3095     456  0.0000
SPC            1    3096     456  0.0000
SPC            1    3097     456  0.0000
SPC            1    3098     456  0.0000
SPC            1    3099     456  0.0000
SPC            1    3100     456  0.0000
SPC            1    3101     456  0.0000
SPC            1    3102     456  0.0000
SPC            1    3103     456  0.0000
SPC            1    3104     456  0.0000
SPC            1    3105     456  0.0000
SPC            1    3106     456  0.0000
SPC            1    3107     456  0.0000
SPC            1    3108     456  0.0000
SPC            1    3109     456  0.0000
SPC            1    3110     456  0.0000
SPC            1    8659     456  0.0000
SPC            1    8660     456  0.0000
SPC            1    8661     456  0.0000
SPC            1    8662     456  0.0000
SPC            1    8663     456  0.0000
SPC            1    8664     456  0.0000
SPC            1    8665     456  0.0000
SPC            1    8666     456  0.0000
SPC            1    8667     456  0.0000
SPC            1    8668     456  0.0000
SPC            1    8669     456  0.0000
SPC            1    8670     456  0.0000
SPC            1    8671     456  0.0000
SPC            1    8672     456  0.0000
SPC            1    8673     456  0.0000
SPC            1    8674     456  0.0000
SPC            1    8675     456  0.0000
SPC            1    8676     456  0.0000
SPC            1    8677     456  0.0000
SPC            1    8678     456  0.0000
SPC            1    8679     456  0.0000
SPC            1    8680     456  0.0000
SPC            1    8681     456  0.0000
SPC            1    8682     456  0.0000
SPC            1    8683     456  0.0000
SPC            1    8684     456  0.0000
SPC            1    8685     456  0.0000
SPC            1    8686     456  0.0000
SPC            1    8687     456  0.0000
SPC            1    8688     456  0.0000
SPC            1    8689     456  0.0000
SPC            1    8690     456  0.0000
SPC            1    8691     456  0.0000
SPC            1    8692     456  0.0000
SPC            1    8693     456  0.0000
SPC            1    8694     456  0.0000
SPC            1    8695     456  0.0000
SPC            1    8696     456  0.0000
SPC            1    8697     456  0.0000
SPC            1    8698     456  0.0000
SPC            1    8699     456  0.0000
SPC            1    8700     456  0.0000
SPC            1    8701     456  0.0000
SPC            1    8702     456  0.0000
SPC            1    8703     456  0.0000
SPC            1    8704     456  0.0000
SPC            1    8705     456  0.0000
SPC            1    8706     456  0.0000
SPC            1    8707     456  0.0000
SPC            1    8708     456  0.0000
SPC            1    8709     456  0.0000
SPC            1    8710     456  0.0000
SPC            1    8711     456  0.0000
SPC            1    8712     456  0.0000
SPC            1    8713     456  0.0000
SPC            1    8714     456  0.0000
SPC            1    8715     456  0.0000
SPC            1    8716     456  0.0000
SPC            1    8717     456  0.0000
SPC            1    8718     456  0.0000
SPC            1    8719     456  0.0000
SPC            1    8720     456  0.0000
SPC            1    8721     456  0.0000
SPC            1    8722     456  0.0000
SPC            1    8723     456  0.0000
SPC            1    8724     456  0.0000
SPC            1    8725     456  0.0000
SPC            1    8726     456  0.0000
SPC            1    8727     456  0.0000
SPC            1    8728     456  0.0000
SPC            1    8729     456  0.0000
SPC            1    8730     456  0.0000
SPC            1    8731     456  0.0000
SPC            1    8732     456  0.0000
SPC            1    8733     456  0.0000
SPC            1    8734     456  0.0000
SPC            1    8735     456  0.0000
SPC            1    8736     456  0.0000
SPC            1    8737     456  0.0000
SPC            1    8738     456  0.0000
SPC            1    8739     456  0.0000
SPC            1    8740     456  0.0000
SPC            1    8741     456  0.0000
SPC            1    8742     456  0.0000
SPC            1    8743     456  0.0000
SPC            1    8744     456  0.0000
SPC            1    8745     456  0.0000
SPC            1    8746     456  0.0000
SPC            1    8747     456  0.0000
SPC            1    8748     456  0.0000
SPC            1    8749     456  0.0000
SPC            1    8750     456  0.0000
SPC            1    8751     456  0.0000
SPC            1    8752     456  0.0000
SPC            1    8753     456  0.0000
SPC            1    8754     456  0.0000
SPC            1    8755     456  0.0000
SPC            1    8756     456  0.0000
SPC            1    8757     456  0.0000
SPC            1    8758     456  0.0000
SPC            1    8759     456  0.0000
SPC            1    8760     456  0.0000
SPC            1    8761     456  0.0000
SPC            1    8762     456  0.0000
SPC            1    8763     456  0.0000
SPC            1    8764     456  0.0000
SPC            1    9029     456  0.0000
SPC            1    9030     456  0.0000
SPC            1    9031     456  0.0000
SPC            1    9032     456  0.0000
$*  Load: Force(1)
FORCE          2    3089       09.8386+51.000000  0.0000  0.0000
FORCE          2    3090       01.0056+61.000000  0.0000  0.0000
FORCE          2    3091       01.0692+61.000000  0.0000  0.0000
FORCE          2    3092       09.9740+51.000000  0.0000  0.0000
FORCE          2    3093       01.2064+61.000000  0.0000  0.0000
FORCE          2    3094       01.0064+61.000000  0.0000  0.0000
FORCE          2    3095       09.8475+51.000000  0.0000  0.0000
FORCE          2    3096       01.0201+61.000000  0.0000  0.0000
FORCE          2    3097       01.0692+61.000000  0.0000  0.0000
FORCE          2    3098       01.2062+61.000000  0.0000  0.0000
FORCE          2    3099       09.9800+51.000000  0.0000  0.0000
FORCE          2    3100       01.0205+61.000000  0.0000  0.0000
FORCE          2    3101       01.0692+61.000000  0.0000  0.0000
FORCE          2    3102       09.9740+51.000000  0.0000  0.0000
FORCE          2    3103       01.0201+61.000000  0.0000  0.0000
FORCE          2    3104       09.8475+51.000000  0.0000  0.0000
FORCE          2    3105       01.0064+61.000000  0.0000  0.0000
FORCE          2    3106       01.0692+61.000000  0.0000  0.0000
FORCE          2    3107       09.9800+51.000000  0.0000  0.0000
FORCE          2    3108       01.0056+61.000000  0.0000  0.0000
FORCE          2    3109       09.8386+51.000000  0.0000  0.0000
FORCE          2    3110       01.0205+61.000000  0.0000  0.0000
FORCE          2    8690       04.6600+51.000000  0.0000  0.0000
FORCE          2    8691       05.1033+51.000000  0.0000  0.0000
FORCE          2    8692       04.8872+51.000000  0.0000  0.0000
FORCE          2    8693       04.6606+51.000000  0.0000  0.0000
FORCE          2    8694       04.8856+51.000000  0.0000  0.0000
FORCE          2    8695       04.6600+51.000000  0.0000  0.0000
FORCE          2    8696       04.8872+51.000000  0.0000  0.0000
FORCE          2    8697       04.6606+51.000000  0.0000  0.0000
FORCE          2    8698       05.1033+51.000000  0.0000  0.0000
FORCE          2    8699       04.8856+51.000000  0.0000  0.0000
FORCE          2    8711       04.9530+51.000000  0.0000  0.0000
FORCE          2    8712       06.0322+51.000000  0.0000  0.0000
FORCE          2    8713       04.9603+51.000000  0.0000  0.0000
FORCE          2    8714       05.3139+51.000000  0.0000  0.0000
FORCE          2    8715       06.0310+51.000000  0.0000  0.0000
FORCE          2    8716       05.3194+51.000000  0.0000  0.0000
FORCE          2    8717       06.0322+51.000000  0.0000  0.0000
FORCE          2    8718       05.3139+51.000000  0.0000  0.0000
FORCE          2    8719       04.9603+51.000000  0.0000  0.0000
FORCE          2    8720       06.0310+51.000000  0.0000  0.0000
FORCE          2    8721       04.9530+51.000000  0.0000  0.0000
FORCE          2    8722       05.3194+51.000000  0.0000  0.0000
$*  Load: Force(2)
FORCE          3    8659       09.8386+5-1.00000  0.0000  0.0000
FORCE          3    8660       01.0056+6-1.00000  0.0000  0.0000
FORCE          3    8661       01.0692+6-1.00000  0.0000  0.0000
FORCE          3    8662       09.9740+5-1.00000  0.0000  0.0000
FORCE          3    8663       01.2064+6-1.00000  0.0000  0.0000
FORCE          3    8664       01.0064+6-1.00000  0.0000  0.0000
FORCE          3    8665       09.8475+5-1.00000  0.0000  0.0000
FORCE          3    8666       01.0201+6-1.00000  0.0000  0.0000
FORCE          3    8667       01.0692+6-1.00000  0.0000  0.0000
FORCE          3    8668       01.2062+6-1.00000  0.0000  0.0000
FORCE          3    8669       09.9800+5-1.00000  0.0000  0.0000
FORCE          3    8670       01.0205+6-1.00000  0.0000  0.0000
FORCE          3    8671       01.0692+6-1.00000  0.0000  0.0000
FORCE          3    8672       09.9740+5-1.00000  0.0000  0.0000
FORCE          3    8673       01.0201+6-1.00000  0.0000  0.0000
FORCE          3    8674       09.8475+5-1.00000  0.0000  0.0000
FORCE          3    8675       01.0064+6-1.00000  0.0000  0.0000
FORCE          3    8676       01.0692+6-1.00000  0.0000  0.0000
FORCE          3    8677       09.9800+5-1.00000  0.0000  0.0000
FORCE          3    8678       01.0056+6-1.00000  0.0000  0.0000
FORCE          3    8679       09.8386+5-1.00000  0.0000  0.0000
FORCE          3    8680       01.0205+6-1.00000  0.0000  0.0000
FORCE          3    8732       04.6600+5-1.00000  0.0000  0.0000
FORCE          3    8733       04.6600+5-1.00000  0.0000  0.0000
FORCE          3    8734       04.8872+5-1.00000  0.0000  0.0000
FORCE          3    8735       05.1033+5-1.00000  0.0000  0.0000
FORCE          3    8736       04.8856+5-1.00000  0.0000  0.0000
FORCE          3    8737       04.6606+5-1.00000  0.0000  0.0000
FORCE          3    8738       04.6606+5-1.00000  0.0000  0.0000
FORCE          3    8739       04.8856+5-1.00000  0.0000  0.0000
FORCE          3    8740       05.1033+5-1.00000  0.0000  0.0000
FORCE          3    8741       04.8872+5-1.00000  0.0000  0.0000
FORCE          3    8753       06.0322+5-1.00000  0.0000  0.0000
FORCE          3    8754       06.0322+5-1.00000  0.0000  0.0000
FORCE          3    8755       05.3139+5-1.00000  0.0000  0.0000
FORCE          3    8756       04.9603+5-1.00000  0.0000  0.0000
FORCE          3    8757       04.9530+5-1.00000  0.0000  0.0000
FORCE          3    8758       05.3194+5-1.00000  0.0000  0.0000
FORCE          3    8759       06.0310+5-1.00000  0.0000  0.0000
FORCE          3    8760       06.0310+5-1.00000  0.0000  0.0000
FORCE          3    8761       05.3194+5-1.00000  0.0000  0.0000
FORCE          3    8762       04.9530+5-1.00000  0.0000  0.0000
FORCE          3    8763       04.9603+5-1.00000  0.0000  0.0000
FORCE          3    8764       05.3139+5-1.00000  0.0000  0.0000
LOAD         1011.0000001.000000       21.000000       3
ENDDATA 1c706f08
